 #dimension      3                                                                                   
 units          real                                                                                 
 boundary       f f f                                                                                
 atom_style     charge                                                                               
 atom_modify    map array sort 0 0.0                                                                 
                                                                                                     
 # XXX replaced by mass labels and atom creation                                                     
                                                                                                     
 region thebox block    -806.24432665    806.24432665   -806.24432665    806.24432665   -806.24432665    806.24432665
 create_box 4 thebox
 mass  1    12.01070040
 mass  2    15.99491539
 mass  3     1.00782506
 mass  4   196.61054418
 create_atoms  1 single     3.00094704    -1.23513549     0.02411163
 create_atoms  2 single     3.17260817    -0.06492744    -0.09201109
 create_atoms  2 single     5.33229133     1.64969589     0.00361216
 create_atoms  3 single     6.24432665     1.51872451     0.19041896
 create_atoms  3 single     4.97628680     0.78112900     0.13223711
 create_atoms  4 single     2.64780272    -3.00220559     0.18390953
                                                                                                     
 pair_style     reax/c lmp_control                                                                   
 # Force file to be used, types added automatically                                                  
 pair_coeff     * * CHOPtNiX.ff C O H Pt                                                                                           
 fix            1 all qeq/reax 1 0.0 10.0 1.0e-8 reax/c  # new addition                              
                                                                                                     
 neighbor       1.0 bin                                                                              
 neigh_modify   every 1 delay 0 check no                                                             
                                                                                                     
 compute        reax all pair reax/c                                                                 
                                                                                                     
 dump           1 all custom 1 temp.force fx fy fz                                                   
 dump_modify    1 format float "%14.8f"                                                              
                                                                                                     
 thermo         0                                                                                    
 thermo_style   custom pe                                                                            
                                                                                                     
 run            0                                                                                    
