    4

C      -2.55968070      0.20876313     -0.00000000
O      -3.68770681      0.21669929      0.00000000
H       3.12621360      0.16753025      0.00000000
H       3.12117390     -0.59299267      0.00000000
    4

C       0.13024412      0.07209776      0.00000000
O      -1.00364727      0.02460299      0.00000000
H       0.65249577      6.10040626      0.00000000
H       0.22090737     -6.19710700      0.00000000
    4

C      -2.08374632      0.26637264      0.00000000
O      -3.21414089      0.10647881      0.00000000
H       2.67423969      0.36815023      0.00000000
H       2.62364752     -0.74100168      0.00000000
    4

C      -1.85513581      0.32986254      0.00000000
O      -2.96353026      0.02979318      0.00000000
H       2.44665289      0.39379185      0.00000000
H       2.37201319     -0.75344757      0.00000000
    4

C      -1.61904114      0.34125507      0.00000000
O      -2.72041576     -0.00693820      0.00000000
H       2.21927229      0.43675463      0.00000000
H       2.12018461     -0.77107151      0.00000000
    4

C      -1.37896827      0.33858957      0.00000000
O      -2.47974099     -0.03288408      0.00000000
H       1.99499565      0.50623328      0.00000000
H       1.86371361     -0.81193876      0.00000000
    4

C      -1.13412886      0.32038978      0.00000000
O      -2.24256872     -0.04855834      0.00000000
H       1.77222733      0.57790142      0.00000000
H       1.60447026     -0.84973286      0.00000000
    4

C      -0.88262412      0.27640605      0.00000000
O      -2.01087824     -0.04878404      0.00000000
H       1.54801611      0.65464885      0.00000000
H       1.34548626     -0.88227085      0.00000000
    4

C      18.19538408     -1.43274632      0.00000000
O     -17.61194320      1.27975705      0.00000000
H      -0.23128914      0.90596098      0.00000000
H      -0.35215175     -0.75297171      0.00000000
    4

C      -0.00213827      0.00012398     -0.00000000
O      -1.19604137      0.06934883      0.00000000
H       0.65376003      0.90814661      0.00000000
H       0.54441961     -0.97761943     -0.00000000
    4

C      -2.55968070      0.20876313     -0.00000000
O      -3.68770681      0.21669929      0.00000000
H       3.12621360      0.16753025      0.00000000
H       3.12117390     -0.59299267      0.00000000
    4

C       0.13024412      0.07209776      0.00000000
O      -1.00364727      0.02460299      0.00000000
H       0.65249577      6.10040626      0.00000000
H       0.22090737     -6.19710700      0.00000000
    4

C      -2.08374632      0.26637264      0.00000000
O      -3.21414089      0.10647881      0.00000000
H       2.67423969      0.36815023      0.00000000
H       2.62364752     -0.74100168      0.00000000
    4

C      -1.85513581      0.32986254      0.00000000
O      -2.96353026      0.02979318      0.00000000
H       2.44665289      0.39379185      0.00000000
H       2.37201319     -0.75344757      0.00000000
    4

C      -1.61904114      0.34125507      0.00000000
O      -2.72041576     -0.00693820      0.00000000
H       2.21927229      0.43675463      0.00000000
H       2.12018461     -0.77107151      0.00000000
    4

C      -1.37896827      0.33858957      0.00000000
O      -2.47974099     -0.03288408      0.00000000
H       1.99499565      0.50623328      0.00000000
H       1.86371361     -0.81193876      0.00000000
    4

C      -1.13412886      0.32038978      0.00000000
O      -2.24256872     -0.04855834      0.00000000
H       1.77222733      0.57790142      0.00000000
H       1.60447026     -0.84973286      0.00000000
    4

C      -0.88262412      0.27640605      0.00000000
O      -2.01087824     -0.04878404      0.00000000
H       1.54801611      0.65464885      0.00000000
H       1.34548626     -0.88227085      0.00000000
    4

C      18.19538408     -1.43274632      0.00000000
O     -17.61194320      1.27975705      0.00000000
H      -0.23128914      0.90596098      0.00000000
H      -0.35215175     -0.75297171      0.00000000
    4

C      -0.00213827      0.00012398     -0.00000000
O      -1.19604137      0.06934883      0.00000000
H       0.65376003      0.90814661      0.00000000
H       0.54441961     -0.97761943     -0.00000000
    4

C      -2.55968070      0.20876313     -0.00000000
O      -3.68770681      0.21669929      0.00000000
H       3.12621360      0.16753025      0.00000000
H       3.12117390     -0.59299267      0.00000000
    4

C       0.12972229      0.07197278     -0.00000000
O      -1.00416549      0.02478147     -0.00000000
H       0.65300213      6.10082818     -0.00000000
H       0.22144107     -6.19758243     -0.00000000
    4

C      -2.08827608      0.26329309     -0.00000000
O      -3.21959345      0.10948582     -0.00000000
H       2.67913886      0.37953897     -0.00000000
H       2.62873067     -0.75231788     -0.00000000
    4

C      -1.85513389      0.32986285      0.00000000
O      -2.96352901      0.02979273      0.00000000
H       2.44663676      0.39356700      0.00000000
H       2.37202615     -0.75322259      0.00000000
    4

C      -1.61903725      0.34125514      0.00000000
O      -2.72041181     -0.00693871      0.00000000
H       2.21926860      0.43675555      0.00000000
H       2.12018046     -0.77107198      0.00000000
    4

C      -1.37896725      0.33858952      0.00000000
O      -2.47973997     -0.03288417      0.00000000
H       1.99499470      0.50623358      0.00000000
H       1.86371252     -0.81193893      0.00000000
    4

C      -1.13412657      0.32038949      0.00000000
O      -2.24256655     -0.04855842      0.00000000
H       1.77222526      0.57790211      0.00000000
H       1.60446786     -0.84973319      0.00000000
    4

C      -0.86371929      0.27406856      0.00000000
O      -2.01321110     -0.04799999      0.00000000
H       1.54022764      0.65710189      0.00000000
H       1.33670276     -0.88317046      0.00000000
    4

C      18.19524093     -1.43269213      0.00000000
O     -17.61214785      1.27973517      0.00000000
H      -0.23110556      0.90590841      0.00000000
H      -0.35198752     -0.75295146      0.00000000
    4

C      -0.00213827      0.00012398     -0.00000000
O      -1.19604137      0.06934883      0.00000000
H       0.65376003      0.90814661      0.00000000
H       0.54441961     -0.97761943     -0.00000000
    4

C      -2.55968070      0.20876313     -0.00000000
O      -3.68770681      0.21669929      0.00000000
H       3.12621360      0.16753025      0.00000000
H       3.12117390     -0.59299267      0.00000000
    4

C       0.12867672      0.07172719     -0.00000000
O      -1.00520017      0.02513613     -0.00000000
H       0.65401527      6.10167277     -0.00000000
H       0.22250818     -6.19853608     -0.00000000
    4

C      -2.09706636      0.25716126     -0.00000000
O      -3.23021579      0.11544840     -0.00000000
H       2.68867923      0.40265163     -0.00000000
H       2.63860292     -0.77526128     -0.00000000
    4

C      -1.85516075      0.32985844      0.00000000
O      -2.96355912      0.02979939      0.00000000
H       2.44663498      0.39312015      0.00000000
H       2.37208489     -0.75277798      0.00000000
    4

C      -1.61902947      0.34125529      0.00000000
O      -2.72040391     -0.00693974      0.00000000
H       2.21926123      0.43675738      0.00000000
H       2.12017216     -0.77107294      0.00000000
    4

C      -1.37896519      0.33858943      0.00000000
O      -2.47973795     -0.03288435      0.00000000
H       1.99499281      0.50623418      0.00000000
H       1.86371033     -0.81193926      0.00000000
    4

C      -1.13412188      0.32038891      0.00000000
O      -2.24256231     -0.04855856      0.00000000
H       1.77222113      0.57790348      0.00000000
H       1.60446307     -0.84973383      0.00000000
    4

C      -0.82597569      0.26942848      0.00000000
O      -2.01841300     -0.04641257      0.00000000
H       1.52492780      0.66190801      0.00000000
H       1.31946090     -0.88492392      0.00000000
    4

C      18.19495474     -1.43258334      0.00000000
O     -17.61255710      1.27969101      0.00000000
H      -0.23073810      0.90580335      0.00000000
H      -0.35165953     -0.75291102      0.00000000
    4

C      -0.00213827      0.00012398     -0.00000000
O      -1.19604137      0.06934883      0.00000000
H       0.65376003      0.90814661      0.00000000
H       0.54441961     -0.97761943     -0.00000000
    4

C      -2.55968070      0.20876313     -0.00000000
O      -3.68770681      0.21669929      0.00000000
H       3.12621360      0.16753025      0.00000000
H       3.12117390     -0.59299267      0.00000000
    4

C       0.12709518      0.07137145     -0.00000000
O      -1.00675330      0.02566285     -0.00000000
H       0.65554309      6.10294725     -0.00000000
H       0.22411502     -6.19998154     -0.00000000
    4

C      -2.10945969      0.24805245     -0.00000000
O      -3.24531511      0.12423382     -0.00000000
H       2.70222886      0.43824754     -0.00000000
H       2.65254594     -0.81053381     -0.00000000
    4

C      -1.85528801      0.32983666      0.00000000
O      -2.96369686      0.02983154      0.00000000
H       2.44672023      0.39248460      0.00000000
H       2.37226465     -0.75215280      0.00000000
    4

C      -1.61901783      0.34125550      0.00000000
O      -2.72039208     -0.00694127      0.00000000
H       2.21925019      0.43676014      0.00000000
H       2.12015974     -0.77107438      0.00000000
    4

C      -1.37896210      0.33858930      0.00000000
O      -2.47973491     -0.03288461      0.00000000
H       1.99498996      0.50623508      0.00000000
H       1.86370705     -0.81193977      0.00000000
    4

C      -1.13410067      0.32038631      0.00000000
O      -2.24254448     -0.04855912      0.00000000
H       1.77220303      0.57790946      0.00000000
H       1.60444212     -0.84973666      0.00000000
    4

C      -0.76972467      0.26258547      0.00000000
O      -2.02763846     -0.04398711      0.00000000
H       1.50280188      0.66882351      0.00000000
H       1.29456126     -0.88742187      0.00000000
    4

C      18.19453579     -1.43242273      0.00000000
O     -17.61315676      1.27962508      0.00000000
H      -0.23019876      0.90564964      0.00000000
H      -0.35118026     -0.75285199      0.00000000
    4

C      -0.00213827      0.00012398     -0.00000000
O      -1.19604137      0.06934883      0.00000000
H       0.65376003      0.90814661      0.00000000
H       0.54441961     -0.97761943     -0.00000000
    4

C      -2.55968070      0.20876313     -0.00000000
O      -3.68770681      0.21669929      0.00000000
H       3.12621360      0.16753025      0.00000000
H       3.12117390     -0.59299267      0.00000000
    4

C       0.12495304      0.07092582     -0.00000000
O      -1.00882972      0.02635386     -0.00000000
H       0.65760181      6.10466503     -0.00000000
H       0.22627487     -6.20194470     -0.00000000
    4

C      -2.12445630      0.23610285     -0.00000000
O      -3.26383214      0.13562254     -0.00000000
H       2.71882170      0.48733023     -0.00000000
H       2.66946674     -0.85905562     -0.00000000
    4

C      -1.85559415      0.32978135      0.00000000
O      -2.96402622      0.02991122      0.00000000
H       2.44697569      0.39176214      0.00000000
H       2.37264469     -0.75145471      0.00000000
    4

C      -1.61900244      0.34125579      0.00000000
O      -2.72037644     -0.00694330      0.00000000
H       2.21923559      0.43676382      0.00000000
H       2.12014330     -0.77107631      0.00000000
    4

C      -1.37895797      0.33858912      0.00000000
O      -2.47973083     -0.03288497      0.00000000
H       1.99498615      0.50623628      0.00000000
H       1.86370265     -0.81194044      0.00000000
    4

C      -1.13403207      0.32037804      0.00000000
O      -2.24249228     -0.04856063      0.00000000
H       1.77214703      0.57792791      0.00000000
H       1.60437732     -0.84974533      0.00000000
    4

C      -0.69560781      0.25369227      0.00000000
O      -2.04230434     -0.04068959      0.00000000
H       1.47480100      0.67751398      0.00000000
H       1.26311116     -0.89051666      0.00000000
    4

C      18.19400534     -1.43221658      0.00000000
O     -17.61391887      1.27953912      0.00000000
H      -0.22951222      0.90545492      0.00000000
H      -0.35057426     -0.75277746      0.00000000
    4

C      -0.00213827      0.00012398     -0.00000000
O      -1.19604137      0.06934883      0.00000000
H       0.65376003      0.90814661      0.00000000
H       0.54441961     -0.97761943     -0.00000000
    4

C      -2.55968070      0.20876313     -0.00000000
O      -3.68770681      0.21669929      0.00000000
H       3.12621360      0.16753025      0.00000000
H       3.12117390     -0.59299267      0.00000000
    4

C       0.12220816      0.07042902     -0.00000000
O      -1.01143498      0.02719315     -0.00000000
H       0.66021806      6.10684497     -0.00000000
H       0.22900874     -6.20446713     -0.00000000
    4

C      -2.14080211      0.22151683     -0.00000000
O      -3.28442906      0.14931184     -0.00000000
H       2.73723760      0.55092035     -0.00000000
H       2.68799356     -0.92174901     -0.00000000
    4

C      -1.85611140      0.32968224      0.00000000
O      -2.96458242      0.03005044      0.00000000
H       2.44744080      0.39109171      0.00000000
H       2.37325302     -0.75082439      0.00000000
    4

C      -1.61898358      0.34125614      0.00000000
O      -2.72035728     -0.00694579      0.00000000
H       2.21921770      0.43676834      0.00000000
H       2.12012316     -0.77107870      0.00000000
    4

C      -1.37895275      0.33858890      0.00000000
O      -2.47972569     -0.03288541      0.00000000
H       1.99498134      0.50623780      0.00000000
H       1.86369710     -0.81194128      0.00000000
    4

C      -1.13386571      0.32035835      0.00000000
O      -2.24237934     -0.04856356      0.00000000
H       1.77201748      0.57797044      0.00000000
H       1.60422758     -0.84976523      0.00000000
    4

C      -0.60455794      0.24293485      0.00000000
O      -2.06373714     -0.03650024      0.00000000
H       1.44197130      0.68761639      0.00000000
H       1.22632379     -0.89405100      0.00000000
    4

C      18.19339971     -1.43197542      0.00000000
O     -17.61480484      1.27943669      0.00000000
H      -0.22871662      0.90523071      0.00000000
H      -0.34987825     -0.75269198      0.00000000
    4

C      -0.00213827      0.00012398     -0.00000000
O      -1.19604137      0.06934883      0.00000000
H       0.65376003      0.90814661      0.00000000
H       0.54441961     -0.97761943     -0.00000000
    4

C      -2.55968070      0.20876313     -0.00000000
O      -3.68770681      0.21669929      0.00000000
H       3.12621360      0.16753025      0.00000000
H       3.12117390     -0.59299267      0.00000000
    4

C       0.11879072      0.06995946     -0.00000000
O      -1.01456844      0.02814505     -0.00000000
H       0.66343212      6.10950817     -0.00000000
H       0.23234558     -6.20761267     -0.00000000
    4

C      -2.15711103      0.20456356     -0.00000000
O      -3.30561528      0.16493196     -0.00000000
H       2.75611726      0.62984764     -0.00000000
H       2.70660903     -0.99934316     -0.00000000
    4

C      -1.85682770      0.32953671      0.00000000
O      -2.96535363      0.03025003      0.00000000
H       2.44810843      0.39056914      0.00000000
H       2.37407291     -0.75035588      0.00000000
    4

C      -1.61896182      0.34125655      0.00000000
O      -2.72033516     -0.00694866      0.00000000
H       2.21919707      0.43677359      0.00000000
H       2.12009993     -0.77108149      0.00000000
    4

C      -1.37894634      0.33858862      0.00000000
O      -2.47971938     -0.03288596      0.00000000
H       1.99497543      0.50623966      0.00000000
H       1.86369029     -0.81194232      0.00000000
    4

C      -1.13353016      0.32031938      0.00000000
O      -2.24217737     -0.04856811      0.00000000
H       1.77176800      0.57805197      0.00000000
H       1.60393953     -0.84980324      0.00000000
    4

C      -0.49771171      0.23051042      0.00000000
O      -2.09295764     -0.03141900      0.00000000
H       1.40531414      0.69878842      0.00000000
H       1.18535523     -0.89787984      0.00000000
    4

C      18.19339971     -1.43197542      0.00000000
O     -17.61480484      1.27943669      0.00000000
H      -0.22871662      0.90523071      0.00000000
H      -0.34987825     -0.75269198      0.00000000
    4

C      -0.00213827      0.00012398     -0.00000000
O      -1.19604137      0.06934883      0.00000000
H       0.65376003      0.90814661      0.00000000
H       0.54441961     -0.97761943     -0.00000000
    4

C      -2.55968070      0.20876313     -0.00000000
O      -3.68770681      0.21669929      0.00000000
H       3.12621360      0.16753025      0.00000000
H       3.12117390     -0.59299267      0.00000000
    4

C       0.11458024      0.06969435     -0.00000000
O      -1.01819960      0.02912119     -0.00000000
H       0.66730190      6.11266497     -0.00000000
H       0.23631746     -6.21148049     -0.00000000
    4

C      -2.17199293      0.18556360     -0.00000000
O      -3.32588128      0.18207123     -0.00000000
H       2.77408540      0.72461502     -0.00000000
H       2.72378880     -1.09224985     -0.00000000
    4

C      -1.85773104      0.32934290      0.00000000
O      -2.96632803      0.03051021      0.00000000
H       2.44896794      0.39023483      0.00000000
H       2.37509114     -0.75008795      0.00000000
    4

C      -1.61893806      0.34125700      0.00000000
O      -2.72031101     -0.00695180      0.00000000
H       2.21917453      0.43677934      0.00000000
H       2.12007455     -0.77108455      0.00000000
    4

C      -1.37893853      0.33858829      0.00000000
O      -2.47971168     -0.03288663      0.00000000
H       1.99496823      0.50624194      0.00000000
H       1.86368198     -0.81194359      0.00000000
    4

C      -1.13293312      0.32025127      0.00000000
O      -2.24185916     -0.04857408      0.00000000
H       1.77134298      0.57819030      0.00000000
H       1.60344930     -0.84986749      0.00000000
    4

C      -0.37629629      0.21660911      0.00000000
O      -2.13061667     -0.02546355      0.00000000
H       1.36570306      0.71073622      0.00000000
H       1.14120992     -0.90188179      0.00000000
    4

C      18.19340835     -1.43197889      0.00000000
O     -17.61479310      1.27943825      0.00000000
H      -0.22872761      0.90523376      0.00000000
H      -0.34988764     -0.75269312      0.00000000
    4

C      -0.00213827      0.00012398     -0.00000000
O      -1.19604137      0.06934883      0.00000000
H       0.65376003      0.90814661      0.00000000
H       0.54441961     -0.97761943     -0.00000000
    4

C      -2.55968070      0.20876313     -0.00000000
O      -3.68770681      0.21669929      0.00000000
H       3.12621360      0.16753025      0.00000000
H       3.12117390     -0.59299267      0.00000000
    4

C       0.10934892      0.07011827     -0.00000000
O      -1.02216482      0.02985929     -0.00000000
H       0.67189521      6.11625086     -0.00000000
H       0.24092067     -6.21622842     -0.00000000
    4

C      -2.18415899      0.16486984     -0.00000000
O      -3.34381031      0.20030347     -0.00000000
H       2.78985402      0.83534819     -0.00000000
H       2.73811526     -1.20052150     -0.00000000
    4

C      -1.85883345      0.32909452     -0.00000000
O      -2.96751960      0.03083757     -0.00000000
H       2.45003094      0.39010992     -0.00000000
H       2.37632213     -0.75004202     -0.00000000
    4

C      -1.61893806      0.34125700      0.00000000
O      -2.72031101     -0.00695180      0.00000000
H       2.21917453      0.43677934      0.00000000
H       2.12007455     -0.77108455      0.00000000
    4

C      -1.37892888      0.33858787      0.00000000
O      -2.47970218     -0.03288746      0.00000000
H       1.99495934      0.50624475      0.00000000
H       1.86367172     -0.81194515      0.00000000
    4

C      -1.13196290      0.32014244      0.00000000
O      -2.24140052     -0.04858080      0.00000000
H       1.77067909      0.57840547      0.00000000
H       1.60268432     -0.84996711      0.00000000
    4

C      -0.24153291      0.20140446      0.00000000
O      -2.17704131     -0.01866461      0.00000000
H       1.32386045      0.72322128      0.00000000
H       1.09471378     -0.90596113      0.00000000
    4

C      18.19348733     -1.43201154      0.00000000
O     -17.61468459      1.27945338      0.00000000
H      -0.22882949      0.90526166      0.00000000
H      -0.34997326     -0.75270351      0.00000000
    4

C      -0.00213827      0.00012398     -0.00000000
O      -1.19604137      0.06934883      0.00000000
H       0.65376003      0.90814661      0.00000000
H       0.54441961     -0.97761943     -0.00000000
    4

C      -2.55968070      0.20876313     -0.00000000
O      -3.68770681      0.21669929      0.00000000
H       3.12621360      0.16753025      0.00000000
H       3.12117390     -0.59299267      0.00000000
    4

C       0.10277002      0.07305640     -0.00000000
O      -1.02542051      0.02926670     -0.00000000
H       0.67699167      6.11959386     -0.00000000
H       0.24565881     -6.22191696     -0.00000000
    4

C      -2.19249016      0.14285151     -0.00000000
O      -3.35814960      0.21920971     -0.00000000
H       2.80228987      0.96181209     -0.00000000
H       2.74834987     -1.32387330     -0.00000000
    4

C      -1.86017355      0.32877934     -0.00000000
O      -2.96897091      0.03124656     -0.00000000
H       2.45133520      0.39022484     -0.00000000
H       2.37780927     -0.75025074     -0.00000000
    4

C      -1.61893870      0.34125698      0.00000000
O      -2.72031167     -0.00695171      0.00000000
H       2.21917515      0.43677919      0.00000000
H       2.12007523     -0.77108446      0.00000000
    4

C      -1.37891669      0.33858734      0.00000000
O      -2.47969019     -0.03288850      0.00000000
H       1.99494811      0.50624829      0.00000000
H       1.86365877     -0.81194713      0.00000000
    4

C      -1.13049050      0.31997979      0.00000000
O      -2.24078148     -0.04858711      0.00000000
H       1.76970690      0.57871933      0.00000000
H       1.60156509     -0.85011200      0.00000000
    4

C      -0.09457559      0.18504882      0.00000000
O      -2.23230996     -0.01106039      0.00000000
H       1.28036302      0.73605700      0.00000000
H       1.04652254     -0.91004544      0.00000000
    4

C      18.19370758     -1.43210538      0.00000000
O     -17.61438143      1.27949826      0.00000000
H      -0.22911628      0.90533919      0.00000000
H      -0.35020988     -0.75273208      0.00000000
    4

C      -0.00213827      0.00012398     -0.00000000
O      -1.19604137      0.06934883      0.00000000
H       0.65376003      0.90814661      0.00000000
H       0.54441961     -0.97761943     -0.00000000
    4

C      -2.55968070      0.20876313     -0.00000000
O      -3.68770681      0.21669929      0.00000000
H       3.12621360      0.16753025      0.00000000
H       3.12117390     -0.59299267      0.00000000
    4

C       0.10189041      0.07551545     -0.00000000
O      -1.02437619      0.02787793     -0.00000000
H       0.67709188      6.11898754     -0.00000000
H       0.24539389     -6.22238091     -0.00000000
    4

C      -2.19606849      0.11989994     -0.00000000
O      -3.36782951      0.23838152     -0.00000000
H       2.81044080      1.10346282     -0.00000000
H       2.75345718     -1.46174428     -0.00000000
    4

C      -1.86181296      0.32837913     -0.00000000
O      -2.97074957      0.03175917     -0.00000000
H       2.45294176      0.39063314     -0.00000000
H       2.37962077     -0.75077145     -0.00000000
    4

C      -1.61894166      0.34125692      0.00000000
O      -2.72031468     -0.00695132      0.00000000
H       2.21917795      0.43677847      0.00000000
H       2.12007840     -0.77108408      0.00000000
    4

C      -1.37890090      0.33858666      0.00000000
O      -2.47967469     -0.03288985      0.00000000
H       1.99493358      0.50625288      0.00000000
H       1.86364201     -0.81194968      0.00000000
    4

C      -1.12837185      0.31974894      0.00000000
O      -2.23998702     -0.04859139      0.00000000
H       1.76835213      0.57915509      0.00000000
H       1.60000674     -0.85031263      0.00000000
    4

C       0.06351924      0.16767326      0.00000000
O      -2.29633043     -0.00269222      0.00000000
H       1.23566333      0.74910012      0.00000000
H       0.99714787     -0.91408116      0.00000000
    4

C      18.19414875     -1.43229961      0.00000000
O     -17.61377432      1.27959428      0.00000000
H      -0.22969619      0.90549366      0.00000000
H      -0.35067825     -0.75278833      0.00000000
    4

C      -0.00213827      0.00012398     -0.00000000
O      -1.19604137      0.06934883      0.00000000
H       0.65376003      0.90814661      0.00000000
H       0.54441961     -0.97761943     -0.00000000
    4

C      -2.55968070      0.20876313     -0.00000000
O      -3.68770681      0.21669929      0.00000000
H       3.12621360      0.16753025      0.00000000
H       3.12117390     -0.59299267      0.00000000
    4

C       0.10234818      0.07660579     -0.00000000
O      -1.02322528      0.02709744     -0.00000000
H       0.67637420      6.11807518     -0.00000000
H       0.24450289     -6.22177840     -0.00000000
    4

C      -2.19405430      0.09634043     -0.00000000
O      -3.37191743      0.25745683     -0.00000000
H       2.81344854      1.25952009     -0.00000000
H       2.75252316     -1.61331735     -0.00000000
    4

C      -1.86383258      0.32786994     -0.00000000
O      -2.97294422      0.03240436     -0.00000000
H       2.45493142      0.39141798     -0.00000000
H       2.38184538     -0.75169228     -0.00000000
    4

C      -1.61894894      0.34125677      0.00000000
O      -2.72032207     -0.00695035      0.00000000
H       2.21918485      0.43677673      0.00000000
H       2.12008617     -0.77108316      0.00000000
    4

C      -1.37887995      0.33858575      0.00000000
O      -2.47965417     -0.03289164      0.00000000
H       1.99491433      0.50625896      0.00000000
H       1.86361980     -0.81195307      0.00000000
    4

C      -1.12544986      0.31943444      0.00000000
O      -2.23900762     -0.04859149      0.00000000
H       1.76653699      0.57973691      0.00000000
H       1.59792048     -0.85057986      0.00000000
    4

C       0.23180137      0.14938948      0.00000000
O      -2.36890287      0.00639828      0.00000000
H       1.19011463      0.76224144      0.00000000
H       0.94698690     -0.91802920      0.00000000
    4

C      18.19489826     -1.43264180      0.00000000
O     -17.61274379      1.27976941      0.00000000
H      -0.23069183      0.90575431      0.00000000
H      -0.35146265     -0.75288193      0.00000000
    4

C      -0.00213827      0.00012398     -0.00000000
O      -1.19604137      0.06934883      0.00000000
H       0.65376003      0.90814661      0.00000000
H       0.54441961     -0.97761943     -0.00000000
    4

C      -2.55968070      0.20876313     -0.00000000
O      -3.68770681      0.21669929      0.00000000
H       3.12621360      0.16753025      0.00000000
H       3.12117390     -0.59299267      0.00000000
    4

C       0.10356408      0.07806242     -0.00000000
O      -1.02120089      0.02593594     -0.00000000
H       0.67487356      6.11637273     -0.00000000
H       0.24276324     -6.22037108     -0.00000000
    4

C      -2.18582627      0.07246534     -0.00000000
O      -3.36971128      0.27612476     -0.00000000
H       2.81066548      1.42900128     -0.00000000
H       2.74487203     -1.77759138     -0.00000000
    4

C      -1.86632930      0.32722226     -0.00000000
O      -2.97566118      0.03321748     -0.00000000
H       2.45740152      0.39269578     -0.00000000
H       2.38458897     -0.75313552     -0.00000000
    4

C      -1.61896295      0.34125647      0.00000000
O      -2.72033632     -0.00694847      0.00000000
H       2.21919814      0.43677340      0.00000000
H       2.12010114     -0.77108141      0.00000000
    4

C      -1.37885165      0.33858451      0.00000000
O      -2.47962655     -0.03289403      0.00000000
H       1.99488835      0.50626716      0.00000000
H       1.86358984     -0.81195763      0.00000000
    4

C      -1.12155623      0.31901989      0.00000000
O      -2.23783984     -0.04858474      0.00000000
H       1.76418123      0.58048958      0.00000000
H       1.59521484     -0.85092473      0.00000000
    4

C       0.40942300      0.13029253      0.00000000
O      -2.44976493      0.01617095      0.00000000
H       1.14399328      0.77539769      0.00000000
H       0.89634868     -0.92186117      0.00000000
    4

C      18.19605004     -1.43318950      0.00000000
O     -17.61116169      1.28006000      0.00000000
H      -0.23224052      0.90615175      0.00000000
H      -0.35264784     -0.75302225      0.00000000
    4

C      -0.00213827      0.00012398     -0.00000000
O      -1.19604137      0.06934883      0.00000000
H       0.65376003      0.90814661      0.00000000
H       0.54441961     -0.97761943     -0.00000000
    4

C      -2.55968070      0.20876313     -0.00000000
O      -3.68770681      0.21669929      0.00000000
H       3.12621360      0.16753025      0.00000000
H       3.12117390     -0.59299267      0.00000000
    4

C       0.10569263      0.08002476     -0.00000000
O      -1.01808294      0.02427299     -0.00000000
H       0.67241393      6.11365545     -0.00000000
H       0.23997638     -6.21795319     -0.00000000
    4

C      -2.17091423      0.04856824     -0.00000000
O      -3.36065075      0.29409489     -0.00000000
H       2.80158271      1.61077175     -0.00000000
H       2.72998224     -1.95343488     -0.00000000
    4

C      -1.86941300      0.32640133     -0.00000000
O      -2.97902134      0.03423972     -0.00000000
H       2.46046302      0.39461861     -0.00000000
H       2.38797132     -0.75525966     -0.00000000
    4

C      -1.61898664      0.34125593      0.00000000
O      -2.72036042     -0.00694527      0.00000000
H       2.21922061      0.43676785      0.00000000
H       2.12012646     -0.77107853      0.00000000
    4

C      -1.37881303      0.33858281      0.00000000
O      -2.47958907     -0.03289728      0.00000000
H       1.99485301      0.50627832      0.00000000
H       1.86354908     -0.81196384      0.00000000
    4

C      -1.11651316      0.31848807      0.00000000
O      -2.23648711     -0.04856789      0.00000000
H       1.76120327      0.58143817      0.00000000
H       1.59179699     -0.85135835      0.00000000
    4

C       0.59562930      0.11046348      0.00000000
O      -2.53862196      0.02658803      0.00000000
H       1.09751703      0.78850497      0.00000000
H       0.84547565     -0.92555648      0.00000000
    4

C      18.19770287     -1.43401238      0.00000000
O     -17.60889287      1.28051318      0.00000000
H      -0.23449493      0.90671697      0.00000000
H      -0.35431507     -0.75321778      0.00000000
    4

C      -0.00213827      0.00012398     -0.00000000
O      -1.19604137      0.06934883      0.00000000
H       0.65376003      0.90814661      0.00000000
H       0.54441961     -0.97761943     -0.00000000
    4

C      -2.55968070      0.20876313     -0.00000000
O      -3.68770681      0.21669929      0.00000000
H       3.12621360      0.16753025      0.00000000
H       3.12117390     -0.59299267      0.00000000
    4

C       0.10887393      0.08257888     -0.00000000
O      -1.01370314      0.02202402     -0.00000000
H       0.66884801      6.10972443     -0.00000000
H       0.23598120     -6.21432732     -0.00000000
    4

C      -2.14896257      0.02492337     -0.00000000
O      -3.34429743      0.31110513     -0.00000000
H       2.78580152      1.80357943     -0.00000000
H       2.70745844     -2.13960793     -0.00000000
    4

C      -1.87320353      0.32536738     -0.00000000
O      -2.98315698      0.03551764     -0.00000000
H       2.46423758      0.39737642     -0.00000000
H       2.39212294     -0.75826143     -0.00000000
    4

C      -1.61902361      0.34125505      0.00000000
O      -2.72039805     -0.00694023      0.00000000
H       2.21925569      0.43675938      0.00000000
H       2.12016598     -0.77107421      0.00000000
    4

C      -1.37876023      0.33858046      0.00000000
O      -2.47953818     -0.03290169      0.00000000
H       1.99480486      0.50629352      0.00000000
H       1.86349355     -0.81197229      0.00000000
    4

C      -1.11013473      0.31782100      0.00000000
O      -2.23496058     -0.04853704      0.00000000
H       1.75752130      0.58260766      0.00000000
H       1.58757400     -0.85189162      0.00000000
    4

C       0.78974695      0.08997171      0.00000000
O      -2.63516627      0.03761463      0.00000000
H       1.05085911      0.80151381      0.00000000
H       0.79456023     -0.92910014      0.00000000
    4

C      18.19995821     -1.43519523      0.00000000
O     -17.60579735      1.28119022      0.00000000
H      -0.23762412      0.90748032      0.00000000
H      -0.35653675     -0.75347531      0.00000000
    4

C      -0.00213827      0.00012398     -0.00000000
O      -1.19604137      0.06934883      0.00000000
H       0.65376003      0.90814661      0.00000000
H       0.54441961     -0.97761943     -0.00000000
    4

C      -2.55968070      0.20876313     -0.00000000
O      -3.68770681      0.21669929      0.00000000
H       3.12621360      0.16753025      0.00000000
H       3.12117390     -0.59299267      0.00000000
    4

C       0.11324492      0.08581079     -0.00000000
O      -1.00789804      0.01910420     -0.00000000
H       0.66403236      6.10436845     -0.00000000
H       0.23062076     -6.20928344     -0.00000000
    4

C      -2.11970505      0.00178701     -0.00000000
O      -3.32030889      0.32691778     -0.00000000
H       2.76300891      2.00607601     -0.00000000
H       2.67700499     -2.33478079     -0.00000000
    4

C      -1.87782739      0.32407574     -0.00000000
O      -2.98820829      0.03710262     -0.00000000
H       2.46885422      0.40119954     -0.00000000
H       2.39718148     -0.76237790     -0.00000000
    4

C      -1.61907828      0.34125365      0.00000000
O      -2.72045370     -0.00693272      0.00000000
H       2.21930756      0.43674723      0.00000000
H       2.12022443     -0.77106817      0.00000000
    4

C      -1.37868831      0.33857722      0.00000000
O      -2.47946946     -0.03290763      0.00000000
H       1.99473954      0.50631414      0.00000000
H       1.86341823     -0.81198373      0.00000000
    4

C      -1.10222834      0.31700008      0.00000000
O      -2.23328022     -0.04848755      0.00000000
H       1.75305440      0.58402261      0.00000000
H       1.58245416     -0.85253514      0.00000000
    4

C       0.99117299      0.06887689      0.00000000
O      -2.73908883      0.04921886      0.00000000
H       1.00415869      0.81438548      0.00000000
H       0.74375717     -0.93248122      0.00000000
    4

C      18.20291716     -1.43684223      0.00000000
O     -17.60173322      1.28217119      0.00000000
H      -0.24181503      0.90846980      0.00000000
H      -0.35936892     -0.75379876      0.00000000
    4

C      -0.00213827      0.00012398     -0.00000000
O      -1.19604137      0.06934883      0.00000000
H       0.65376003      0.90814661      0.00000000
H       0.54441961     -0.97761943     -0.00000000
    4

C      -2.55968070      0.20876313     -0.00000000
O      -3.68770681      0.21669929      0.00000000
H       3.12621360      0.16753025      0.00000000
H       3.12117390     -0.59299267      0.00000000
    4

C       0.11894361      0.08981352     -0.00000000
O      -1.00050125      0.01542290     -0.00000000
H       0.65782188      6.09735428     -0.00000000
H       0.22373576     -6.20259069     -0.00000000
    4

C      -2.08294003     -0.02060036     -0.00000000
O      -3.28841276      0.34131509     -0.00000000
H       2.73295285      2.21682860     -0.00000000
H       2.63839991     -2.53754333     -0.00000000
    4

C      -1.88341375      0.32247702     -0.00000000
O      -2.99431932      0.03905038     -0.00000000
H       2.47444553      0.40636165     -0.00000000
H       2.40328755     -0.76788904     -0.00000000
    4

C      -1.61915601      0.34125151      0.00000000
O      -2.72053288     -0.00692191      0.00000000
H       2.21938135      0.43673062      0.00000000
H       2.12030755     -0.77106023      0.00000000
    4

C      -1.37859108      0.33857279      0.00000000
O      -2.47937759     -0.03291555      0.00000000
H       1.99465171      0.50634186      0.00000000
H       1.86331696     -0.81199911      0.00000000
    4

C      -1.09259611      0.31600612      0.00000000
O      -2.23147595     -0.04841397      0.00000000
H       1.74772373      0.58570677      0.00000000
H       1.57634833     -0.85329892      0.00000000
    4

C       1.19936472      0.04723043      0.00000000
O      -2.85008596      0.06137194      0.00000000
H       0.95752857      0.82708934      0.00000000
H       0.69319270     -0.93569171      0.00000000
    4

C      18.20667583     -1.43908301      0.00000000
O     -17.59656104      1.28356176      0.00000000
H      -0.24727448      0.90970880      0.00000000
H      -0.36284032     -0.75418756      0.00000000
    4

C      -0.00213827      0.00012398     -0.00000000
O      -1.19604137      0.06934883      0.00000000
H       0.65376003      0.90814661      0.00000000
H       0.54441961     -0.97761943     -0.00000000
    4

C      -2.55968070      0.20876313     -0.00000000
O      -3.68770681      0.21669929      0.00000000
H       3.12621360      0.16753025      0.00000000
H       3.12117390     -0.59299267      0.00000000
    4

C       0.12610921      0.09468910     -0.00000000
O      -0.99134257      0.01088207     -0.00000000
H       0.65006954      6.08842192     -0.00000000
H       0.21516382     -6.19399308     -0.00000000
    4

C      -2.03850405     -0.04201216     -0.00000000
O      -3.24837903      0.35409487     -0.00000000
H       2.69541533      2.43432187     -0.00000000
H       2.59146771     -2.74640458     -0.00000000
    4

C      -1.89008967      0.32051706     -0.00000000
O      -3.00163305      0.04142038     -0.00000000
H       2.48114306      0.41318321     -0.00000000
H       2.41057967     -0.77512064     -0.00000000
    4

C      -1.61926337      0.34124831      0.00000000
O      -2.72064230     -0.00690679      0.00000000
H       2.21948330      0.43670889      0.00000000
H       2.12042237     -0.77105042      0.00000000
    4

C      -1.37846090      0.33856678      0.00000000
O      -2.47925623     -0.03292599      0.00000000
H       1.99453487      0.50637873      0.00000000
H       1.86318226     -0.81201953      0.00000000
    4

C      -1.08103626      0.31481950      0.00000000
O      -2.22958878     -0.04830997      0.00000000
H       1.74145368      0.58768271      0.00000000
H       1.56917136     -0.85419224      0.00000000
    4

C       1.41383092      0.02507662      0.00000000
O      -2.96786291      0.07404822      0.00000000
H       0.91106067      0.83960087      0.00000000
H       0.64297135     -0.93872571      0.00000000
    4

C      18.21131813     -1.44208135      0.00000000
O     -17.59015074      1.28550301      0.00000000
H      -0.25423156      0.91121246      0.00000000
H      -0.36693583     -0.75463412      0.00000000
    4

C      -0.00213827      0.00012398     -0.00000000
O      -1.19604137      0.06934883      0.00000000
H       0.65376003      0.90814661      0.00000000
H       0.54441961     -0.97761943     -0.00000000
    4

C      -2.55968070      0.20876313     -0.00000000
O      -3.68770681      0.21669929      0.00000000
H       3.12621360      0.16753025      0.00000000
H       3.12117390     -0.59299267      0.00000000
    4

C       0.13488036      0.10055016     -0.00000000
O      -0.98024948      0.00537517     -0.00000000
H       0.64062812      6.07728113     -0.00000000
H       0.20474100     -6.18320645     -0.00000000
    4

C      -1.98623899     -0.06223443     -0.00000000
O      -3.19998586      0.36506599     -0.00000000
H       2.65017820      2.65694742     -0.00000000
H       2.53604661     -2.95977898     -0.00000000
    4

C      -1.89797435      0.31813708     -0.00000000
O      -3.01028552      0.04427514     -0.00000000
H       2.48907174      0.42203538     -0.00000000
H       2.41918813     -0.78444760     -0.00000000
    4

C      -1.61940822      0.34124360      0.00000000
O      -2.72079004     -0.00688605      0.00000000
H       2.21962093      0.43668159      0.00000000
H       2.12057734     -0.77103914      0.00000000
    4

C      -1.37828851      0.33855870      0.00000000
O      -2.47909805     -0.03293956      0.00000000
H       1.99438130      0.50642718      0.00000000
H       1.86300526     -0.81204631      0.00000000
    4

C      -1.06734473      0.31342022      0.00000000
O      -2.22767183     -0.04816822      0.00000000
H       1.73417311      0.58997143      0.00000000
H       1.56084346     -0.85522343      0.00000000
    4

C       1.63412455      0.00245329      0.00000000
O      -3.09213546      0.08722529      0.00000000
H       0.86482995      0.85190025      0.00000000
H       0.59318099     -0.94157884      0.00000000
    4

C      18.21690376     -1.44604771      0.00000000
O     -17.58239370      1.28818590      0.00000000
H      -0.26293967      0.91298181      0.00000000
H      -0.37157039     -0.75512000      0.00000000
    4

C      -0.00213827      0.00012398     -0.00000000
O      -1.19604137      0.06934883      0.00000000
H       0.65376003      0.90814661      0.00000000
H       0.54441961     -0.97761943     -0.00000000
    4

C      -2.55968070      0.20876313     -0.00000000
O      -3.68770681      0.21669929      0.00000000
H       3.12621360      0.16753025      0.00000000
H       3.12117390     -0.59299267      0.00000000
    4

C       0.14539203      0.10752177     -0.00000000
O      -0.96704974     -0.00121400     -0.00000000
H       0.62935333      6.06360823     -0.00000000
H       0.19230437     -6.16991598     -0.00000000
    4

C      -1.92594214     -0.08106591     -0.00000000
O      -3.14296816      0.37404307     -0.00000000
H       2.59697024      2.88297091     -0.00000000
H       2.47194001     -3.17594806     -0.00000000
    4

C      -1.90717222      0.31527376     -0.00000000
O      -3.02039874      0.04767935     -0.00000000
H       2.49834324      0.43334401     -0.00000000
H       2.42922773     -0.79629711     -0.00000000
    4

C      -1.61960004      0.34123675      0.00000000
O      -2.72098583     -0.00685811      0.00000000
H       2.21980328      0.43664871      0.00000000
H       2.12078260     -0.77102736      0.00000000
    4

C      -1.37806275      0.33854792      0.00000000
O      -2.47889471     -0.03295695      0.00000000
H       1.99418193      0.50649004      0.00000000
H       1.86277552     -0.81208101      0.00000000
    4

C      -1.05131686      0.31178806      0.00000000
O      -2.22579117     -0.04798039      0.00000000
H       1.72581648      0.59259200      0.00000000
H       1.55129155     -0.85639968      0.00000000
    4

C       1.85983652     -0.02060775      0.00000000
O      -3.22263049      0.10088423      0.00000000
H       0.81889713      0.86397128      0.00000000
H       0.54389687     -0.94424776      0.00000000
    4

C      18.22344735     -1.45125679      0.00000000
O     -17.57322450      1.29187238      0.00000000
H      -0.27367595      0.91499411      0.00000000
H      -0.37654690     -0.75560971      0.00000000
    4

C      -0.00213827      0.00012398     -0.00000000
O      -1.19604137      0.06934883      0.00000000
H       0.65376003      0.90814661      0.00000000
H       0.54441961     -0.97761943     -0.00000000
    4

C      -2.55968070      0.20876313     -0.00000000
O      -3.68770681      0.21669929      0.00000000
H       3.12621360      0.16753025      0.00000000
H       3.12117390     -0.59299267      0.00000000
    4

C       0.15777133      0.11574462     -0.00000000
O      -0.95157493     -0.00901345     -0.00000000
H       0.61610824      6.04704311     -0.00000000
H       0.17769535     -6.15377427     -0.00000000
    4

C      -1.85727316     -0.09832082     -0.00000000
O      -3.07692213      0.38083888     -0.00000000
H       2.53536725      3.11044815     -0.00000000
H       2.39882800     -3.39296620     -0.00000000
    4

C      -1.91776470      0.31185947     -0.00000000
O      -3.03207215      0.05169878     -0.00000000
H       2.50904783      0.44759337     -0.00000000
H       2.44078903     -0.81115162     -0.00000000
    4

C      -1.61985006      0.34122691      0.00000000
O      -2.72124126     -0.00682094      0.00000000
H       2.22004111      0.43661096      0.00000000
H       2.12105022     -0.77101694      0.00000000
    4

C      -1.37777039      0.33853372      0.00000000
O      -2.47863690     -0.03297894      0.00000000
H       1.99392629      0.50657061      0.00000000
H       1.86248100     -0.81212539      0.00000000
    4

C      -1.03274922      0.30990275      0.00000000
O      -2.22402627     -0.04773711      0.00000000
H       1.71632495      0.59556122      0.00000000
H       1.54045055     -0.85772686      0.00000000
    4

C       2.09059047     -0.04408073      0.00000000
O      -3.35908592      0.11501008      0.00000000
H       0.77331051      0.87580046      0.00000000
H       0.49518497     -0.94672981      0.00000000
    4

C      18.23088042     -1.45807044      0.00000000
O     -17.56266253      1.29692516      0.00000000
H      -0.28673139      0.91718595      0.00000000
H      -0.38148652     -0.75604068      0.00000000
    4

C      -0.00213827      0.00012398     -0.00000000
O      -1.19604137      0.06934883      0.00000000
H       0.65376003      0.90814661      0.00000000
H       0.54441961     -0.97761943     -0.00000000
    4

C      -2.55968070      0.20876313     -0.00000000
O      -3.68770681      0.21669929      0.00000000
H       3.12621360      0.16753025      0.00000000
H       3.12117390     -0.59299267      0.00000000
    4

C       0.17213169      0.12538121     -0.00000000
O      -0.93366457     -0.01816727     -0.00000000
H       0.60076938      6.02718695     -0.00000000
H       0.16076350     -6.13440088     -0.00000000
    4

C      -1.77954053     -0.11383867     -0.00000000
O      -3.00108730      0.38524966     -0.00000000
H       2.46456092      3.33699734     -0.00000000
H       2.31606686     -3.60840833     -0.00000000
    4

C      -1.92980023      0.30782257     -0.00000000
O      -3.04537239      0.05639894     -0.00000000
H       2.52124469      0.46532916     -0.00000000
H       2.45392794     -0.82955067     -0.00000000
    4

C      -1.62017154      0.34121297      0.00000000
O      -2.72157002     -0.00677209      0.00000000
H       2.22034715      0.43657009      0.00000000
H       2.12139442     -0.77101098      0.00000000
    4

C      -1.37739587      0.33851519      0.00000000
O      -2.47831440     -0.03300636      0.00000000
H       1.99360235      0.50667263      0.00000000
H       1.86210792     -0.81218146      0.00000000
    4

C      -1.01144161      0.30774414      0.00000000
O      -2.22247013     -0.04742799      0.00000000
H       1.70564730      0.59889328      0.00000000
H       1.52826445     -0.85920943      0.00000000
    4

C       2.32603823     -0.06794624      0.00000000
O      -3.50125074      0.12959258      0.00000000
H       0.72810724      0.88737622      0.00000000
H       0.44710530     -0.94902256      0.00000000
    4

C      18.23898071     -1.46696003      0.00000000
O     -17.55089350      1.30384353      0.00000000
H      -0.30237267      0.91942397      0.00000000
H      -0.38571455     -0.75630748      0.00000000
    4

C      -0.00213827      0.00012398     -0.00000000
O      -1.19604137      0.06934883      0.00000000
H       0.65376003      0.90814661      0.00000000
H       0.54441961     -0.97761943     -0.00000000
    4

C      -2.55968070      0.20876313     -0.00000000
O      -3.68770681      0.21669929      0.00000000
H       3.12621360      0.16753025      0.00000000
H       3.12117390     -0.59299267      0.00000000
    4

C       0.18856481      0.13662936     -0.00000000
O      -0.91317049     -0.02884571     -0.00000000
H       0.58323573      6.00360248     -0.00000000
H       0.14136995     -6.11138612     -0.00000000
    4

C      -1.69108038     -0.12751799     -0.00000000
O      -2.91371353      0.38701652     -0.00000000
H       2.38268178      3.55903558     -0.00000000
H       2.22211208     -3.81853410     -0.00000000
    4

C      -1.94328194      0.30308740     -0.00000000
O      -3.06032060      0.06184368     -0.00000000
H       2.53494947      0.48716070     -0.00000000
H       2.46865308     -0.85209178     -0.00000000
    4

C      -1.62058004      0.34119343      0.00000000
O      -2.72198819     -0.00670852      0.00000000
H       2.22073634      0.43652940      0.00000000
H       2.12183191     -0.77101432      0.00000000
    4

C      -1.37692107      0.33849123      0.00000000
O      -2.47791617     -0.03304009      0.00000000
H       1.99319656      0.50680033      0.00000000
H       1.86164069     -0.81225147      0.00000000
    4

C      -0.98719912      0.30529235      0.00000000
O      -2.22122888     -0.04704163      0.00000000
H       1.69374073      0.60259958      0.00000000
H       1.51468728     -0.86085030      0.00000000
    4

C       2.56585553     -0.09219203      0.00000000
O      -3.64888560      0.14462743      0.00000000
H       0.68331438      0.89868796      0.00000000
H       0.39971572     -0.95112336      0.00000000
    4

C      18.24724307     -1.47850065      0.00000000
O     -17.53842720      1.31328390      0.00000000
H      -0.32072710      0.92145596      0.00000000
H      -0.38808878     -0.75623921      0.00000000
    4

C      -0.00213827      0.00012398     -0.00000000
O      -1.19604137      0.06934883      0.00000000
H       0.65376003      0.90814661      0.00000000
H       0.54441961     -0.97761943     -0.00000000
    4

C      -2.55968070      0.20876313     -0.00000000
O      -3.68770681      0.21669929      0.00000000
H       3.12621360      0.16753025      0.00000000
H       3.12117390     -0.59299267      0.00000000
    4

C       0.20712791      0.14975933     -0.00000000
O      -0.88995934     -0.04127352     -0.00000000
H       0.56344444      5.97582385     -0.00000000
H       0.11938699     -6.08430964     -0.00000000
    4

C      -1.58671898     -0.13945819     -0.00000000
O      -2.80947498      0.38567110     -0.00000000
H       2.28399528      3.76784745     -0.00000000
H       2.11219864     -4.01406036     -0.00000000
    4

C      -1.95814964      0.29757274     -0.00000000
O      -3.07687433      0.06809461     -0.00000000
H       2.55011595      0.51376370     -0.00000000
H       2.48490803     -0.87943104     -0.00000000
    4

C      -1.62109365      0.34116636      0.00000000
O      -2.72251452     -0.00662654      0.00000000
H       2.22122607      0.43649422      0.00000000
H       2.12238211     -0.77103404      0.00000000
    4

C      -1.37632509      0.33846059      0.00000000
O      -2.47743047     -0.03308110      0.00000000
H       1.99269368      0.50695839      0.00000000
H       1.86106188     -0.81233788      0.00000000
    4

C      -0.95983417      0.30252802      0.00000000
O      -2.22042099     -0.04656576      0.00000000
H       1.68057142      0.60668850      0.00000000
H       1.49968374     -0.86265076      0.00000000
    4

C       2.80973746     -0.11681391      0.00000000
O      -3.80176476      0.16011773      0.00000000
H       0.63895044      0.90972479      0.00000000
H       0.35307689     -0.95302862      0.00000000
    4

C      18.25467719     -1.49324623      0.00000000
O     -17.52636633      1.32598043      0.00000000
H      -0.34149002      0.92284598      0.00000000
H      -0.38682085     -0.75558018      0.00000000
    4

C      -0.00213827      0.00012398     -0.00000000
O      -1.19604137      0.06934883      0.00000000
H       0.65376003      0.90814661      0.00000000
H       0.54441961     -0.97761943     -0.00000000
    4

C      -2.55968070      0.20876313     -0.00000000
O      -3.68770681      0.21669929      0.00000000
H       3.12621360      0.16753025      0.00000000
H       3.12117390     -0.59299267      0.00000000
    4

C       0.22781327      0.16525954     -0.00000000
O      -0.86390165     -0.05584372     -0.00000000
H       0.54141279      5.94341405     -0.00000000
H       0.09467560     -6.05282985     -0.00000000
    4

C      -1.44643508     -0.15036022     -0.00000000
O      -2.66779199      0.37965325     -0.00000000
H       2.14433740      3.88758021     -0.00000000
H       1.96988962     -4.11687323     -0.00000000
    4

C      -1.97424047      0.29118073     -0.00000000
O      -3.09488955      0.07521597     -0.00000000
H       2.56659465      0.54589486     -0.00000000
H       2.50253537     -0.91229155     -0.00000000
    4

C      -1.62173328      0.34112931      0.00000000
O      -2.72317071     -0.00652171      0.00000000
H       2.22183651      0.43647258      0.00000000
H       2.12306750     -0.77108019      0.00000000
    4

C      -1.37558404      0.33842175      0.00000000
O      -2.47684497     -0.03313035      0.00000000
H       1.99207684      0.50715200      0.00000000
H       1.86035217     -0.81244340      0.00000000
    4

C      -0.92916857      0.29943244      0.00000000
O      -2.22017599     -0.04598724      0.00000000
H       1.66611486      0.61116532      0.00000000
H       1.48322970     -0.86461051      0.00000000
    4

C       3.05739289     -0.14181608      0.00000000
O      -3.95968086      0.17607529      0.00000000
H       0.59502902      0.92047376      0.00000000
H       0.30725899     -0.95473298      0.00000000
    4

C      18.25965214     -1.51131414      0.00000000
O     -17.51667120      1.34237607      0.00000000
H      -0.36339079      0.92295714      0.00000000
H      -0.37959018     -0.75401909      0.00000000
    4

C      -0.00213827      0.00012398     -0.00000000
O      -1.19604137      0.06934883      0.00000000
H       0.65376003      0.90814661      0.00000000
H       0.54441961     -0.97761943     -0.00000000
    4

C      -2.55968070      0.20876313     -0.00000000
O      -3.68770681      0.21669929      0.00000000
H       3.12621360      0.16753025      0.00000000
H       3.12117390     -0.59299267      0.00000000
    4

C       0.25033457      0.18509928     -0.00000000
O      -0.83471609     -0.07410404     -0.00000000
H       0.51755022      5.90657717     -0.00000000
H       0.06683132     -6.01757239     -0.00000000
    4

C      -1.44643508     -0.15036022     -0.00000000
O      -2.66779199      0.37965325     -0.00000000
H       2.14433740      3.88758021     -0.00000000
H       1.96988962     -4.11687323     -0.00000000
    4

C      -1.99109918      0.28367447     -0.00000000
O      -3.11395512      0.08335555     -0.00000000
H       2.58392673      0.58449718     -0.00000000
H       2.52112758     -0.95152720     -0.00000000
    4

C      -1.62252298      0.34107918      0.00000000
O      -2.72398170     -0.00638867      0.00000000
H       2.22259081      0.43647602      0.00000000
H       2.12391388     -0.77116654      0.00000000
    4

C      -1.37467085      0.33837300      0.00000000
O      -2.47614699     -0.03318886      0.00000000
H       1.99132750      0.50738676      0.00000000
H       1.85949034     -0.81257090      0.00000000
    4

C      -0.89503535      0.29598770      0.00000000
O      -2.22063297     -0.04529225      0.00000000
H       1.65035597      0.61603218      0.00000000
H       1.46531235     -0.86672763      0.00000000
    4

C       3.30853782     -0.16720821      0.00000000
O      -4.12245269      0.19251909      0.00000000
H       0.55156688      0.93091770      0.00000000
H       0.26234802     -0.95622858      0.00000000
    4

C      18.26025448     -1.53178180      0.00000000
O     -17.51182943      1.36196818      0.00000000
H      -0.38391485      0.92115118      0.00000000
H      -0.36451023     -0.75133757      0.00000000
    4

C      -0.00213827      0.00012398     -0.00000000
O      -1.19604137      0.06934883      0.00000000
H       0.65376003      0.90814661      0.00000000
H       0.54441961     -0.97761943     -0.00000000
    4

C      -2.55968070      0.20876313     -0.00000000
O      -3.68770681      0.21669929      0.00000000
H       3.12621360      0.16753025      0.00000000
H       3.12117390     -0.59299267      0.00000000
    4

C       0.27530144      0.20737502     -0.00000000
O      -0.80227244     -0.09457121     -0.00000000
H       0.49105488      5.86457551     -0.00000000
H       0.03591613     -5.97737931     -0.00000000
    4

C      -1.44638784     -0.15036200     -0.00000000
O      -2.66774296      0.37964965     -0.00000000
H       2.14426409      3.88704900     -0.00000000
H       1.96986666     -4.11633664     -0.00000000
    4

C      -2.00919710      0.27506736     -0.00000000
O      -3.13456092      0.09254729     -0.00000000
H       2.60262038      0.62945174     -0.00000000
H       2.54113764     -0.99706639     -0.00000000
    4

C      -1.62349009      0.34101186      0.00000000
O      -2.72497590     -0.00622084      0.00000000
H       2.22351529      0.43652067      0.00000000
H       2.12495071     -0.77131169      0.00000000
    4

C      -1.37355514      0.33831238      0.00000000
O      -2.47532359     -0.03325765      0.00000000
H       1.99042543      0.50766870      0.00000000
H       1.85845330     -0.81272342      0.00000000
    4

C      -0.85728041      0.29217688      0.00000000
O      -2.22193874     -0.04446635      0.00000000
H       1.63328898      0.62128812      0.00000000
H       1.44593017     -0.86899865      0.00000000
    4

C       3.56288976     -0.19299721      0.00000000
O      -4.28993075      0.20946817      0.00000000
H       0.50859560      0.94103439      0.00000000
H       0.21844543     -0.95750536      0.00000000
    4

C      18.25531816     -1.55291861      0.00000000
O     -17.51354596      1.38332256      0.00000000
H      -0.40040985      0.91716202      0.00000000
H      -0.34136238     -0.74756599      0.00000000
    4

C      -0.00213827      0.00012398     -0.00000000
O      -1.19604137      0.06934883      0.00000000
H       0.65376003      0.90814661      0.00000000
H       0.54441961     -0.97761943     -0.00000000
    4

C      -2.55968070      0.20876313     -0.00000000
O      -3.68770681      0.21669929      0.00000000
H       3.12621360      0.16753025      0.00000000
H       3.12117390     -0.59299267      0.00000000
    4

C       0.30259007      0.23208844     -0.00000000
O      -0.76669629     -0.11723293     -0.00000000
H       0.46204366      5.81719724     -0.00000000
H       0.00206258     -5.93205275     -0.00000000
    4

C      -1.44615180     -0.15036804     -0.00000000
O      -2.66749972      0.37962945     -0.00000000
H       2.14398027      3.88617054     -0.00000000
H       1.96967120     -4.11543194     -0.00000000
    4

C      -2.02816574      0.26535875     -0.00000000
O      -3.15633192      0.10274945     -0.00000000
H       2.62232242      0.68095666     -0.00000000
H       2.56217524     -1.04906485     -0.00000000
    4

C      -1.62466553      0.34092257      0.00000000
O      -2.72618538     -0.00601071      0.00000000
H       2.22463971      0.43662642      0.00000000
H       2.12621120     -0.77153829      0.00000000
    4

C      -1.37220308      0.33823766      0.00000000
O      -2.47436182     -0.03333775      0.00000000
H       1.98934878      0.50800416      0.00000000
H       1.85721612     -0.81290407      0.00000000
    4

C      -0.81576390      0.28798414      0.00000000
O      -2.22424591     -0.04349465      0.00000000
H       1.61491719      0.62692916      0.00000000
H       1.42509263     -0.87141866      0.00000000
    4

C       3.82016771     -0.21917919      0.00000000
O      -4.46199125      0.22693331      0.00000000
H       0.46616624      0.95079875      0.00000000
H       0.17565733     -0.95855286      0.00000000
    4

C      18.24478761     -1.57340811      0.00000000
O     -17.52206431      1.40517720      0.00000000
H      -0.41158374      0.91111261      0.00000000
H      -0.31113960     -0.74288172      0.00000000
    4

C      -0.00213827      0.00012398     -0.00000000
O      -1.19604137      0.06934883      0.00000000
H       0.65376003      0.90814661      0.00000000
H       0.54441961     -0.97761943     -0.00000000
    4

C      -2.55968070      0.20876313     -0.00000000
O      -3.68770681      0.21669929      0.00000000
H       3.12621360      0.16753025      0.00000000
H       3.12117390     -0.59299267      0.00000000
    4

C       0.33205765      0.25924038     -0.00000000
O      -0.72813304     -0.14207417     -0.00000000
H       0.43065213      5.76421353     -0.00000000
H      -0.03457671     -5.88137973     -0.00000000
    4

C      -1.44558204     -0.15037559     -0.00000000
O      -2.66691250      0.37957507     -0.00000000
H       2.14335735      3.88537696     -0.00000000
H       1.96913713     -4.11457644     -0.00000000
    4

C      -2.04762574      0.25455803     -0.00000000
O      -3.17887947      0.11391073     -0.00000000
H       2.64266726      0.73914620     -0.00000000
H       2.58383795     -1.10761495     -0.00000000
    4

C      -1.62608496      0.34080555     -0.00000000
O      -2.72764699     -0.00574939     -0.00000000
H       2.22599838      0.43681809     -0.00000000
H       2.12773358     -0.77187426     -0.00000000
    4

C      -1.37057732      0.33814640      0.00000000
O      -2.47324891     -0.03343018      0.00000000
H       1.98807413      0.50839975      0.00000000
H       1.85575211     -0.81311596      0.00000000
    4

C      -0.77036129      0.28339492      0.00000000
O      -2.22771099     -0.04236203      0.00000000
H       1.59525258      0.63294849      0.00000000
H       1.40281970     -0.87398139      0.00000000
    4

C       4.08009559     -0.24574055      0.00000000
O      -4.63852271      0.24491648      0.00000000
H       0.42434167      0.96018554      0.00000000
H       0.13408549     -0.95936148      0.00000000
    4

C      18.22903927     -1.59278408      0.00000000
O     -17.53691378      1.42699972      0.00000000
H      -0.41734966      0.90321028      0.00000000
H      -0.27477589     -0.73742594      0.00000000
    4

C      -0.00213827      0.00012398     -0.00000000
O      -1.19604137      0.06934883      0.00000000
H       0.65376003      0.90814661      0.00000000
H       0.54441961     -0.97761943     -0.00000000
    4

C      -2.55968070      0.20876313     -0.00000000
O      -3.68770681      0.21669929      0.00000000
H       3.12621360      0.16753025      0.00000000
H       3.12117390     -0.59299267      0.00000000
    4

C       0.36354161      0.28882582     -0.00000000
O      -0.68675014     -0.16907318     -0.00000000
H       0.39703502      5.70537808     -0.00000000
H      -0.07382646     -5.82513071     -0.00000000
    4

C      -1.44479614     -0.15037585     -0.00000000
O      -2.66610087      0.37949188     -0.00000000
H       2.14253803      3.88512101     -0.00000000
H       1.96835893     -4.11423704     -0.00000000
    4

C      -2.06719552      0.24268581     -0.00000000
O      -3.20180994      0.12597034     -0.00000000
H       2.66328518      0.80408177     -0.00000000
H       2.60572028     -1.17273791     -0.00000000
    4

C      -1.62778884      0.34065398     -0.00000000
O      -2.72940235     -0.00542658     -0.00000000
H       2.22763009      0.43712607     -0.00000000
H       2.12956111     -0.77235348     -0.00000000
    4

C      -1.36863694      0.33803590      0.00000000
O      -2.47197248     -0.03353596      0.00000000
H       1.98657652      0.50886216      0.00000000
H       1.85403290     -0.81336210      0.00000000
    4

C      -0.72096414      0.27839611      0.00000000
O      -2.23249229     -0.04105335      0.00000000
H       1.57431533      0.63933665      0.00000000
H       1.37914111     -0.87667941      0.00000000
    4

C       4.34240390     -0.27266365      0.00000000
O      -4.81941877      0.26341570      0.00000000
H       0.38318791      0.96917022      0.00000000
H       0.09382700     -0.95992227      0.00000000
    4

C      18.20837095     -1.61105189      0.00000000
O     -17.55760560      1.44872598      0.00000000
H      -0.41802250      0.89358876      0.00000000
H      -0.23274291     -0.73126287      0.00000000
    4

C      -0.00213827      0.00012398     -0.00000000
O      -1.19604137      0.06934883      0.00000000
H       0.65376003      0.90814661      0.00000000
H       0.54441961     -0.97761943     -0.00000000
    4

C      -2.55968070      0.20876313     -0.00000000
O      -3.68770681      0.21669929      0.00000000
H       3.12621360      0.16753025      0.00000000
H       3.12117390     -0.59299267      0.00000000
    4

C       0.39686045      0.32082282     -0.00000000
O      -0.64273957     -0.19819256     -0.00000000
H       0.36136475      5.64042487     -0.00000000
H      -0.11548560     -5.76305512     -0.00000000
    4

C      -1.44394615     -0.15036474     -0.00000000
O      -2.66522056      0.37939270     -0.00000000
H       2.14167575      3.88533382     -0.00000000
H       1.96749092     -4.11436178     -0.00000000
    4

C      -2.08650180      0.22977453     -0.00000000
O      -3.22473518      0.13885866     -0.00000000
H       2.68381250      0.87574591     -0.00000000
H       2.62742448     -1.24437909     -0.00000000
    4

C      -1.62982245      0.34045991     -0.00000000
O      -2.73149773     -0.00503051     -0.00000000
H       2.22957813      0.43758711     -0.00000000
H       2.13174206     -0.77301651     -0.00000000
    4

C      -1.36633748      0.33790323      0.00000000
O      -2.47052076     -0.03365607      0.00000000
H       1.98482963      0.50939808      0.00000000
H       1.85202861     -0.81364524      0.00000000
    4

C      -0.66748057      0.27297607      0.00000000
O      -2.23874805     -0.03955360      0.00000000
H       1.55213311      0.64608179      0.00000000
H       1.35409552     -0.87950426      0.00000000
    4

C       4.60682917     -0.29993051      0.00000000
O      -5.00457730      0.28242853      0.00000000
H       0.34277074      0.97772846      0.00000000
H       0.05497742     -0.96022648      0.00000000
    4

C      18.18289927     -1.62836259      0.00000000
O     -17.58381840      1.47046671      0.00000000
H      -0.41391551      0.88230199      0.00000000
H      -0.18516543     -0.72440614      0.00000000
    4

C      -0.00213827      0.00012398     -0.00000000
O      -1.19604137      0.06934883      0.00000000
H       0.65376003      0.90814661      0.00000000
H       0.54441961     -0.97761943     -0.00000000
    4

C      -2.55968070      0.20876313     -0.00000000
O      -3.68770681      0.21669929      0.00000000
H       3.12621360      0.16753025      0.00000000
H       3.12117390     -0.59299267      0.00000000
    4

C       0.43181257      0.35519723     -0.00000000
O      -0.59631740     -0.22938299     -0.00000000
H       0.32383299      5.56907387     -0.00000000
H      -0.15932812     -5.69488810     -0.00000000
    4

C      -1.44300863     -0.15033957     -0.00000000
O      -2.66424644      0.37927285     -0.00000000
H       2.14074075      3.88588675     -0.00000000
H       1.96651426     -4.11482003     -0.00000000
    4

C      -2.10518575      0.21586682     -0.00000000
O      -3.24727941      0.15249932     -0.00000000
H       2.70389752      0.95404184     -0.00000000
H       2.64856764     -1.32240797     -0.00000000
    4

C      -1.63223581      0.34021413     -0.00000000
O      -2.73398377     -0.00454787     -0.00000000
H       2.23189010      0.43824501     -0.00000000
H       2.13432949     -0.77391128     -0.00000000
    4

C      -1.36363095      0.33774527      0.00000000
O      -2.46888281     -0.03379151      0.00000000
H       1.98280582      0.51001391      0.00000000
H       1.84970793     -0.81396767      0.00000000
    4

C      -0.60983543      0.26712475      0.00000000
O      -2.24663463     -0.03784808      0.00000000
H       1.52874041      0.65316997      0.00000000
H       1.32772966     -0.88244664      0.00000000
    4

C       4.87311278     -0.32752410      0.00000000
O      -5.19390157      0.30195365      0.00000000
H       0.30315534      0.98583558      0.00000000
H       0.01763348     -0.96026513      0.00000000
    4

C      18.15259296     -1.64488146      0.00000000
O     -17.61537929      1.49237377      0.00000000
H      -0.40524220      0.86935076      0.00000000
H      -0.13197156     -0.71684309      0.00000000
    4

C      -0.00213827      0.00012398     -0.00000000
O      -1.19604137      0.06934883      0.00000000
H       0.65376003      0.90814661      0.00000000
H       0.54441961     -0.97761943     -0.00000000
    4

C      -2.55968070      0.20876313     -0.00000000
O      -3.68770681      0.21669929      0.00000000
H       3.12621360      0.16753025      0.00000000
H       3.12117390     -0.59299267      0.00000000
    4

C       0.46817398      0.39190800     -0.00000000
O      -0.54772468     -0.26258718     -0.00000000
H       0.28465362      5.49103710     -0.00000000
H      -0.20510288     -5.62035791     -0.00000000
    4

C      -1.44190217     -0.15029433     -0.00000000
O      -2.66309277      0.37911881     -0.00000000
H       2.13964951      3.88676809     -0.00000000
H       1.96534538     -4.11559257     -0.00000000
    4

C      -2.12290510      0.20101408     -0.00000000
O      -3.26908162      0.16681058     -0.00000000
H       2.72320232      1.03879593     -0.00000000
H       2.66878440     -1.40662058     -0.00000000
    4

C      -1.63508357      0.33990619     -0.00000000
O      -2.73691515     -0.00396378     -0.00000000
H       2.23461769      0.43915133     -0.00000000
H       2.13738104     -0.77509375     -0.00000000
    4

C      -1.36046596      0.33755874      0.00000000
O      -2.46704875     -0.03394325      0.00000000
H       1.98047635      0.51071557      0.00000000
H       1.84703837     -0.81433106      0.00000000
    4

C      -0.54797013      0.26083362      0.00000000
O      -2.25630493     -0.03592247      0.00000000
H       1.50417769      0.66058540      0.00000000
H       1.30009737     -0.88549655      0.00000000
    4

C       5.14099970     -0.35542878      0.00000000
O      -5.38730142      0.32199145      0.00000000
H       0.26440690      0.99346609      0.00000000
H      -0.01810514     -0.96002876      0.00000000
    4

C      18.11731619     -1.66075064      0.00000000
O     -17.65221373      1.51459497      0.00000000
H      -0.39211868      0.85470382      0.00000000
H      -0.07298387     -0.70854818      0.00000000
    4

C      -0.00213827      0.00012398     -0.00000000
O      -1.19604137      0.06934883      0.00000000
H       0.65376003      0.90814661      0.00000000
H       0.54441961     -0.97761943     -0.00000000
    4

C      -2.55968070      0.20876313     -0.00000000
O      -3.68770681      0.21669929      0.00000000
H       3.12621360      0.16753025      0.00000000
H       3.12117390     -0.59299267      0.00000000
    4

C       0.50569681      0.43090581     -0.00000000
O      -0.49722950     -0.29773864     -0.00000000
H       0.24406440      5.40602252     -0.00000000
H      -0.25253166     -5.53918968     -0.00000000
    4

C      -1.44053159     -0.15021877     -0.00000000
O      -2.66165848      0.37891219     -0.00000000
H       2.13830776      3.88803082     -0.00000000
H       1.96388226     -4.11672423     -0.00000000
    4

C      -2.13933620      0.18527553     -0.00000000
O      -3.28979798      0.18170643     -0.00000000
H       2.74140473      1.12976090     -0.00000000
H       2.68772945     -1.49674284     -0.00000000
    4

C      -1.63842478      0.33952421     -0.00000000
O      -2.74035002     -0.00326179     -0.00000000
H       2.23781633      0.44036617     -0.00000000
H       2.14095847     -0.77662861     -0.00000000
    4

C      -1.35678787      0.33734021      0.00000000
O      -2.46501000     -0.03411227      0.00000000
H       1.97781147      0.51150820      0.00000000
H       1.84398640     -0.81473614      0.00000000
    4

C      -0.48184226      0.25409568      0.00000000
O      -2.26790716     -0.03376296      0.00000000
H       1.47849066      0.66831080      0.00000000
H       1.27125876     -0.88864352      0.00000000
    4

C       5.41023734     -0.38363021      0.00000000
O      -5.58469420      0.34254415      0.00000000
H       0.22659139      1.00059330      0.00000000
H      -0.05213450     -0.95950725      0.00000000
    4

C      18.07685842     -1.67608363      0.00000000
O     -17.69430533      1.53726239      0.00000000
H      -0.37458586      0.83831078      0.00000000
H      -0.00796734     -0.69948957      0.00000000
    4

C      -0.00213827      0.00012398     -0.00000000
O      -1.19604137      0.06934883      0.00000000
H       0.65376003      0.90814661      0.00000000
H       0.54441961     -0.97761943     -0.00000000
    4

C      -2.55968070      0.20876313     -0.00000000
O      -3.68770681      0.21669929      0.00000000
H       3.12621360      0.16753025      0.00000000
H       3.12117390     -0.59299267      0.00000000
    4

C       0.54410820      0.47213084     -0.00000000
O      -0.44512876     -0.33475980     -0.00000000
H       0.20232815      5.31373801     -0.00000000
H      -0.30130753     -5.45110904     -0.00000000
    4

C      -1.43879409     -0.15009802     -0.00000000
O      -2.65983340      0.37863001     -0.00000000
H       2.13661514      3.88975466     -0.00000000
H       1.96201231     -4.11828665     -0.00000000
    4

C      -2.15417541      0.16871684     -0.00000000
O      -3.30910368      0.19709784     -0.00000000
H       2.75819958      1.22662027     -0.00000000
H       2.70507951     -1.59243493     -0.00000000
    4

C      -1.64232255      0.33905495     -0.00000000
O      -2.74434933     -0.00242389     -0.00000000
H       2.24154470      0.44195883     -0.00000000
H       2.14512718     -0.77858990     -0.00000000
    4

C      -1.35253892      0.33708617      0.00000000
O      -2.46275949     -0.03429956      0.00000000
H       1.97478069      0.51239583      0.00000000
H       1.84051772     -0.81518244      0.00000000
    4

C      -0.41142505      0.24690535      0.00000000
O      -2.28158373     -0.03135624      0.00000000
H       1.45172951      0.67632758      0.00000000
H       1.24127927     -0.89187669      0.00000000
    4

C       5.68057447     -0.41211530      0.00000000
O      -5.78600536      0.36361593      0.00000000
H       0.18977634      1.00718907      0.00000000
H      -0.08434541     -0.95868970      0.00000000
    4

C      18.03095237     -1.69096873      0.00000000
O     -17.74166807      1.56049148      0.00000000
H      -0.35263007      0.82010956      0.00000000
H       0.06334564     -0.68963234      0.00000000
    4

C      -0.00213827      0.00012398     -0.00000000
O      -1.19604137      0.06934883      0.00000000
H       0.65376003      0.90814661      0.00000000
H       0.54441961     -0.97761943     -0.00000000
    4

C      -2.55968070      0.20876313     -0.00000000
O      -3.68770681      0.21669929      0.00000000
H       3.12621360      0.16753025      0.00000000
H       3.12117390     -0.59299267      0.00000000
    4

C       0.58310939      0.51551075     -0.00000000
O      -0.39174975     -0.37356032     -0.00000000
H       0.15973378      5.21389595     -0.00000000
H      -0.35109336     -5.35584637     -0.00000000
    4

C      -1.43657924     -0.14991208     -0.00000000
O      -2.65749804      0.37824435     -0.00000000
H       2.13446437      3.89202701     -0.00000000
H       1.95961287     -4.12035927     -0.00000000
    4

C      -2.16713964      0.15140827     -0.00000000
O      -3.32669398      0.21289443     -0.00000000
H       2.77329909      1.32899347     -0.00000000
H       2.72053452     -1.69329615     -0.00000000
    4

C      -1.64684367      0.33848364     -0.00000000
O      -2.74897597     -0.00143053     -0.00000000
H       2.24586414      0.44400854     -0.00000000
H       2.14995551     -0.78106166     -0.00000000
    4

C      -1.34765850      0.33679310      0.00000000
O      -2.46029190     -0.03450614      0.00000000
H       1.97135290      0.51338102      0.00000000
H       1.83659749     -0.81566798      0.00000000
    4

C      -0.33670664      0.23925846      0.00000000
O      -2.29747050     -0.02868960      0.00000000
H       1.42394821      0.68461620      0.00000000
H       1.21022893     -0.89518507      0.00000000
    4

C       5.95176011     -0.44087208      0.00000000
O      -5.99116895      0.38521290      0.00000000
H       0.15403145      1.01322353      0.00000000
H      -0.11462257     -0.95756435      0.00000000
    4

C      17.97928405     -1.70547369      0.00000000
O     -17.79432732      1.58438302      0.00000000
H      -0.32619859      0.80003082      0.00000000
H       0.14124174     -0.67894018      0.00000000
    4

C      -0.00213827      0.00012398     -0.00000000
O      -1.19604137      0.06934883      0.00000000
H       0.65376003      0.90814661      0.00000000
H       0.54441961     -0.97761943     -0.00000000
    4

C      -2.55968070      0.20876313     -0.00000000
O      -3.68770681      0.21669929      0.00000000
H       3.12621360      0.16753025      0.00000000
H       3.12117390     -0.59299267      0.00000000
    4

C       0.62237507      0.56095894      0.00000000
O      -0.33745137     -0.41403556      0.00000000
H       0.11659713      5.10621839      0.00000000
H      -0.40152076     -5.25314176      0.00000000
    4

C      -1.43376860     -0.14963535     -0.00000000
O      -2.65452307      0.37772187     -0.00000000
H       2.13174039      3.89493192     -0.00000000
H       1.95655123     -4.12301843     -0.00000000
    4

C      -2.17796578      0.13342207     -0.00000000
O      -3.34228439      0.22900653     -0.00000000
H       2.78643191      1.43644141     -0.00000000
H       2.73381825     -1.79887000     -0.00000000
    4

C      -1.65205806      0.33779402     -0.00000000
O      -2.75429375     -0.00026066     -0.00000000
H       2.25083790      0.44660511     -0.00000000
H       2.15551393     -0.78413849     -0.00000000
    4

C      -1.34208343      0.33645750      0.00000000
O      -2.45760385     -0.03473308      0.00000000
H       1.96749668      0.51446449      0.00000000
H       1.83219060     -0.81618891      0.00000000
    4

C      -0.25768927      0.23115211      0.00000000
O      -2.31569618     -0.02575091      0.00000000
H       1.39520385      0.69315641      0.00000000
H       1.17818160     -0.89855760      0.00000000
    4

C       6.22354247     -0.46988958      0.00000000
O      -6.20012792      0.40734317      0.00000000
H       0.11942925      1.01866486      0.00000000
H      -0.14284376     -0.95611845      0.00000000
    4

C      17.92149815     -1.71964986      0.00000000
O     -17.85230625      1.60902546      0.00000000
H      -0.29521082      0.77800070      0.00000000
H       0.22601879     -0.66737633      0.00000000
    4

C      -0.00213827      0.00012398     -0.00000000
O      -1.19604137      0.06934883      0.00000000
H       0.65376003      0.90814661      0.00000000
H       0.54441961     -0.97761943     -0.00000000
    4

C      -2.55968070      0.20876313     -0.00000000
O      -3.68770681      0.21669929      0.00000000
H       3.12621360      0.16753025      0.00000000
H       3.12117390     -0.59299267      0.00000000
    4

C       0.66155294      0.60837284      0.00000000
O      -0.28262508     -0.45606525      0.00000000
H       0.07326151      4.99044295      0.00000000
H      -0.45218929     -5.14275053      0.00000000
    4

C      -1.43023591     -0.14923618     -0.00000000
O      -2.65076936      0.37702350     -0.00000000
H       2.12832028      3.89854255     -0.00000000
H       1.95268494     -4.12632987     -0.00000000
    4

C      -2.18640883      0.11482850     -0.00000000
O      -3.35560995      0.24534830     -0.00000000
H       2.79734062      1.54847201     -0.00000000
H       2.74467814     -1.90864878     -0.00000000
    4

C      -1.65803810      0.33696824     -0.00000000
O      -2.76036624      0.00110818     -0.00000000
H       2.25653026      0.44984960     -0.00000000
H       2.16187409     -0.78792603     -0.00000000
    4

C      -1.33574823      0.33607596      0.00000000
O      -2.45469417     -0.03498150      0.00000000
H       1.96318046      0.51564475      0.00000000
H       1.82726194     -0.81673922      0.00000000
    4

C      -0.17438841      0.22258455      0.00000000
O      -2.33638198     -0.02252861      0.00000000
H       1.36555608      0.70192744      0.00000000
H       1.14521432     -0.90198338      0.00000000
    4

C       6.49566775     -0.49915778      0.00000000
O      -6.41283434      0.43001687      0.00000000
H       0.08604561      1.02347907      0.00000000
H      -0.16887899     -0.95433817      0.00000000
    4

C      17.85720063     -1.73353529      0.00000000
O     -17.91561533      1.63449671      0.00000000
H      -0.25956617      0.75394276      0.00000000
H       0.31798072     -0.65490422      0.00000000
    4

C      -0.00213827      0.00012398     -0.00000000
O      -1.19604137      0.06934883      0.00000000
H       0.65376003      0.90814661      0.00000000
H       0.54441961     -0.97761943     -0.00000000
    4

C      -2.55968070      0.20876313     -0.00000000
O      -3.68770681      0.21669929      0.00000000
H       3.12621360      0.16753025      0.00000000
H       3.12117390     -0.59299267      0.00000000
    4

C       0.70026370      0.65763234      0.00000000
O      -0.22769543     -0.49951220      0.00000000
H       0.03009798      4.86632920      0.00000000
H      -0.50266616     -5.02444934      0.00000000
    4

C      -1.42584781     -0.14867639     -0.00000000
O      -2.64608859      0.37610412     -0.00000000
H       2.12407376      3.90291501     -0.00000000
H       1.94786260     -4.13034274     -0.00000000
    4

C      -2.19223777      0.09568903     -0.00000000
O      -3.36642294      0.26184288     -0.00000000
H       2.80577620      1.66454541     -0.00000000
H       2.75288449     -2.02207730     -0.00000000
    4

C      -1.66485788      0.33598679     -0.00000000
O      -2.76725543      0.00269982     -0.00000000
H       2.26300556      0.45385482     -0.00000000
H       2.16910775     -0.79254143     -0.00000000
    4

C      -1.32858553      0.33564524      0.00000000
O      -2.45156408     -0.03525261      0.00000000
H       1.95837286      0.51691770      0.00000000
H       1.82177675     -0.81731033      0.00000000
    4

C      -0.08683189      0.21355516      0.00000000
O      -2.35964143     -0.01901173      0.00000000
H       1.33506660      0.71090830      0.00000000
H       1.11140672     -0.90545173      0.00000000
    4

C       6.76787899     -0.52866752      0.00000000
O      -6.62924956      0.45324622      0.00000000
H       0.05396034      1.02762978      0.00000000
H      -0.19258974     -0.95220848      0.00000000
    4

C      17.78595949     -1.74715689      0.00000000
O     -17.98424359      1.66086547      0.00000000
H      -0.21914989      0.72777929      0.00000000
H       0.41743382     -0.64148791      0.00000000
    4

C      -0.00213827      0.00012398     -0.00000000
O      -1.19604137      0.06934883      0.00000000
H       0.65376003      0.90814661      0.00000000
H       0.54441961     -0.97761943     -0.00000000
