   94

C      -5.60205313     -0.58170644     -0.92776175
C      -4.01476811     -0.87491763     -0.31046499
H      -5.63284580      0.16042537     -1.93036333
C      -6.84992569     -0.20677877      0.21375924
H      -5.90007071     -1.42410687     -1.79661024
H      -3.70701214      0.29674854     -0.05190016
C      -2.37646297     -1.28429167     -0.36437176
H      -4.25290112     -1.96877006      0.21946251
H      -6.00107242     -3.73394911    -11.08085477
H      -5.99336123     -4.50334310    -10.95289611
C      -1.15747024     -1.17905296     -1.51451366
H      -1.74989127     -0.57023234     -2.41507047
C       0.46532810     -0.58159357     -1.52288496
H      -1.21248255     -2.37018728     -1.86767960
H       0.54561140      0.30187559     -2.40170152
H       1.07720371     -1.35796639     -2.29125798
C       1.46707437     -0.10777294     -0.17686040
H       2.51510332      0.33687324     -0.69780658
C       1.10444354      0.86252284      1.24147850
H       2.10043082     -1.12756398      0.16372304
H       0.56426334      1.88924425      0.79958913
H       2.17124965      1.45986635      1.49158917
C       0.41302175      0.54114597      2.82780092
H       1.39152640      0.46116697      3.59409800
C       3.24231175      3.50508117    -10.56324283
H       0.30292332     -0.69077844      2.91635859
H       2.59630495      4.31320867    -11.02262158
H      10.33254329     -4.53341522     -8.94656194
C      11.42199937     -4.23073302     -8.45912992
H      -6.71363004      0.89246587      0.77711017
H      -6.83037723     -0.82712560      1.29049212
C      -8.47598115     -0.27072178     -0.14726349
H      -9.23834319      0.60596563     -0.48781946
C      -0.87642678      1.25729591      3.79841617
H      -9.25275920     -1.19954518     -0.12602635
H      -0.68680460      2.48906377      3.82567858
H      -0.58427494      1.15160534      5.00477436
C      -2.61145806      1.04908117      3.83425376
H      -3.00236900      1.69966278      2.84929683
C      -3.88793443      1.30045126      4.98233522
H      -2.82043620     -0.14377279      3.56723959
H      -3.93767782      2.34106256      5.65387573
H      -4.07499637      0.49887344      5.91251562
H      -5.09081975      1.34489144      4.66739150
H      11.36822844     -3.08404599     -8.01377772
H      12.29196970     -4.29298493     -9.32826590
H      11.69525605     -5.01248593     -7.54791414
H       6.21888403     -2.27531351     12.58713040
H       2.88192701     -2.08309799     14.11317919
H       6.48849991     -2.83327211      9.65753241
H       9.26353347     -2.53934833     10.48183967
H       3.47957191     -2.48906033     11.29310075
H      10.28595689      2.17143365      1.40395949
H      -1.40739228      7.68071233     15.37804904
H      11.55324112      2.18516206      5.08858929
H      12.59849090     -1.13434630      2.59618292
H      -1.13684307      6.36941302     12.68369164
H      15.08684185     -0.55505776      2.59929721
H      15.40278741     -0.61500571      0.08536600
H       8.59758590      0.27323274      5.02610137
H      18.27868249     -0.25595573      0.64051311
H      10.56563627     -0.62464607      3.21146027
C       5.77823179     -1.52293391     11.69694468
C       6.73564088     -1.78928356     10.28388644
C       4.05455556     -1.51892401     11.81356808
C       3.31352529     -1.29657465     13.29875845
C       8.40532033     -1.69131610     10.37001985
C      10.82512875      2.60653995      2.40033159
C      11.10657473      2.03615366      3.94040808
C      -1.11564734      7.55454824     12.92132528
C      -1.25835296      8.36359619     14.36235589
C      12.85553581     -0.00608066      3.03024408
C      14.38875955      0.31277640      2.06768156
C      15.64868257      0.39897407      0.76079824
C      17.35841419      0.49742284      0.27757279
C      11.17801750      0.35365858      3.65607109
C       9.66485603      0.21850235      4.47969028
H      17.79725021      0.40873525     -0.89198497
H      -1.96389143     -1.85611445      0.63930657
H       6.18151905     -0.47326878     12.23227627
H       3.05876257     -0.29445017     13.93122983
H       6.42348546     -1.12713461      9.28068113
H       9.15817547     -0.74147723     10.37252510
H       3.45621487     -0.75645563     11.03601744
H      11.22956294      3.59105337      1.84467974
H      -0.27667930      9.04855674     14.66167583
H      10.80475800      3.04400251      4.59051087
H      13.36232799      0.00902396      4.15982595
H      -0.96001671      7.98095921     11.80041450
H      14.31444567      1.54001239      2.12893387
H      15.37263036      1.42130070      0.11228345
H       8.59669964      0.30384372      5.02131947
H      18.13981327      1.45786327      0.41465844
H      -2.22763113      9.12464433     14.42390066
   94

C      -5.61197055     -0.58915165     -0.92809124
C      -4.02393613     -0.88505290     -0.31299257
H      -5.64097566      0.15441947     -1.92961080
C      -6.86243339     -0.21188573      0.21020470
H      -5.91110582     -1.43228104     -1.79576624
H      -3.71416091      0.28512948     -0.05139926
C      -2.38596899     -1.29629927     -0.37537292
H      -4.26313590     -1.97541799      0.22355593
H      -6.00120104     -3.73404410    -11.08087116
H      -5.99350280     -4.50344018    -10.95292446
C      -1.16627059     -1.18851433     -1.52489101
H      -1.75878487     -0.58818098     -2.43128319
C       0.45515285     -0.58583520     -1.52095810
H      -1.21937671     -2.37760613     -1.88519881
H       0.53492224      0.30434983     -2.39287430
H       1.07312285     -1.35703097     -2.28939033
C       1.45349134     -0.11742508     -0.17027527
H       2.50840166      0.31931469     -0.68365658
C       1.08702226      0.85710085      1.24362666
H       2.08143443     -1.13851283      0.17555730
H       0.53821584      1.87797604      0.79896630
H       2.14473864      1.47257744      1.48790834
C       0.40613492      0.52975617      2.83253110
H       1.38706539      0.43977305      3.59486373
C       3.23834763      3.50784776    -10.56562897
H       0.29435184     -0.70189524      2.92102837
H       2.59242168      4.31607194    -11.02495185
H      10.32056067     -4.54873278     -8.98592079
C      11.41013534     -4.24623328     -8.49865974
H      -6.72720865      0.88801116      0.77255597
H      -6.84502381     -0.82880655      1.28890419
C      -8.48790914     -0.27691310     -0.15442962
H      -9.25089515      0.59820178     -0.49777988
C      -0.88130207      1.24858864      3.80249234
H      -9.26476643     -1.20575539     -0.13506908
H      -0.69304738      2.48052334      3.82939579
H      -0.58666097      1.14954035      5.00871477
C      -2.61610994      1.04075871      3.83505074
H      -3.00750687      1.68857725      2.84844628
C      -3.89036701      1.29521456      4.98435256
H      -2.82545466     -0.15163898      3.56638090
H      -3.93957414      2.33717096      5.65385012
H      -4.07456277      0.49471599      5.91595420
H      -5.09352740      1.33939196      4.67066886
H      11.35639486     -3.09965221     -8.05305997
H      12.28013262     -4.30823523     -9.36777751
H      11.68355110     -5.02842098     -7.58787842
H       6.18648110     -2.29149139     12.65849146
H       2.85286884     -2.11298968     14.16825823
H       6.45793840     -2.87196741      9.74782026
H       9.23428599     -2.56344227     10.62571928
H       3.45155399     -2.51635883     11.34887627
H       9.90700178      2.73496507      1.38269832
H      -1.41277225      7.68259820     15.38558080
H      11.28793901      2.66997314      5.04175155
H      12.79339740     -1.29628940      2.55612791
H      -1.14609921      6.37102191     12.69124478
H      15.32340568     -0.73955966      2.56613252
H      15.59952391     -0.78759017      0.02906387
H       7.36650552      5.11734205      4.86289348
H      18.48176368     -0.42629897      0.62033465
H       9.93107898     -0.05772964      2.61346177
C       5.74893468     -1.54520923     11.76137970
C       6.70961464     -1.81645260     10.35204064
C       4.02523687     -1.54527178     11.86893841
C       3.28014223     -1.32560685     13.35230537
C       8.37858983     -1.72489007     10.44423635
C      10.58837821      3.06413933      2.33225716
C      10.76645563      2.53321717      3.91656417
C      -1.12469476      7.55598104     12.92953092
C      -1.26477206      8.36593964     14.37010306
C      13.10108219     -0.19294395      3.01947325
C      14.61660173      0.12158994      2.03267074
C      15.85768849      0.21816529      0.71206661
C      17.56793894      0.32854349      0.24591877
C      11.48839416      0.06797594      3.80622681
C      10.18123473     -0.20498678      4.89038179
H      18.01063792      0.24218936     -0.92162952
H      -1.97097086     -1.87260942      0.62466043
H       6.15077013     -0.49251768     12.29121126
H       3.02644173     -0.32394648     13.98576817
H       6.40320751     -1.17276958      9.33555882
H       9.12946807     -0.77350449     10.43367497
H       3.43097390     -0.78400966     11.08735974
H      11.08202148      3.98600543      1.73173058
H      -0.28285093      9.05084388     14.66858304
H      10.72787212      3.64813242      4.45854968
H      13.62558753     -0.19457918      4.14195973
H      -0.97486730      7.98376025     11.80841617
H      14.56918507      1.34933067      2.12850146
H      15.56595473      1.23289792      0.05762121
H       9.15374148     -4.28797824      5.18608705
H      18.33853651      1.29511270      0.39834826
H      -2.23400529      9.12695933     14.43227342
   94

C      -5.63011196     -0.59662628     -0.93236944
C      -4.04180053     -0.89660043     -0.31979265
H      -5.65683978      0.14866132     -1.93258471
C      -6.88130012     -0.21675473      0.20433917
H      -5.93029607     -1.44029482     -1.79900831
H      -3.72930247      0.27218002     -0.05636338
C      -2.40513076     -1.31140445     -0.39378128
H      -4.28249860     -1.98348369      0.22317125
H      -6.00172688     -3.73444735    -11.08160868
H      -5.99399551     -4.50383648    -10.95362121
C      -1.18537580     -1.20100062     -1.54348005
H      -1.77833093     -0.60942960     -2.45545525
C       0.43386733     -0.59176252     -1.53027116
H      -1.23545283     -2.38827209     -1.90993526
H       0.51322503      0.30458268     -2.39563080
H       1.05934478     -1.35802435     -2.29714667
C       1.42538281     -0.12592796     -0.17387432
H       2.48739553      0.30305852     -0.67866022
C       1.04617916      0.85507149      1.23174510
H       2.04792388     -1.14797780      0.17831324
H       0.49176001      1.87173430      0.78419169
H       2.09322420      1.49002553      1.47193245
C       0.36853499      0.51875266      2.81996861
H       1.34955464      0.41419082      3.58012523
C       3.23470855      3.51121188    -10.56742342
H       0.25417465     -0.71286637      2.90964106
H       2.58882858      4.31967142    -11.02639272
H      10.30909662     -4.56336910     -9.02049293
C      11.39870467     -4.26083476     -8.53332776
H      -6.74719187      0.88396581      0.76532118
H      -6.86608363     -0.83021715      1.28500860
C      -8.50607404     -0.28284367     -0.16333714
H      -9.26940564      0.59097179     -0.50915485
C      -0.90639942      1.24807091      3.79709994
H      -9.28274540     -1.21183559     -0.14544960
H      -0.71558192      2.47954913      3.82427441
H      -0.61008165      1.15331337      5.00316920
C      -2.63959121      1.03694643      3.82999695
H      -3.03148150      1.68305201      2.84264325
C      -3.90640096      1.29396511      4.98551441
H      -2.84955129     -0.15519696      3.56059524
H      -3.95295251      2.33709779      5.65329955
H      -4.08655416      0.49405822      5.91832894
H      -5.11005661      1.33844767      4.67453398
H      11.34498924     -3.11409580     -8.08813020
H      12.26868631     -4.32311155     -9.40244219
H      11.67195935     -5.04271850     -7.62223643
H       6.16196070     -2.34897015     12.72163972
H       2.82436784     -2.15820755     14.23474591
H       6.43807662     -2.91978022      9.79864817
H       9.20828011     -2.60561705     10.66058845
H       3.42554461     -2.56866556     11.41619652
H       9.56141226      3.41005456      1.27094108
H      -1.41154638      7.68447339     15.38278242
H      11.02841950      3.10667747      4.88971182
H      13.05684356     -1.36807271      2.42314458
H      -1.14556414      6.37363481     12.68841406
H      15.57475567     -0.81031509      2.55344944
H      15.78254111     -0.91126354     -0.01942615
H       7.20276164      2.11554650      5.83346636
H      18.66980296     -0.57279961      0.59888091
H       9.48793640      0.88417629      2.86352055
C       5.72264260     -1.59916820     11.82857456
C       6.68301510     -1.87167938     10.41890188
C       3.99871249     -1.59772076     11.93716256
C       3.25355660     -1.37146054     13.41947623
C       8.35148488     -1.76290225     10.50516219
C      10.22724207      3.71264187      2.24118933
C      10.48983182      3.08227209      3.77331376
C      -1.12218955      7.55868687     12.92604939
C      -1.26289734      8.36755879     14.36720601
C      13.32943168     -0.28780773      2.96097715
C      14.85988245      0.03441846      2.00294406
C      16.05654637      0.09663991      0.65443701
C      17.76823761      0.18955701      0.21081541
C      11.71687319     -0.21766626      3.79176504
C      10.49867899     -1.09898484      4.66245015
H      18.21378415      0.09750148     -0.95420214
H      -1.98862853     -1.89351788      0.60222125
H       6.12586572     -0.55043312     12.36580577
H       2.99661010     -0.36903913     14.05048654
H       6.36993093     -1.21754878      9.41119145
H       9.10231749     -0.81162391     10.49335570
H       3.39959208     -0.83659433     11.15902706
H      10.64008117      4.72115542      1.72837794
H      -0.28081279      9.05218422     14.66580243
H      10.35530162      4.13464584      4.42012411
H      13.84033034     -0.28121376      4.09015431
H      -0.96872956      7.98559248     11.80507293
H      14.78342937      1.26108055      2.08861386
H      15.75055155      1.09670590     -0.01523578
H       9.86299186     -2.09183142      4.90471545
H      18.53382993      1.15707746      0.37657808
H      -2.23205254      9.12869616     14.42906008
   94

C      -5.63660171     -0.60250331     -0.92987185
C      -4.04767009     -0.90403150     -0.31855546
H      -5.66184256      0.14405654     -1.92909867
C      -6.89073994     -0.22030645      0.20332281
H      -5.93813959     -1.44700249     -1.79521575
H      -3.73287533      0.26307024     -0.05155239
C      -2.41134744     -1.32041723     -0.40056210
H      -4.28905404     -1.98758837      0.23069895
H      -6.00195001     -3.73456568    -11.08154662
H      -5.99421776     -4.50395682    -10.95357159
C      -1.19229847     -1.20840118     -1.55082019
H      -1.78530346     -0.62500496     -2.46825960
C       0.42533846     -0.59406611     -1.52485240
H      -1.24136149     -2.39349576     -1.92461176
H       0.50338636      0.30956285     -2.38255530
H       1.05513177     -1.35491488     -2.29356860
C       1.41501892     -0.13496177     -0.16398230
H       2.48372339      0.28347481     -0.66330795
C       1.04517859      0.85027687      1.24113715
H       2.03020882     -1.16060030      0.19037075
H       0.48487069      1.86337777      0.79335595
H       2.08584047      1.49791233      1.47631822
C       0.38112720      0.51076960      2.83363391
H       1.36531481      0.39514435      3.58865493
C       3.23065141      3.51408603    -10.56988737
H       0.26055039     -0.72006757      2.92158735
H       2.58483089      4.32276739    -11.02854568
H      10.29818972     -4.57794324     -9.05749872
C      11.38782604     -4.27543777     -8.57038583
H      -6.75722088      0.88094534      0.76344945
H      -6.87735858     -0.83023969      1.28598203
C      -8.51491905     -0.28797203     -0.16832570
H      -9.27894220      0.58401227     -0.51749275
C      -0.89336993      1.24381233      3.80758755
H      -9.29166583     -1.21704505     -0.15300053
H      -0.69798098      2.47458911      3.83558596
H      -0.59319504      1.15486208      5.01312625
C      -2.62700227      1.03376990      3.83436983
H      -3.01891998      1.67701420      2.84500576
C      -3.89595615      1.29200042      4.98755885
H      -2.83977023     -0.15732691      3.56173930
H      -3.94175277      2.33621298      5.65364741
H      -4.07518398      0.49296601      5.92128684
H      -5.09971494      1.33690415      4.67685426
H      11.33419856     -3.12868788     -8.12521829
H      12.25787478     -4.33767989     -9.43943048
H      11.66116526     -5.05743645     -7.65942413
H       6.11263278     -2.40988521     12.81671595
H       2.78444938     -2.19381304     14.29853842
H       6.40428260     -3.00592065      9.89066696
H       9.17424320     -2.73630376     10.71586751
H       3.38373672     -2.60855394     11.47775784
H       9.05490737      4.03646391      1.16752641
H      -1.41076408      7.68354677     15.38047095
H      10.69651231      3.92743087      4.64036381
H      13.26774932     -1.49528229      2.37517589
H      -1.14194044      6.37197569     12.68605654
H      15.77619944     -0.89847288      2.57892389
H      15.94850443     -1.04185756     -0.03266731
H       8.68936942      1.28322912      6.65641289
H      18.83809878     -0.72193119      0.59617348
H       9.25839678      1.55348223      2.81640947
C       5.68360857     -1.66092897     11.91831195
C       6.65429730     -1.96565802     10.52238444
C       3.95920042     -1.64068834     12.00155806
C       3.20835387     -1.40841255     13.47932940
C       8.32356873     -1.87727365     10.62651988
C       9.70151206      4.32956222      2.14930913
C       9.96450385      3.68803841      3.66874764
C      -1.11974318      7.55709958     12.92362060
C      -1.26170992      8.36622426     14.36464836
C      13.50585669     -0.40642113      2.91327996
C      15.05849290     -0.07455747      2.00193770
C      16.23454877     -0.03505438      0.63914309
C      17.94605370      0.04649530      0.19853981
C      11.86252494     -0.36044866      3.66151550
C      10.53709935     -1.32766440      4.24126457
H      18.39198891     -0.04968212     -0.96563447
H      -1.99173709     -1.90612661      0.59189672
H       6.08842189     -0.61275226     12.45571321
H       2.95773024     -0.40422137     14.10978308
H       6.33340185     -1.30575637      9.52126109
H       9.09057678     -0.94363964     10.73155964
H       3.37241097     -0.87581746     11.21783223
H      10.18722676      5.31606898      1.66091624
H      -0.27985854      9.05106613     14.66362584
H       9.57580940      4.64666645      4.35342408
H      13.95072505     -0.39363904      4.06836128
H      -0.96476388      7.98346617     11.80260838
H      14.96261115      1.15101472      2.08708828
H      15.91434942      0.95040771     -0.04641553
H       9.87308154     -2.33076699      4.27844531
H      18.70661136      1.01578214      0.37415880
H      -2.23094310      9.12731504     14.42626200
   94

C      -5.65003601     -0.60982060     -0.93174703
C      -4.06064013     -0.91467707     -0.32278167
H      -5.67326625      0.13832591     -1.92975016
C      -6.90569978     -0.22513171      0.19916116
H      -5.95278643     -1.45491153     -1.79599348
H      -3.74327863      0.25081652     -0.05298593
C      -2.42539280     -1.33393594     -0.41532541
H      -4.30318817     -1.99471535      0.23287830
H      -6.00225708     -3.73479945    -11.08196549
H      -5.99452340     -4.50418964    -10.95398438
C      -1.20620487     -1.21952113     -1.56564940
H      -1.79913317     -0.64421549     -2.48839601
C       0.40967984     -0.60002663     -1.52940380
H      -1.25321224     -2.40248621     -1.94631838
H       0.48736103      0.31031079     -2.37978022
H       1.04574273     -1.35561217     -2.29783360
C       1.39463570     -0.14597926     -0.16340552
H       2.47031108      0.26395582     -0.65447138
C       1.01757594      0.84297703      1.23683489
H       2.00346129     -1.17359182      0.19549691
H       0.45056874      1.85153235      0.78715854
H       2.04835988      1.50798068      1.46676073
C       0.36358934      0.49761628      2.83188636
H       1.34957209      0.36942035      3.58268524
C       3.22792325      3.51707973    -10.57061774
H       0.23934421     -0.73285504      2.91982452
H       2.58206751      4.32568697    -11.02936028
H      10.28672763     -4.59071275     -9.09105499
C      11.37630313     -4.28821512     -8.60379718
H      -6.77303975      0.87677843      0.75820185
H      -6.89437823     -0.83163507      1.28373772
C      -8.52922634     -0.29392264     -0.17584094
H      -9.29369733      0.57658442     -0.52777005
C      -0.90324629      1.23747558      3.80938971
H      -9.30593311     -1.22307531     -0.16236651
H      -0.70556304      2.46783905      3.83761454
H      -0.59944500      1.15378500      5.01432619
C      -2.63624821      1.02729490      3.83370781
H      -3.02865646      1.66839548      2.84315156
C      -3.90131395      1.28848144      4.98969316
H      -2.85080291     -0.16313216      3.55928022
H      -3.94510867      2.33392327      5.65392306
H      -4.07746784      0.49037273      5.92471639
H      -5.10544609      1.33376914      4.68087251
H      11.32263670     -3.14162976     -8.15820592
H      12.24635872     -4.35037595     -9.47284066
H      11.64967764     -5.07048736     -7.69308045
H       6.11992040     -2.41943934     12.81341002
H       2.78643513     -2.22661734     14.32539749
H       6.39349067     -2.98258179      9.88030469
H       9.16056379     -2.70754838     10.74180312
H       3.38685651     -2.63309555     11.50550303
H       8.71955130      4.46357373      1.22376297
H      -1.41031076      7.68280455     15.38033568
H      10.00637050      4.33647962      4.83986031
H      13.36499542     -1.67189093      2.36704008
H      -1.14059000      6.37078362     12.68605139
H      15.94869244     -1.05996002      2.54387784
H      16.10716732     -1.19446282     -0.07437458
H      10.82228566      0.27101292      6.00579845
H      19.00239707     -0.87847121      0.58675713
H       8.62563492      2.21292252      3.18119803
C       5.68385217     -1.66873079     11.91936844
C       6.64037339     -1.93894983     10.50697282
C       3.96020405     -1.66263666     12.02683853
C       3.21329565     -1.43973400     13.50881014
C       8.30926955     -1.85579875     10.60782573
C       9.24808780      4.80823566      2.25939564
C       9.35588298      4.18303710      3.80021875
C      -1.11907521      7.55592779     12.92361340
C      -1.26128821      8.36539502     14.36444767
C      13.67410785     -0.58368334      2.86458286
C      15.21952968     -0.24999343      1.95725254
C      16.40330446     -0.19421071      0.60378187
C      18.11704746     -0.10745744      0.17930724
C      12.04919954     -0.48861453      3.60029125
C      11.00460617     -0.25072972      4.93876858
H      18.56741365     -0.20252095     -0.98300426
H      -2.00385159     -1.92477714      0.57321125
H       6.08720673     -0.62177929     12.46018546
H       2.95390206     -0.43759548     14.13928140
H       6.34118154     -1.27458977      9.50144849
H       9.06186255     -0.90715983     10.65507994
H       3.36816720     -0.89974952     11.24518142
H       9.77383382      5.78679217      1.79742715
H      -0.27940719      9.05023597     14.66335283
H       8.88316617      5.09031820      4.49368449
H      14.13948355     -0.60421816      4.01243011
H      -0.96427732      7.98230302     11.80257588
H      15.12943585      0.97728049      2.06792561
H      16.06810696      0.78375718     -0.08610004
H       9.48767425     -3.08371121      3.79721217
H      18.86832675      0.86635852      0.36872697
H      -2.23052637      9.12648327     14.42612569
   94

C      -5.66007590     -0.61703691     -0.93296268
C      -4.06971381     -0.92462768     -0.32683249
H      -5.68154407      0.13257257     -1.92983731
C      -6.91817066     -0.23011457      0.19488055
H      -5.96398910     -1.46282823     -1.79603483
H      -3.75032877      0.23933417     -0.05399880
C      -2.43499521     -1.34569333     -0.42849273
H      -4.31312404     -2.00103654      0.23544601
H      -6.00227770     -3.73493879    -11.08200824
H      -5.99454132     -4.50432827    -10.95402301
C      -1.21394625     -1.22856799     -1.57729165
H      -1.80638561     -0.66127324     -2.50551827
C       0.40079832     -0.60487293     -1.52871429
H      -1.25902089     -2.40928607     -1.96520248
H       0.47811538      0.31203322     -2.37187973
H       1.04295362     -1.35526167     -2.29688845
C       1.38334641     -0.15641920     -0.15880981
H       2.46613677      0.24505066     -0.64101857
C       1.00002833      0.83676868      1.23641488
H       1.98625955     -1.18555719      0.20516120
H       0.42701791      1.84095901      0.78466725
H       2.02155996      1.51733580      1.46204625
C       0.35246797      0.48592825      2.83251647
H       1.33947875      0.34549112      3.57999354
C       3.22528173      3.52004098    -10.57083651
H       0.22470696     -0.74419891      2.92015801
H       2.57940482      4.32854812    -11.02973031
H      10.27506515     -4.60416255     -9.12446550
C      11.36468323     -4.30174006     -8.63724972
H      -6.78656968      0.87243863      0.75292798
H      -6.90889207     -0.83321704      1.28133655
C      -8.54116467     -0.29998890     -0.18343263
H      -9.30627882      0.56899328     -0.53788061
C      -0.90954027      1.23133695      3.81107648
H      -9.31796422     -1.22913013     -0.17162263
H      -0.71032538      2.46142647      3.83953354
H      -0.60340565      1.15324023      5.01575363
C      -2.64219553      1.02116971      3.83297540
H      -3.03475224      1.65993849      2.84098674
C      -3.90443614      1.28497309      4.99090473
H      -2.85799070     -0.16866489      3.55675723
H      -3.94688395      2.33162346      5.65329727
H      -4.07797675      0.48778762      5.92715487
H      -5.10886317      1.33050287      4.68355753
H      11.31106690     -3.15522663     -8.19145774
H      12.23460796     -4.36394369     -9.50642570
H      11.63798510     -5.08407091     -7.72655691
H       6.10941738     -2.45228967     12.85806211
H       2.76971594     -2.26281712     14.37434430
H       6.37747362     -3.01423730      9.92763689
H       9.14962428     -2.72611534     10.76651554
H       3.37241838     -2.66876478     11.55651729
H       8.28789960      4.85091741      1.29248462
H      -1.41130597      7.68335795     15.38158759
H       9.55663074      4.72259622      4.91814194
H      13.61875230     -1.86172091      2.29125414
H      -1.14219320      6.37109254     12.68739980
H      16.20648167     -1.19589847      2.52797048
H      16.30478671     -1.34316400     -0.12801095
H      10.90289426      0.39105425      5.55333713
H      19.20332605     -1.03220207      0.56090991
H       8.17048637      2.83620462      3.47143040
C       5.67017418     -1.70204038     11.96530106
C       6.62568616     -1.96876473     10.55095090
C       3.94618362     -1.69791468     12.07692091
C       3.19836941     -1.47581543     13.55877163
C       8.29528488     -1.87692644     10.63602781
C       8.80270635      5.24662222      2.31639454
C       8.90820062      4.67267629      3.87104316
C      -1.12053053      7.55623612     12.92493463
C      -1.26237658      8.36591090     14.36566733
C      13.92861583     -0.78246609      2.80768789
C      15.46580090     -0.40540322      1.92924635
C      16.61196854     -0.34809087      0.55320613
C      18.32530551     -0.25824366      0.14378683
C      12.30355134     -0.72220722      3.48705599
C      11.11226919     -0.34519018      4.63057054
H      18.77759461     -0.35235720     -1.01704307
H      -2.01155252     -1.94141606      0.55624645
H       6.07528647     -0.65620503     12.50683986
H       2.93442402     -0.47391325     14.18775750
H       6.31899729     -1.30667007      9.54591832
H       9.04980353     -0.92869764     10.64165684
H       3.35219585     -0.93557360     11.29602215
H       9.32106865      6.21769228      1.83019579
H      -0.28039826      9.05069262     14.66437116
H       8.46538388      5.58932955      4.56890954
H      14.34017425     -0.79140587      3.97526707
H      -0.96634191      7.98268354     11.80384743
H      15.35596563      0.81967903      2.05271615
H      16.25680937      0.62042665     -0.14052588
H       9.95968795     -3.22584492      4.13689523
H      19.06551495      0.72058727      0.34750883
H      -2.23158303      9.12702974     14.42741567
   94

C      -5.66860822     -0.62389698     -0.93352855
C      -4.07715031     -0.93364704     -0.33018052
H      -5.68850982      0.12708030     -1.92934075
C      -6.92944129     -0.23488383      0.19098914
H      -5.97362782     -1.47049535     -1.79534804
H      -3.75600191      0.22883136     -0.05422157
C      -2.44275483     -1.35583071     -0.44047987
H      -4.32106277     -2.00646861      0.23868465
H      -6.00228176     -3.73503467    -11.08196865
H      -5.99454507     -4.50442418    -10.95398371
C      -1.21985205     -1.23581679     -1.58768473
H      -1.81185082     -0.67664087     -2.52134885
C       0.39350453     -0.60744441     -1.52646860
H      -1.26295640     -2.41425450     -1.98287261
H       0.47000936      0.31590578     -2.36249757
H       1.04143696     -1.35262802     -2.29464581
C       1.37454279     -0.16371526     -0.15347326
H       2.46419700      0.22908603     -0.62718773
C       0.98856848      0.83367906      1.23769758
H       1.97124405     -1.19465956      0.21508821
H       0.40964011      1.83358571      0.78428010
H       2.00144135      1.52859409      1.45897385
C       0.34670775      0.47716599      2.83436846
H       1.33485874      0.32511674      3.57831995
C       3.22259493      3.52314436    -10.57105821
H       0.21545084     -0.75259000      2.92155491
H       2.57668839      4.33155002    -11.03009202
H      10.26386043     -4.61778622     -9.15810280
C      11.35350488     -4.31542011     -8.67090510
H      -6.79894604      0.86829522      0.74809454
H      -6.92211769     -0.83459021      1.27930215
C      -8.55191440     -0.30593917     -0.19069911
H      -9.31774440      0.56144633     -0.54769933
C      -0.91213641      1.22653155      3.81311756
H      -9.32881109     -1.23507518     -0.18060713
H      -0.71164146      2.45638774      3.84205250
H      -0.60377241      1.15395207      5.01753691
C      -2.64454112      1.01600608      3.83252012
H      -3.03733750      1.65226474      2.83901147
C      -3.90483378      1.28182153      4.99173753
H      -2.86130464     -0.17325362      3.55436724
H      -3.94632084      2.32960020      5.65239704
H      -4.07595819      0.48546532      5.92910151
H      -5.10952671      1.32744755      4.68565217
H      11.29996360     -3.16893341     -8.22502623
H      12.22332736     -4.37768089     -9.54018376
H      11.62676907     -5.09772718     -7.76017573
H       6.09307981     -2.48578506     12.90615068
H       2.75046904     -2.29849221     14.42410540
H       6.35777053     -3.04596723      9.97623363
H       9.13182568     -2.75383000     10.80650567
H       3.35448532     -2.70368670     11.60730091
H       7.82953849      5.25782129      1.36065020
H      -1.41205788      7.68378854     15.38253259
H       9.15817478      5.08650872      4.95551697
H      13.83588643     -2.01337884      2.23838521
H      -1.14327828      6.37126709     12.68844338
H      16.44075106     -1.33450820      2.51590151
H      16.49128732     -1.49525186     -0.16962811
H      10.91285857      0.54016868      4.94957933
H      19.39396076     -1.18978497      0.54308958
H       7.85591621      3.37293053      3.63275519
C       5.65250002     -1.73571304     12.01394216
C       6.60718247     -1.99992524     10.59822045
C       3.92832738     -1.73262207     12.12733155
C       3.17952680     -1.51128760     13.60890899
C       8.27718657     -1.90491097     10.67620039
C       8.35579204      5.66908827      2.37224045
C       8.48381979      5.09980840      3.92542057
C      -1.12158216      7.55641286     12.92594983
C      -1.26318336      8.36628967     14.36657498
C      14.17209009     -0.95190031      2.77481007
C      15.69600164     -0.55639873      1.90543321
C      16.81139194     -0.50433223      0.51206343
C      18.52411383     -0.41236519      0.11618252
C      12.56704564     -0.91590676      3.44113730
C      11.24676932     -0.42074180      4.33154318
H      18.97737945     -0.50683887     -1.04349092
H      -2.01711068     -1.95602803      0.54051706
H       6.05868535     -0.69090994     12.55662580
H       2.91251852     -0.50960689     14.23696564
H       6.29780805     -1.33802280      9.59371254
H       9.03330426     -0.95797237     10.66201461
H       3.33389207     -0.97043367     11.34655061
H       8.86510700      6.64170048      1.87786235
H      -0.28112624      9.05102434     14.66511553
H       8.03436597      5.99385223      4.64528954
H      14.54047557     -0.94305075      3.95623174
H      -0.96785564      7.98291178     11.80482469
H      15.58290902      0.66796380      2.04270986
H      16.43906063      0.45348684     -0.18837595
H      10.39450559     -3.30401510      4.48357336
H      19.25430361      0.57083915      0.33248298
H      -2.23237270      9.12742382     14.42836246
   94

C      -5.67632564     -0.63054144     -0.93373856
C      -4.08369545     -0.94207304     -0.33313017
H      -5.69478598      0.12174236     -1.92853031
C      -6.94005947     -0.23952800      0.18731208
H      -5.98240194     -1.47801804     -1.79425475
H      -3.76096585      0.21895573     -0.05399568
C      -2.44950847     -1.36492067     -0.45180914
H      -4.32784516     -2.01132963      0.24229250
H      -6.00226952     -3.73509921    -11.08187643
H      -5.99453482     -4.50448924    -10.95389457
C      -1.22477483     -1.24187156     -1.59739670
H      -1.81636395     -0.69095512     -2.53647603
C       0.38693063     -0.60835497     -1.52340095
H      -1.26577769     -2.41801841     -1.99980150
H       0.46228357      0.32120821     -2.35247771
H       1.04057252     -1.34837888     -2.29155595
C       1.36674506     -0.16827369     -0.14776213
H       2.46295729      0.21595879     -0.61320836
C       0.98025690      0.83365160      1.23972362
H       1.95722570     -1.20106193      0.22513404
H       0.39504032      1.82899933      0.78476152
H       1.98438358      1.54279229      1.45650509
C       0.34382207      0.47108596      2.83666311
H       1.33327000      0.30822549      3.57686292
C       3.21993295      3.52635103    -10.57114019
H       0.20933209     -0.75829572      2.92347849
H       2.57399143      4.33463734    -11.03033623
H      10.25291008     -4.63141820     -9.19185391
C      11.34257332     -4.32910090     -8.70466345
H      -6.81070854      0.86426937      0.74350206
H      -6.93463047     -0.83583791      1.27746394
C      -8.56201257     -0.31183085     -0.19779204
H      -9.32859963      0.55391373     -0.55735991
C      -0.91273591      1.22326949      3.81537214
H      -9.33900148     -1.24096950     -0.18944154
H      -0.71107369      2.45291139      3.84494072
H      -0.60202822      1.15613463      5.01947577
C      -2.64487863      1.01171465      3.83225757
H      -3.03810745      1.64530019      2.83719740
C      -3.90374461      1.27900884      4.99241948
H      -2.86235966     -0.17700042      3.55208576
H      -3.94453033      2.32784803      5.65143429
H      -4.07248107      0.48339259      5.93081447
H      -5.10870117      1.32456504      4.68751248
H      11.28911638     -3.18262868     -8.25873088
H      12.21232161     -4.39139670     -9.57401672
H      11.61585115     -5.11137604     -7.79390707
H       6.07482968     -2.51908094     12.95501300
H       2.73065217     -2.33369856     14.47370191
H       6.33676547     -3.07716150     10.02425273
H       9.11147488     -2.78541466     10.85027998
H       3.33551035     -2.73780161     11.65747460
H       7.37821443      5.66254932      1.41524467
H      -1.41256297      7.68410415     15.38319687
H       8.78779073      5.43813522      4.95752560
H      14.01025507     -2.13259454      2.20047785
H      -1.14384196      6.37133438     12.68918351
H      16.65076238     -1.47297996      2.50464709
H      16.66941898     -1.64762842     -0.20388331
H      10.99034767      0.61559802      4.48932790
H      19.57644955     -1.34863005      0.53012145
H       7.64148378      3.84253936      3.71915580
C       5.63344311     -1.76899085     12.06324174
C       6.58689969     -2.03124230     10.64619706
C       3.90920544     -1.76657135     12.17739786
C       3.15955455     -1.54616898     13.65871676
C       8.25710647     -1.93607038     10.72099410
C       7.92927625      6.06690422      2.41574849
C       8.06793762      5.47478916      3.96011936
C      -1.12224278      7.55648484     12.92666796
C      -1.26372113      8.36654134     14.36719476
C      14.38852636     -1.09134143      2.74704232
C      15.90685870     -0.70389188      1.88087070
C      17.00291896     -0.66049172      0.47739601
C      18.71543022     -0.56736738      0.09327478
C      12.80448245     -1.02826285      3.41636976
C      11.44926276     -0.41730860      4.13589586
H      19.16990521     -0.66291297     -1.06527314
H      -2.02146391     -1.96925547      0.52551494
H       6.04033568     -0.72518709     12.60731902
H       2.88994900     -0.54474541     14.28607033
H       6.27664274     -1.36832391      9.64251908
H       9.01404389     -0.98990994     10.69905164
H       3.31487176     -1.00433833     11.39655514
H       8.41922288      7.05478495      1.92949757
H      -0.28160231      9.05124500     14.66559903
H       7.59024301      6.33557492      4.69998590
H      14.72576992     -1.07657976      3.93720054
H      -0.96885679      7.98301499     11.80551126
H      15.80254894      0.52107792      2.03249051
H      16.61650256      0.28590735     -0.23211670
H      10.70735049     -3.36331750      4.64188676
H      19.43660225      0.41958157      0.32118444
H      -2.23290803      9.12767433     14.42901842
   94

C      -5.68328778     -0.63701705     -0.93368128
C      -4.08938940     -0.94998629     -0.33582899
H      -5.70042334      0.11651134     -1.92749719
C      -6.95008552     -0.24410454      0.18375936
H      -5.99033697     -1.48544995     -1.79284522
H      -3.76531235      0.20964379     -0.05348797
C      -2.45528507     -1.37304146     -0.46264036
H      -4.33351501     -2.01568341      0.24615196
H      -6.00220246     -3.73512589    -11.08170312
H      -5.99447167     -4.50451671    -10.95372593
C      -1.22859855     -1.24676265     -1.60647211
H      -1.81978532     -0.70427521     -2.55097025
C       0.38121692     -0.60769115     -1.51958641
H      -1.26726872     -2.42062038     -2.01599094
H       0.45512685      0.32781913     -2.34194225
H       1.04067738     -1.34259999     -2.28752321
C       1.35998783     -0.17018999     -0.14170914
H       2.46244948      0.20576709     -0.59899031
C       0.97372684      0.83663295      1.24203292
H       1.94448642     -1.20464491      0.23548965
H       0.38183148      1.82709396      0.78550853
H       1.96870455      1.56025076      1.45412589
C       0.34259121      0.46759427      2.83901951
H       1.33338298      0.29466728      3.57538841
C       3.21739377      3.52964114    -10.57088855
H       0.20538296     -0.76145395      2.92562272
H       2.57141019      4.33776663    -11.03030948
H      10.24207875     -4.64492052     -9.22541240
C      11.33176038     -4.34265037     -8.73822912
H      -6.82196087      0.86031150      0.73905459
H      -6.94650449     -0.83701958      1.27573136
C      -8.57151872     -0.31770577     -0.20479090
H      -9.33890852      0.54636000     -0.56691239
C      -0.91220678      1.22168063      3.81772085
H      -9.34858965     -1.24685642     -0.19817082
H      -0.70970361      2.45116060      3.84802405
H      -0.59908368      1.15996197      5.02146322
C      -2.64400137      1.00828230      3.83208094
H      -3.03787428      1.63903864      2.83545787
C      -3.90173048      1.27653709      4.99302848
H      -2.86181191     -0.17995248      3.54986931
H      -3.94209586      2.32636455      5.65049230
H      -4.06799643      0.48154583      5.93236499
H      -5.10694669      1.32180154      4.68923451
H      11.27839405     -3.19620554     -8.29220920
H      12.20143084     -4.40496625     -9.60766144
H      11.60508554     -5.12491235     -7.82747208
H       6.05627480     -2.55176649     13.00372993
H       2.71080171     -2.36844978     14.52295968
H       6.31572676     -3.10763044     10.07173856
H       9.09091940     -2.81747090     10.89348770
H       3.31640683     -2.77117772     11.70716811
H       6.93073400      6.08039173      1.45141879
H      -1.41291853      7.68435183     15.38376526
H       8.40708838      5.80071894      4.93924273
H      14.18612595     -2.25307427      2.16001451
H      -1.14408598      6.37135812     12.68980903
H      16.86116897     -1.60874115      2.49162233
H      16.84863196     -1.79811245     -0.23962008
H      11.14228615      0.58063216      4.24802953
H      19.75959921     -1.50636795      0.51574529
H       7.36358185      4.34100463      3.77744685
C       5.61417216     -1.80162254     12.11238092
C       6.56637791     -2.06203532     10.69405126
C       3.88988286     -1.79980535     12.22709061
C       3.13936590     -1.58052200     13.70816066
C       8.23676768     -1.96758425     10.76635820
C       7.50660645      6.47134977      2.44264910
C       7.64151910      5.85205848      3.97795101
C      -1.12270190      7.55651089     12.92729261
C      -1.26411429      8.36673474     14.36772407
C      14.59867101     -1.22974975      2.71394519
C      16.11625700     -0.85087433      1.85447775
C      17.19485018     -0.81507786      0.44189067
C      18.90743273     -0.72122337      0.06923867
C      13.02856061     -1.13596825      3.37980935
C      11.67187627     -0.45414185      4.02152212
H      19.36329669     -0.81772658     -1.08818126
H      -2.02469441     -1.98121053      0.51109278
H       6.02163162     -0.75879294     12.65791636
H       2.86725815     -0.57940072     14.33491196
H       6.25553369     -1.39772057      9.69137654
H       8.99421156     -1.02194898     10.73962814
H       3.29577387     -1.03744463     11.44618031
H       7.98285430      7.47372126      1.96961645
H      -0.28194214      9.05141769     14.66599799
H       7.14142374      6.68696945      4.73164595
H      14.90754482     -1.21441929      3.91112531
H      -0.96964795      7.98309298     11.80611296
H      16.01706334      0.37431044      2.01938179
H      16.79457703      0.12005808     -0.27598572
H      10.98111614     -3.41613646      4.66425417
H      19.61948574      0.26932846      0.30878015
H      -2.23331373      9.12784694     14.42959576
   94

C      -5.69046808     -0.64197659     -0.93200048
C      -4.09427073     -0.95692053     -0.33888750
H      -5.70552745      0.11445684     -1.92348651
C      -6.96260547     -0.24677294      0.17948945
H      -5.99927093     -1.49212365     -1.78868186
H      -3.76753987      0.20022145     -0.05129154
C      -2.46042172     -1.37996484     -0.48101125
H      -4.33782133     -2.01600894      0.25533436
H      -6.00205515     -3.73483716    -11.08087905
H      -5.99434396     -4.50423116    -10.95292039
C      -1.23174554     -1.24979482     -1.62317608
H      -1.82233947     -0.72494190     -2.57847490
C       0.37349864     -0.59889118     -1.51310479
H      -1.26647279     -2.41963042     -2.04488605
H       0.44410912      0.34651364     -2.32400748
H       1.04359645     -1.32582073     -2.27919678
C       1.34939026     -0.16237749     -0.13152911
H       2.46291303      0.19664602     -0.57511456
C       0.96792050      0.85695690      1.24408816
H       1.92234946     -1.20001052      0.25388541
H       0.36534015      1.83909692      0.78455727
H       1.94548784      1.60724387      1.44687582
C       0.34628878      0.47581224      2.84086313
H       1.33898974      0.28334484      3.57020741
C       3.21464707      3.53390803    -10.57041464
H       0.20353751     -0.75256222      2.92839249
H       2.56864027      4.34203552    -11.02979339
H      10.23165007     -4.66149132     -9.26287682
C      11.32112282     -4.35886351     -8.77544829
H      -6.83695695      0.85856419      0.73362163
H      -6.96190409     -0.83371387      1.27463726
C      -8.58303412     -0.32333496     -0.21512056
H      -9.35277142      0.53798519     -0.57920527
C      -0.90336753      1.23535311      3.82026833
H      -9.36044986     -1.25231069     -0.21013786
H      -0.69801643      2.46432417      3.85131099
H      -0.58517665      1.18482552      5.02315635
C      -2.63390328      1.01446612      3.83114780
H      -3.02971301      1.63936727      2.83156913
C      -3.89020360      1.28093525      4.99365251
H      -2.85141047     -0.17306315      3.54486957
H      -3.93022320      2.33191973      5.64919362
H      -4.05184985      0.48583162      5.93366743
H      -5.09586946      1.32549902      4.69172902
H      11.26729523     -3.21217675     -8.33010226
H      12.19111437     -4.42116227     -9.64455968
H      11.59443163     -5.14062372     -7.86425439
H       6.02937168     -2.58934841     13.07359804
H       2.68378354     -2.40534393     14.58582544
H       6.28727184     -3.14898936     10.14119477
H       9.06307138     -2.86297051     10.95735783
H       3.29000469     -2.80868743     11.77115069
H       6.41823054      6.51428099      1.47111886
H      -1.41036776      7.68487576     15.37911418
H       7.94512993      6.11452053      4.87465021
H      14.47011887     -2.45926318      2.10626947
H      -1.13944665      6.37326531     12.68449444
H      17.19007906     -1.73858991      2.46690789
H      17.05346195     -1.95008296     -0.31642452
H      11.01515545     -1.29338114      4.48887194
H      19.97339145     -1.66853208      0.48978653
H       6.91105527      5.03542108      3.87119492
C       5.58764615     -1.84000170     12.18151685
C       6.53901474     -2.10375764     10.76358953
C       3.86335728     -1.83722410     12.29094186
C       3.11049971     -1.61720211     13.77036110
C       8.20936647     -2.01158660     10.83691685
C       7.02397792      6.88768205      2.45036299
C       7.11784147      6.24811202      3.97847463
C      -1.11831286      7.55839574     12.92215183
C      -1.26109520      8.36738503     14.36320609
C      14.96030297     -1.46989511      2.65605291
C      16.42577727     -1.01147570      1.81441776
C      17.42629011     -0.97709702      0.36606254
C      19.13710955     -0.87672578      0.02627675
C      13.43716283     -1.17862751      3.19021251
C      12.02462042     -1.16387924      3.91954543
H      19.59272232     -0.97245974     -1.12957224
H      -2.02490167     -1.99549528      0.48566330
H       5.99624567     -0.79827021     12.72832114
H       2.83717929     -0.61586204     14.39607748
H       6.22757511     -1.43690831      9.76276086
H       8.96704089     -1.06588088     10.81624819
H       3.27151427     -1.07428530     11.50893719
H       7.50721388      7.89921049      1.99963389
H      -0.27910308      9.05211246     14.66202832
H       6.60345553      7.05015946      4.75521193
H      15.18167992     -1.40377675      3.86989337
H      -0.96255224      7.98490854     11.80129344
H      16.28022563      0.20803280      2.00439227
H      16.98758101     -0.06000367     -0.35315689
H      10.99889560     -1.09188911      4.46809292
H      19.82554848      0.12294759      0.29149646
H      -2.23052063      9.12822081     14.42504280
