   94

C      -8.28641198     -5.21853503     -5.51129554
C      -7.15061863     -5.74068368     -4.50155146
H      -9.11524698     -4.83686190     -6.24907467
C      -9.80859784     -1.13990614      5.99666389
H     -18.89185999     -7.18329685     -1.80818867
H      -6.60535281     -4.80292263     -3.92672986
C      10.03479860     -5.13379435      7.47149902
H      -7.62554618     -6.48004941     -3.64428071
H      -7.29857073     -5.75426489    -16.93041859
H      -7.29085954     -6.52365889    -16.80245992
C       6.72453409      0.95769595      9.72550155
H       5.54242025      1.27080984      9.57818184
C       9.95931910     -5.92312916      6.14250635
H       6.56936687     -0.26856639      9.79213555
H      10.16643707     -5.03477619      5.35927846
H       1.55471582     -5.76579775     10.80100652
C       9.72243830     -7.54509354      5.97126738
H       8.71168449     -7.74507844      5.29122318
C       6.85020902      0.32707269     -3.62709585
H       9.24453407     -8.08142739      6.97498706
H       6.67918489      0.28919195     -4.84720518
H       7.18408322      1.49986463     -3.44944290
C       5.45550362     -0.14650936     -2.75624760
H       5.47125157     -1.30369150     -2.31560005
C       8.24122760     11.02644941    -16.67267276
H       4.49657668     -0.43473628     -3.48844473
H       7.59522090     11.83457643    -17.13205111
H      -0.88872725     13.61793246     12.14185689
C      12.37234461     -6.91729667    -13.67192055
H     -10.77510614     -0.82944631      5.44088593
H     -19.27118577     -7.16726916     -1.12682601
C      -9.29621238      4.95889644    -10.51509883
H     -10.79913078     -1.00711739      5.41303261
C       0.51886375     -5.59279049     11.40380652
H     -10.39618508      4.89733540    -10.25491754
H      -1.56612923     -6.59940550     11.41111989
H       0.38978094     -4.38882498     11.39489113
C       4.83128195      0.80777199     -1.53369122
H      -0.15263502      6.40628954      1.76825191
C      -0.95341518      6.40430528      2.70359553
H       3.87922307      1.55743617     -1.49094938
H      -0.85329757      7.45853384      3.33184666
H      -0.70945243      5.45649540      3.45076342
H      -2.09827403      6.29590465      2.26351763
H      11.94284700     -5.83658463    -13.37948360
H      12.89496904     -7.08642857    -14.73783995
H      12.27921780     -7.82887681    -12.89843808
H       8.35148854      2.16008375     13.16104838
H       6.24772417      4.45068484     13.01994331
H      -0.72621874     -7.84438439     12.27994258
H       8.84601084      1.31789655     10.73503530
H      -8.70101793     -4.16259184     22.46177845
H       6.51496950      7.26389535     11.35633315
H      -2.34996224     13.47531322     24.25258876
H       8.85215060      5.78360563     13.42513062
H      10.18379770     -0.66805310     -5.16251434
H      -2.64577676     12.68558867     11.84774575
H      18.55725102      0.44639989     -4.90682997
H       1.39558771      1.59097033    -13.44444704
H      11.23595082     -9.19036281      4.61477468
H      28.96170537     -1.67491366      0.07171208
H       9.25544992      5.35760710     11.66312437
C      -8.48942718     -1.43853912      6.76470153
C      -0.55223310     -6.64061067     12.11186568
C       7.48001832      2.49660037     12.35291955
C       7.32836405      4.16387841     12.53028104
C       7.68002019      1.62772229     10.92875280
C       7.59684941      6.98565504     11.81753057
C       8.25730261      5.55426653     12.36217889
C      -2.09086188     13.78156446     11.93157630
C      -1.83061114     14.43964326     23.85948924
C       9.87353138     -0.76632583     -3.97682155
C      18.58308924      0.95460257     -5.98361498
C      19.24340179      0.17749687     -7.13707198
C      28.88118573     -0.51898012     -0.03560767
C       8.35411546     -0.29672972     -3.65430810
C      11.08429152     -8.34372683      5.46305994
H      10.75696117     -0.12059497     -3.41986561
H      -6.28296660     -6.37016902     -5.09993142
H      -7.50515124     -1.66124492      7.33775761
H      -8.57271924     -3.49036836     22.83601772
H      -0.41005966     -6.49393606     13.32832941
H       7.09422898      1.20487213      8.57369600
H       6.56850340      1.91687225     12.94941501
H       8.02165889      8.11779392     11.75079531
H      -1.31126005     15.40397331     23.46638973
H       5.17771685      0.97443488     -0.38601056
H      10.03073710     -1.93649337     -3.64742100
H      -2.24273094     14.40017674     10.87783266
H      18.12735632      2.02946124     -6.21899519
H       1.33584196      2.36539214    -13.51587047
H      12.23280805     -8.24494924      5.82662927
H      28.80418247      0.63796056     -0.13430945
H      -2.58621258     14.42255999     12.85886993
   94

C      -8.28783170     -5.21975554     -5.51199338
C      -7.15219099     -5.74217681     -4.50223665
H      -9.11648869     -4.83765271     -6.24974573
C      -9.81213205     -1.14045619      5.99628855
H     -18.89207243     -7.18341256     -1.80822772
H      -6.60695461     -4.80445236     -3.92733509
C      10.03590172     -5.13395546      7.47316884
H      -7.62719201     -6.48150683     -3.64498090
H      -7.29872109     -5.75439530    -16.93066100
H      -7.29100006     -6.52378681    -16.80268793
C       6.72832533      0.96291083      9.73281405
H       5.54668310      1.28056900      9.59152611
C       9.95954223     -5.92408824      6.14469877
H       6.57425390     -0.26337489      9.79944583
H      10.16239940     -5.03501826      5.36121233
H       1.55284802     -5.77427851     10.80396083
C       9.72428979     -7.54622553      5.97285601
H       8.71356339     -7.74498460      5.29247656
C       6.62441525      0.49707387     -3.57144534
H       9.24710956     -8.08319266      6.97656849
H       6.48970048      0.45980509     -4.79286758
H       6.85646895      1.70426131     -3.52582332
C       5.28547964     -0.14539366     -2.73231093
H       5.34790439     -1.32489953     -2.35780694
C       8.24131854     11.02673094    -16.67313720
H       4.34587436     -0.46716628     -3.47315178
H       7.59526935     11.83485129    -17.13246651
H      -0.88882565     13.61816218     12.14021383
C      12.37223522     -6.91727618    -13.67188868
H     -10.76030892     -0.74138158      5.45792573
H     -19.27138812     -7.16737955     -1.12685958
C      -9.29712933      4.95892197    -10.51609591
H     -10.80838862     -1.09787749      5.40150823
C       0.51774501     -5.59440836     11.40557532
H     -10.39704827      4.89735085    -10.25569160
H      -1.58054041     -6.59426561     11.43078942
H       0.40045593     -4.38937592     11.39033220
C       4.65565637      0.68927002     -1.43229410
H       0.46387090      6.16515822      1.39905563
C      -0.43141998      6.10619830      2.35211381
H       3.67779389      1.39948063     -1.35435238
H      -0.38264380      7.14930485      3.00210358
H      -0.25305432      5.19273794      3.15614243
H      -1.57883653      6.00879184      1.91796157
H      11.94270080     -5.83655989    -13.37952555
H      12.89488761     -7.08642337    -14.73779121
H      12.27909454     -7.82882711    -12.89837460
H       8.34991974      2.15375991     13.17372648
H       6.24089123      4.44671700     13.00924243
H      -0.69539189     -7.85104254     12.26266444
H       8.85500006      1.33516244     10.73230487
H      -8.70106141     -4.16261431     22.46186693
H       6.52022604      7.26087761     11.35004955
H      -2.34989152     13.47552255     24.25615360
H       8.85239673      5.77580392     13.42375896
H      10.02046411     -0.41672871     -4.89588020
H      -2.64579062     12.68566967     11.84590988
H      18.56309784      0.44804110     -4.90833715
H       1.39462573      1.59097531    -13.44684794
H      11.23642213     -9.18985875      4.61307976
H      28.96292652     -1.67508984      0.07224788
H       9.25343988      5.35111904     11.65971734
C      -8.49491563     -1.43913935      6.76370960
C      -0.55507494     -6.63992960     12.11424495
C       7.48252313      2.49220339     12.36198036
C       7.32646243      4.15963000     12.53090289
C       7.68690646      1.63220102     10.93351858
C       7.59947560      6.98148144     11.81666443
C       8.25687923      5.54859458     12.36084424
C      -2.09094887     13.78167885     11.92977926
C      -1.83054048     14.43985263     23.86305403
C       9.67257991     -0.49339650     -3.72068159
C      18.58777728      0.95588903     -5.98532112
C      19.24593657      0.17763329     -7.13922916
C      28.88260828     -0.51910006     -0.03461906
C       8.16578667      0.01051247     -3.41655202
C      11.08533844     -8.34608680      5.46436979
H      10.57521362      0.13798406     -3.18551337
H      -6.28448549     -6.37162414     -5.10057165
H      -7.51038678     -1.66223802      7.33736674
H      -8.57276012     -3.49038849     22.83610114
H      -0.43352536     -6.48948461     13.33247594
H       7.09301628      1.20790045      8.57902925
H       6.57502069      1.90875926     12.96109290
H       8.02491556      8.11368543     11.75557431
H      -1.31118937     15.40418284     23.46995487
H       5.03211992      0.82708407     -0.28961331
H       9.85132437     -1.65535790     -3.37904593
H      -2.24277792     14.40029596     10.87603323
H      18.13287619      2.03109433     -6.22074230
H       1.33494865      2.36540799    -13.51821305
H      12.23326141     -8.25196058      5.83102481
H      28.80543787      0.63779175     -0.13376572
H      -2.58643775     14.42263759     12.85702407
   94

C      -8.28921909     -5.22078913     -5.51257335
C      -7.15373516     -5.74347106     -4.50279394
H      -9.11769112     -4.83827936     -6.25031741
C      -9.81712014     -1.13988564      5.99447935
H     -18.89224313     -7.18349483     -1.80825221
H      -6.60853828     -4.80577711     -3.92781263
C      10.03704939     -5.13417714      7.47474563
H      -7.62881385     -6.48276906     -3.64555865
H      -7.29886621     -5.75451185    -16.93088336
H      -7.29113617     -6.52390126    -16.80289814
C       6.73152267      0.96835154      9.74005481
H       5.55042305      1.29060933      9.60469224
C       9.95986419     -5.92510826      6.14679665
H       6.57852507     -0.25795425      9.80669005
H      10.15859775     -5.03536387      5.36306303
H       1.55084670     -5.78222658     10.80674949
C       9.72623059     -7.54740747      5.97428032
H       8.71553706     -7.74491943      5.29355460
C       6.41676586      0.65626684     -3.50884196
H       9.24976469     -8.08501907      6.97797304
H       6.32258137      0.60559679     -4.73149280
H       6.50690693      1.87837224     -3.61330551
C       5.14078102     -0.15958191     -2.72456281
H       5.25899382     -1.35690898     -2.42519874
C       8.24141407     11.02697862    -16.67357782
H       4.22744433     -0.51473021     -3.48094137
H       7.59532464     11.83509456    -17.13285744
H      -0.88890638     13.61818170     12.13829921
C      12.37212681     -6.91712909    -13.67166316
H     -10.74482713     -0.67104932      5.47344632
H     -19.27154973     -7.16745772     -1.12687910
C      -9.29790291      4.95898863    -10.51681770
H     -10.81233366     -1.17139072      5.39412145
C       0.51650655     -5.59569027     11.40718816
H     -10.39777585      4.89740150    -10.25622515
H      -1.59446928     -6.58959055     11.45013613
H       0.41079376     -4.38975843     11.38566445
C       4.50066077      0.53680385     -1.35238217
H       1.07125871      5.97446292      1.04936115
C       0.08376226      5.82029050      2.00980086
H       3.48260913      1.18075649     -1.24237720
H       0.07040386      6.84855308      2.68462715
H       0.19736932      4.94257485      2.86296851
H      -1.06695398      5.73087923      1.58202318
H      11.94259535     -5.83641004    -13.37930639
H      12.89477058     -7.08629285    -14.73756722
H      12.27898552     -7.82866452    -12.89813080
H       8.34797070      2.14764512     13.18614163
H       6.23366430      4.44279199     12.99815946
H      -0.66540191     -7.85614567     12.24564012
H       8.86333816      1.35253514     10.72958430
H      -8.70109509     -4.16262593     22.46192936
H       6.52491437      7.25783983     11.34331239
H      -2.34981957     13.47572589     24.25970015
H       8.85214760      5.76820881     13.42214737
H       9.82606565     -0.15741343     -4.61900901
H      -2.64582799     12.68561388     11.84389658
H      18.56641281      0.44865136     -4.90976309
H       1.39383495      1.59089080    -13.44920913
H      11.23700317     -9.18926676      4.61108309
H      28.96409986     -1.67527352      0.07276053
H       9.25097807      5.34480824     11.65610726
C      -8.50116272     -1.43858889      6.76148418
C      -0.55792016     -6.63909891     12.11643958
C       7.48463566      2.48800753     12.37082767
C       7.32412463      4.15552921     12.53130540
C       7.69331816      1.63681965     10.93816496
C       7.60147076      6.97735513     11.81545944
C       8.25598310      5.54308515     12.35927094
C      -2.09102364     13.78164001     11.92778612
C      -1.83046872     14.44005571     23.86659966
C       9.44789956     -0.19761032     -3.45168898
C      18.59034200      0.95631271     -5.98685051
C      19.24712137      0.17734650     -7.14104834
C      28.88398136     -0.51922808     -0.03365560
C       7.98340712      0.42051401     -3.12922544
C      11.08646919     -8.34846359      5.46545548
H      10.40021830      0.38793643     -2.95519841
H      -6.28598881     -6.37289268     -5.10108938
H      -7.51627945     -1.66194153      7.33567750
H      -8.57279151     -3.49039833     22.83615958
H      -0.45656887     -6.48549546     13.33612522
H       7.09127274      1.21109188      8.58432611
H       6.58114041      1.90091803     12.97256053
H       8.02747344      8.10961938     11.75998518
H      -1.31111773     15.40438582     23.47350004
H       4.88969890      0.63922488     -0.20944708
H       9.63301495     -1.35544111     -3.10148336
H      -2.24283438     14.40026367     10.87404167
H      18.13618734      2.03181933     -6.22232732
H       1.33419138      2.36533023    -13.52053112
H      12.23378356     -8.25898870      5.83515695
H      28.80664408      0.63761456     -0.13324762
H      -2.58658035     14.42257937     12.85500763
   94

C      -8.29046117     -5.22155798     -5.51301060
C      -7.15512755     -5.74447226     -4.50320126
H      -9.11876050     -4.83870169     -6.25076291
C      -9.82394564     -1.13832257      5.99103420
H     -18.89236651     -7.18354361     -1.80826470
H      -6.60996889     -4.80680230     -3.92815156
C      10.03823287     -5.13426552      7.47599285
H      -7.63028946     -6.48374142     -3.64599189
H      -7.29900152     -5.75460741    -16.93107502
H      -7.29126429     -6.52399533    -16.80308117
C       6.73384756      0.97424508      9.74691277
H       5.55337481      1.30120371      9.61733183
C       9.96027926     -5.92601015      6.14857051
H       6.58186433     -0.25207792      9.81350633
H      10.15498428     -5.03565132      5.36456548
H       1.54872556     -5.78964722     10.80931709
C       9.72826018     -7.54847710      5.97543665
H       8.71760369     -7.74476337      5.29436788
C       6.23023744      0.80346504     -3.43912610
H       9.25251532     -8.08672619      6.97911543
H       6.16010167      0.74599650     -4.66329480
H       6.17455387      2.00665000     -3.69029475
C       5.02769363     -0.17994687     -2.72556054
H       5.21363358     -1.38701051     -2.50687187
C       8.24150633     11.02717906    -16.67396738
H       4.14798539     -0.57193122     -3.50295771
H       7.59538216     11.83529298    -17.13320118
H      -0.88897381     13.61807712     12.13622645
C      12.37206605     -6.91692551    -13.67136949
H     -10.72467665     -0.59242522      5.49185134
H     -19.27166563     -7.16750378     -1.12688750
C      -9.29846128      4.95907255    -10.51723562
H     -10.81402386     -1.25416022      5.38707398
C       0.51516657     -5.59662072     11.40859736
H     -10.39830110      4.89746721    -10.25650988
H      -1.60792028     -6.58530022     11.46911140
H       0.42082372     -4.38994836     11.38080798
C       4.36541853      0.36033083     -1.29537379
H       1.67670272      5.82985292      0.72073103
C       0.60108272      5.54679839      1.67388557
H       3.29048487      0.89488422     -1.15627870
H       0.51517547      6.55693265      2.37255469
H       0.64572768      4.70625402      2.57066105
H      -0.55335603      5.46358871      1.25074275
H      11.94256570     -5.83620278    -13.37897920
H      12.89467626     -7.08610498    -14.73728782
H      12.27893425     -7.82845768    -12.89783152
H       8.34556745      2.14168136     13.19807191
H       6.22600766      4.43889775     12.98659258
H      -0.63621880     -7.85978736     12.22884451
H       8.87080034      1.37001081     10.72660016
H      -8.70111865     -4.16262851     22.46196643
H       6.52905612      7.25474631     11.33594436
H      -2.34974685     13.47592399     24.26323623
H       8.85136886      5.76078232     13.42021733
H       9.60482636      0.11527177     -4.32549243
H      -2.64587746     12.68548014     11.84178240
H      18.56667943      0.44847442     -4.91076462
H       1.39320450      1.59076487    -13.45136358
H      11.23768947     -9.18846993      4.60872728
H      28.96519519     -1.67546079      0.07324872
H       9.24804417      5.33864109     11.65221821
C      -8.50854473     -1.43705401      6.75783920
C      -0.56075519     -6.63810099     12.11841813
C       7.48626453      2.48399675     12.37927404
C       7.32130548      4.15155844     12.53137840
C       7.69904131      1.64163284     10.94243664
C       7.60282176      6.97325210     11.81381916
C       8.25458823      5.53771106     12.35737372
C      -2.09108873     13.78151308     11.92568329
C      -1.83039631     14.44025351     23.87013458
C       9.18897901      0.12293273     -3.16856140
C      18.59039776      0.95610165     -5.98786773
C      19.24673420      0.17692680     -7.14215683
C      28.88527254     -0.51936047     -0.03271850
C       7.76552670      0.86901547     -2.85061456
C      11.08767996     -8.35070763      5.46622534
H      10.19416763      0.65092802     -2.71380939
H      -6.28735926     -6.37388653     -5.10146574
H      -7.52319756     -1.66054800      7.33249081
H      -8.57281319     -3.49039967     22.83619377
H      -0.47917217     -6.48187054     13.33926455
H       7.08872260      1.21470092      8.58927898
H       6.58677962      1.89332607     12.98363726
H       8.02931722      8.10557376     11.76395307
H      -1.31104560     15.40458351     23.47703434
H       4.74630197      0.40610796     -0.14517636
H       9.38732144     -1.03130740     -2.80917570
H      -2.24289495     14.40014497     10.87194323
H      18.13674894      2.03180133     -6.22341399
H       1.33357269      2.36520911    -13.52264502
H      12.23436583     -8.26588881      5.83894902
H      28.80776685      0.63743246     -0.13275728
H      -2.58666810     14.42244379     12.85289834
   94

C      -8.29149477     -5.22203299     -5.51330850
C      -7.15630034     -5.74514491     -4.50346381
H      -9.11964544     -4.83890946     -6.25108230
C      -9.83272544     -1.13597746      5.98597512
H     -18.89244306     -7.18356205     -1.80826743
H      -6.61117579     -4.80749070     -3.92836263
C      10.03940897     -5.13397373      7.47664916
H      -7.63155001     -6.48438783     -3.64628472
H      -7.29911615     -5.75467561    -16.93122469
H      -7.29137426     -6.52406275    -16.80322642
C       6.73519545      0.98074521      9.75305239
H       5.55544257      1.31253501      9.62908809
C       9.96073581     -5.92657039      6.14977202
H       6.58413770     -0.24559343      9.81950483
H      10.15141117     -5.03566656      5.36543335
H       1.54651566     -5.79657879     10.81163150
C       9.73033763     -7.54922969      5.97622046
H       8.71972359     -7.74435599      5.29482208
C       6.03790192      0.94342523     -3.36478652
H       9.25533177     -8.08807761      6.97991459
H       5.98896085      0.88235379     -4.59139015
H       5.89066924      2.10152243     -3.75312813
C       4.92830292     -0.19682168     -2.72583433
H       5.19115862     -1.40315372     -2.59111051
C       8.24158820     11.02731963    -16.67428044
H       4.08994154     -0.62562733     -3.52941794
H       7.59543787     11.83543399    -17.13347644
H      -0.88902951     13.61788345     12.13403903
C      12.37205747     -6.91672446    -13.67110044
H     -10.70107727     -0.51432056      5.51182879
H     -19.27173657     -7.16752079     -1.12688715
C      -9.29876844      4.95915652    -10.51735840
H     -10.81230140     -1.33754259      5.38178478
C       0.51376141     -5.59721764     11.40977887
H     -10.39859070      4.89753414    -10.25656463
H      -1.62088820     -6.58134098     11.48769487
H       0.43060113     -4.38995542     11.37572115
C       4.24388474      0.17966346     -1.25434736
H       2.28824393      5.68801043      0.40893552
C       1.12592257      5.27921772      1.34235529
H       3.11373307      0.57297922     -1.08781091
H       0.97081134      6.27452163      2.05305243
H       1.09468625      4.48064388      2.27938163
H      -0.03234602      5.20664733      0.92109942
H      11.94259887     -5.83599832    -13.37865914
H      12.89462518     -7.08591585    -14.73703821
H      12.27894047     -7.82826301    -12.89756736
H       8.34269762      2.13578275     13.20928426
H       6.21796291      4.43499484     12.97447361
H      -0.60779999     -7.86207543     12.21226829
H       8.87728583      1.38758364     10.72308043
H      -8.70113221     -4.16262383     22.46198075
H       6.53272711      7.25157426     11.32785637
H      -2.34967344     13.47611694     24.26676210
H       8.85009474      5.75345641     13.41790064
H       9.37255390      0.40615659     -4.01513825
H      -2.64592776     12.68528380     11.83958478
H      18.56442279      0.44794912     -4.91120294
H       1.39277004      1.59062704    -13.45309674
H      11.23843674     -9.18736591      4.60602770
H      28.96620698     -1.67564564      0.07371816
H       9.24467699      5.33257402     11.64797665
C      -8.51721630     -1.43473711      6.75281549
C      -0.56355510     -6.63694238     12.12017014
C       7.48738839      2.48013183     12.38711285
C       7.31802591      4.14767777     12.53101269
C       7.70397699      1.64667360     10.94606713
C       7.60358598      6.96914387     11.81168398
C       8.25273187      5.53242723     12.35507804
C      -2.09114445     13.78131871     11.92349581
C      -1.83032336     14.44044622     23.87365928
C       8.90549002      0.45781726     -2.87658351
C      18.58838610      0.95564234     -5.98826422
C      19.24507337      0.17666638     -7.14247433
C      28.88647425     -0.51949133     -0.03180205
C       7.48390069      1.26574477     -2.60511704
C      11.08893021     -8.35264675      5.46662615
H       9.93826075      0.95406673     -2.44958601
H      -6.28852929     -6.37456983     -5.10170677
H      -7.53130566     -1.65829812      7.32785125
H      -8.57282530     -3.49039420     22.83620619
H      -0.50131671     -6.47854389     13.34190131
H       7.08526762      1.21891909      8.59355949
H       6.59192065      1.88592834     12.99410677
H       8.03050813      8.10151937     11.76743327
H      -1.31097306     15.40477620     23.48055848
H       4.61634880      0.14657646     -0.09973440
H       9.13825699     -0.68681755     -2.50012711
H      -2.24295261     14.39995662     10.86975958
H      18.13489957      2.03138992     -6.22387983
H       1.33313379      2.36507450    -13.52434067
H      12.23495794     -8.27250408      5.84238007
H      28.80879643      0.63725120     -0.13228898
H      -2.58671889     14.42224746     12.85071476
   94

C      -8.29220365     -5.22218782     -5.51345256
C      -7.15711873     -5.74543792     -4.50357174
H      -9.12025315     -4.83890903     -6.25125311
C      -9.84375236     -1.13298743      5.97924865
H     -18.89247126     -7.18355432     -1.80826260
H      -6.61200989     -4.80779507     -3.92844207
C      10.04048898     -5.13310923      7.47655690
H      -7.63245892     -6.48465951     -3.64642770
H      -7.29919766     -5.75471096    -16.93131830
H      -7.29145396     -6.52409807    -16.80331985
C       6.73561488      0.98794212      9.75818100
H       5.55667433      1.32469546      9.63967643
C       9.96113069     -5.92660493      6.15024910
H       6.58538489     -0.23841358      9.82433862
H      10.14766757     -5.03521846      5.36549578
H       1.54425515     -5.80307157     10.81361813
C       9.73236614     -7.54949312      5.97656812
H       8.72180168     -7.74353750      5.29485283
C       5.83210867      1.07353221     -3.29098982
H       9.25811196     -8.08887598      6.98031904
H       5.81268642      1.00260069     -4.51980098
H       5.66640064      2.17392869     -3.81533636
C       4.83379504     -0.20486277     -2.71965601
H       5.18152574     -1.39731911     -2.66520302
C       8.24165177     11.02739156    -16.67448294
H       4.04288253     -0.67106000     -3.55037123
H       7.59548633     11.83550817    -17.13365389
H      -0.88907693     13.61764309     12.13178435
C      12.37209748     -6.91659102    -13.67093781
H     -10.67389381     -0.43684589      5.53358026
H     -19.27176150     -7.16751288     -1.12688051
C      -9.29881907      4.95922470    -10.51722505
H     -10.80703748     -1.42171593      5.37839242
C       0.51234247     -5.59751202     11.41067964
H     -10.39863995      4.89758938    -10.25642987
H      -1.63335755     -6.57766778     11.50584827
H       0.44020070     -4.38980328     11.37034130
C       4.13481346      0.00917859     -1.22239077
H       2.90381730      5.51883937      0.11039537
C       1.65232175      5.00815743      1.01762596
H       2.97065578      0.27344513     -1.03582388
H       1.44233587      5.99665496      1.72598056
H       1.54280704      4.25888142      1.99117539
H       0.49007312      4.95480780      0.59751667
H      11.94267600     -5.83586203    -13.37845097
H      12.89462866     -7.08578512    -14.73689334
H      12.27899533     -7.82814185    -12.89741687
H       8.33940498      2.12986673     13.21958639
H       6.20962779      4.43103968     12.96177062
H      -0.58008489     -7.86311060     12.19587228
H       8.88281235      1.40526775     10.71880276
H      -8.70113593     -4.16261486     22.46197570
H       6.53604199      7.24831435     11.31900508
H      -2.34959897     13.47630616     24.27028149
H       8.84841040      5.74616336     13.41513202
H       9.12516238      0.70469817     -3.69584582
H      -2.64597860     12.68505801     11.83734265
H      18.56067627      0.44742162     -4.91117704
H       1.39254440      1.59050759    -13.45423409
H      11.23915159     -9.18589582      4.60306442
H      28.96715167     -1.67582362      0.07417741
H       9.24095271      5.32656807     11.64330498
C      -8.52746186     -1.43181358      6.74641227
C      -0.56628412     -6.63563119     12.12166214
C       7.48804907      2.47636870     12.39416739
C       7.31435843      4.14384437     12.53011785
C       7.70813604      1.65196250     10.94883464
C       7.60387024      6.96500712     11.80900838
C       8.25049545      5.52718943     12.35231593
C      -2.09119347     13.78109162     11.92126041
C      -1.83024945     14.44063523     23.87717749
C       8.59751509      0.79144206     -2.58401013
C      18.58514176      0.95522715     -5.98817091
C      19.24267290      0.17669749     -7.14219877
C      28.88760184     -0.51961621     -0.03089720
C       7.14387366      1.59636248     -2.37467828
C      11.09012937     -8.35414783      5.46666766
H       9.63930340      1.28041592     -2.17238780
H      -6.28935993     -6.37488889     -5.10180030
H      -7.54090096     -1.65541151      7.32177060
H      -8.57282818     -3.49038493     22.83620031
H      -0.52297969     -6.47546172     13.34401879
H       7.08094594      1.22389981      8.59688256
H       6.59660686      1.87865901     13.00377357
H       8.03116179      8.09742952     11.77038250
H      -1.31089970     15.40496523     23.48407610
H       4.51289864     -0.10017654     -0.07271571
H       8.87641064     -0.33631030     -2.18224881
H      -2.24300659     14.39973121     10.86752578
H      18.13147041      2.03088353     -6.22383155
H       1.33289506      2.36495733    -13.52544296
H      12.23545755     -8.27872859      5.84550067
H      28.80974615      0.63707515     -0.13183350
H      -2.58674641     14.42202330     12.84848892
   94

C      -8.29238392     -5.22199021     -5.51340236
C      -7.15734390     -5.74527447     -4.50349480
H      -9.12042233     -4.83872246     -6.25121785
C      -9.85741624     -1.12942915      5.97075983
H     -18.89244579     -7.18352518     -1.80825269
H      -6.61221013     -4.80764596     -3.92836671
C      10.04132301     -5.13151130      7.47562798
H      -7.63277225     -6.48448353     -3.64638996
H      -7.29922950     -5.75470685    -16.93133512
H      -7.29148706     -6.52409459    -16.80334036
C       6.73532997      0.99587823      9.76195046
H       5.55727981      1.33769541      9.64881265
C       9.96129448     -5.92595882      6.14991830
H       6.58583832     -0.23049961      9.82763132
H      10.14345389     -5.03412532      5.36467080
H       1.54198256     -5.80918563     10.81516866
C       9.73418593     -7.54911966      5.97643442
H       8.72368112     -7.74215021      5.29440520
C       5.62466247      1.18988557     -3.22367745
H       9.26067638     -8.08895446      6.98028583
H       5.62816286      1.11105174     -4.45352237
H       5.50403764      2.22999574     -3.86997007
C       4.74799193     -0.20160478     -2.70452838
H       5.18308764     -1.36740147     -2.71360667
C       8.24168249     11.02738415    -16.67452036
H       4.00936701     -0.71069039     -3.55795513
H       7.59551649     11.83550359    -17.13368593
H      -0.88913320     13.61742779     12.12955073
C      12.37219453     -6.91660093    -13.67097234
H     -10.64293416     -0.36012353      5.55736949
H     -19.27173603     -7.16748485     -1.12687058
C      -9.29862807      4.95925954    -10.51689769
H     -10.79803644     -1.50689429      5.37707147
C       0.51096876     -5.59754631     11.41122502
H     -10.39846293      4.89761881    -10.25616289
H      -1.64530794     -6.57424580     11.52351826
H       0.44970810     -4.38952780     11.36459640
C       4.04526852     -0.12988499     -1.19539958
H       3.50621665      5.33681817     -0.16931652
C       2.16724263      4.73033348      0.70618066
H       2.86644122      0.04708421     -0.99847403
H       1.91067449      5.71505062      1.40631071
H       1.98301231      4.03294142      1.70877299
H       1.00153499      4.70022453      0.28655046
H      11.94279465     -5.83586889    -13.37846582
H      12.89470705     -7.08578443    -14.73693848
H      12.27910246     -7.82816555    -12.89746667
H       8.33579116      2.12384521     13.22877816
H       6.20115889      4.42697121     12.94846448
H      -0.55300345     -7.86298912     12.17959183
H       8.88751018      1.42310967     10.71352150
H      -8.70113028     -4.16260575     22.46195567
H       6.53915539      7.24495760     11.30938853
H      -2.34952274     13.47649446     24.27380282
H       8.84645936      5.73881792     13.41181849
H       8.86126188      0.98608723     -3.38245345
H      -2.64604919     12.68487138     11.83514387
H      18.55668226      0.44709091     -4.91094001
H       1.39253157      1.59045214    -13.45457503
H      11.23968932     -9.18403364      4.59995832
H      28.96806318     -1.67599202      0.07463716
H       9.23698374      5.32057318     11.63808310
C      -8.53961826     -1.42843059      6.73861535
C      -0.56890158     -6.63417983     12.12284160
C       7.48835358      2.47264648     12.40024033
C       7.31042646      4.13999960     12.52858725
C       7.71163498      1.65751434     10.95049672
C       7.60383837      6.96080943     11.80574269
C       8.24801000      5.52193681     12.34899674
C      -2.09125219     13.78089938     11.91905859
C      -1.83017381     14.44082335     23.88069765
C       8.26904675      1.10071712     -2.30430298
C      18.58168797      0.95501464     -5.98786583
C      19.24019716      0.17699961     -7.14169058
C      28.88868919     -0.51973225     -0.02999242
C       6.76950044      1.86582632     -2.16516302
C      11.09113055     -8.35510797      5.46639994
H       9.31251917      1.59037939     -1.89935393
H      -6.28960072     -6.37475908     -5.10170915
H      -7.55233404     -1.65207765      7.31425395
H      -8.57282255     -3.49037611     22.83618080
H      -0.54413555     -6.47258511     13.34557996
H       7.07593052      1.22975902      8.59889650
H       6.60094628      1.87143208     13.01241747
H       8.03145490      8.09326641     11.77274926
H      -1.31082462     15.40515336     23.48759558
H       4.43886114     -0.29400613     -0.05600841
H       8.59168129     -0.00596704     -1.87288086
H      -2.24307386     14.39953866     10.86532488
H      18.12758536      2.03048743     -6.22353178
H       1.33287352      2.36490505    -13.52574223
H      12.23570357     -8.28449347      5.84840955
H      28.81064837      0.63690715     -0.13137896
H      -2.58677360     14.42183772     12.84629951
   94

C      -8.29190629     -5.22146149     -5.51314095
C      -7.15682242     -5.74464884     -4.50322543
H      -9.12005442     -4.83839959     -6.25094159
C      -9.87419219     -1.12527416      5.96034210
H     -18.89236673     -7.18347960     -1.80823901
H      -6.61161621     -4.80704134     -3.92812849
C      10.04178023     -5.12916122      7.47393708
H      -7.63232932     -6.48385701     -3.64616158
H      -7.29919737     -5.75466073    -16.93126158
H      -7.29145907     -6.52404962    -16.80327347
C       6.73467326      1.00455283      9.76400087
H       5.55757300      1.35148791      9.65621244
C       9.96108395     -5.92462033      6.14885986
H       6.58584320     -0.22185374      9.82904186
H      10.13854118     -5.03234458      5.36306000
H       1.53972214     -5.81499092     10.81624167
C       9.73565936     -7.54809214      5.97584588
H       8.72522893     -7.74015252      5.29348992
C       5.42636993      1.29691517     -3.15768277
H       9.26286455     -8.08829243      6.97983298
H       5.42159357      1.22816723     -4.38817000
H       5.38714014      2.28125099     -3.89596990
C       4.67373819     -0.18354695     -2.67965592
H       5.19180057     -1.31437101     -2.73034742
C       8.24166810     11.02728751    -16.67434892
H       3.99251456     -0.74147426     -3.54991050
H       7.59551991     11.83540973    -17.13353516
H      -0.88920361     13.61727084     12.12738224
C      12.37232313     -6.91675482    -13.67119765
H     -10.60789209     -0.28426042      5.58350866
H     -19.27166059     -7.16744144     -1.12685887
C      -9.29824714      4.95925275    -10.51645611
H     -10.78497526     -1.59325512      5.37806014
C       0.50967694     -5.59736840     11.41139054
H     -10.39810792      4.89761596    -10.25582857
H      -1.65674036     -6.57105352     11.54069183
H       0.45919082     -4.38917104     11.35847342
C       3.97747787     -0.21809316     -1.16711661
H       4.07592147      5.16109309     -0.43665988
C       2.66241788      4.44646893      0.40939758
H       2.79367417     -0.08802849     -0.96635144
H       2.35973595      5.42435612      1.10229690
H       2.41105749      3.79737277      1.43181634
H       1.49363096      4.43718026     -0.00970506
H      11.94292429     -5.83602100    -13.37869844
H      12.89483915     -7.08591760    -14.73716483
H      12.27923421     -7.82833187    -12.89770705
H       8.33197288      2.11764322     13.23667045
H       6.19271144      4.42272363     12.93450557
H      -0.52650570     -7.86180947     12.16339263
H       8.89157958      1.44117305     10.70700531
H      -8.70111555     -4.16259849     22.46192385
H       6.54221252      7.24148295     11.29899017
H      -2.34944319     13.47668268     24.27732898
H       8.84438929      5.73133399     13.40784088
H       8.58720900      1.22656989     -3.09023249
H      -2.64614420     12.68475441     11.83302822
H      18.55343075      0.44700207     -4.91077382
H       1.39277066      1.59048491    -13.45393833
H      11.23992963     -9.18181644      4.59682485
H      28.96898037     -1.67615113      0.07510582
H       9.23288488      5.31453824     11.63216144
C      -8.55403102     -1.42462860      6.72937702
C      -0.57138949     -6.63261145     12.12369416
C       7.48843426      2.46890057     12.40512816
C       7.30635824      4.13608135     12.52628891
C       7.71465588      1.66333961     10.95081412
C       7.60365165      6.95650802     11.80181064
C       8.24541142      5.51660362     12.34500432
C      -2.09132557     13.78077259     11.91693036
C      -1.83009477     14.44101134     23.88422263
C       7.93363801      1.36404391     -2.04924979
C      18.57884651      0.95502461     -5.98764616
C      19.23817180      0.17744820     -7.14131363
C      28.88977674     -0.51983950     -0.02907843
C       6.39236944      2.08161281     -1.98407830
C      11.09180962     -8.35552786      5.46590753
H       8.98023432      1.84717745     -1.64548467
H      -6.28908155     -6.37416114     -5.10141695
H      -7.56595958     -1.64836429      7.30527708
H      -8.57280879     -3.49036974     22.83615090
H      -0.56478131     -6.46989682     13.34658489
H       7.07049940      1.23653900      8.59923078
H       6.60506725      1.86416018     13.01980689
H       8.03155900      8.08898272     11.77446142
H      -1.31074609     15.40534124     23.49111968
H       4.38971090     -0.41461746     -0.03838095
H       8.28829924      0.27669665     -1.59096593
H      -2.24315945     14.39941197     10.86319834
H      18.12422439      2.03028666     -6.22328100
H       1.33311328      2.36494186    -13.52506110
H      12.23556207     -8.28982070      5.85122099
H      28.81154387      0.63674732     -0.13091546
H      -2.58680955     14.42171972     12.84418537
   94

C      -8.29085588     -5.22069133     -5.51270887
C      -7.15564812     -5.74366765     -4.50280469
H      -9.11922367     -4.83799825     -6.25045997
C      -9.89461268     -1.12036703      5.94771707
H     -18.89224406     -7.18342020     -1.80822022
H      -6.61033685     -4.80608565     -3.92775859
C      10.04187216     -5.12620757      7.47165464
H      -7.63122175     -6.48288659     -3.64578273
H      -7.29909943     -5.75457851    -16.93110537
H      -7.29136755     -6.52396885    -16.80312566
C       6.73389724      1.01388172      9.76430840
H       5.55779896      1.36596213      9.66186907
C       9.96050124     -5.92272228      6.14723589
H       6.58565841     -0.21255743      9.82860613
H      10.13294359     -5.02999600      5.36085061
H       1.53746845     -5.82055936     10.81693539
C       9.73678529     -7.54653085      5.97487318
H       8.72644496     -7.73764688      5.29217168
C       5.23408004      1.40666582     -3.07660024
H       9.26467594     -8.08703141      6.97901951
H       5.18148955      1.37476867     -4.30612831
H       5.29230697      2.33770081     -3.88052245
C       4.60723221     -0.14647719     -2.64376438
H       5.20094358     -1.23768432     -2.72304207
C       8.24161217     11.02710577    -16.67398719
H       3.98957428     -0.75098757     -3.52970821
H       7.59550032     11.83523151    -17.13321901
H      -0.88924579     13.61710743     12.12518659
C      12.37240380     -6.91692706    -13.67144458
H     -10.56829056     -0.20939517      5.61231224
H     -19.27154424     -7.16738472     -1.12684353
C      -9.29774735      4.95921392    -10.51596338
H     -10.76735018     -1.68081357      5.38166963
C       0.50845317     -5.59702145     11.41125140
H     -10.39764097      4.89758912    -10.25546953
H      -1.66770079     -6.56808090     11.55743498
H       0.46866577     -4.38877183     11.35205501
C       3.92260852     -0.26029048     -1.13159566
H       4.62549493      4.93717193     -0.73636411
C       3.14382720      4.14383022      0.11384167
H       2.73868631     -0.14183975     -0.92858216
H       2.82170416      5.12764771      0.79042220
H       2.83028740      3.55884745      1.15974383
H       1.96854388      4.16934445     -0.29317811
H      11.94298946     -5.83619640    -13.37895758
H      12.89493820     -7.08606873    -14.73740584
H      12.27931317     -7.82851535    -12.89796795
H       8.32802153      2.11127094     13.24328523
H       6.18434750      4.41829053     12.91985957
H      -0.50058712     -7.85967130     12.14731386
H       8.89520220      1.45947597     10.69929105
H      -8.70109199     -4.16259036     22.46188015
H       6.54528320      7.23787024     11.28774072
H      -2.34935820     13.47686778     24.28085106
H       8.84225780      5.72371061     13.40314926
H       8.30206009      1.43084667     -2.81871916
H      -2.64621478     12.68463759     11.83089378
H      18.55092843      0.44707253     -4.91074762
H       1.39333758      1.59056920    -13.45225580
H      11.23987265     -9.17929690      4.59365987
H      28.96991118     -1.67630452      0.07558227
H       9.22871541      5.30845513     11.62548639
C      -8.57097991     -1.42030547      6.71858678
C      -0.57377775     -6.63095867     12.12428555
C       7.48838238      2.46511588     12.40882125
C       7.30221814      4.13207961     12.52318330
C       7.71736439      1.66941970     10.94979684
C       7.60337542      6.95208707     11.79714660
C       8.24276135      5.51117989     12.34028862
C      -2.09137128     13.78064449     11.91478173
C      -1.83001012     14.44119586     23.88774292
C       7.59624986      1.58604917     -1.81328840
C      18.57661500      0.95517146     -5.98758130
C      19.23655187      0.17793445     -7.14114174
C      28.89087504     -0.51994126     -0.02815573
C       6.02160301      2.26054661     -1.81404797
C      11.09216814     -8.35549846      5.46522610
H       8.65227558      2.04755586     -1.40905554
H      -6.28788635     -6.37319135     -5.10096070
H      -7.58205492     -1.64417057      7.29475184
H      -8.57278681     -3.49036289     22.83611005
H      -0.58496258     -6.46739901     13.34711283
H       7.06489788      1.24413200      8.59785365
H       6.60905169      1.85682650     13.02591730
H       8.03153772      8.08456271     11.77545103
H      -1.31066182     15.40552533     23.49463851
H       4.35434563     -0.47289306     -0.01229899
H       7.97060668      0.51059319     -1.33944776
H      -2.24321727     14.39928196     10.86105013
H      18.12149039      2.03023486     -6.22316590
H       1.33367646      2.36502684    -13.52336627
H      12.23503621     -8.29479836      5.85395804
H      28.81244560      0.63659251     -0.13044335
H      -2.58681593     14.42160077     12.84205169
   94

C      -8.28632556     -5.21847624     -5.51136218
C      -7.15053740     -5.74062806     -4.50161392
H      -9.11557283     -4.83708544     -6.24882395
C      -9.94931484     -1.10799089      5.91473768
H     -18.89185999     -7.18329685     -1.80818867
H      -6.60495792     -4.80307688     -3.92674748
C      10.04040973     -5.11894645      7.46517323
H      -7.62614383     -6.47991443     -3.64465130
H      -7.29857073     -5.75426489    -16.93041859
H      -7.29085954     -6.52365889    -16.80245992
C       6.73371994      1.03147854      9.75943074
H       5.55989814      1.39386719      9.66637110
C       9.95713201     -5.91704649      6.14176881
H       6.58634872     -0.19494535      9.82333480
H      10.12172780     -5.02359190      5.35455872
H       1.53351362     -5.83085622     10.81704188
C       9.73736552     -7.54166032      5.97106878
H       8.72744464     -7.73079839      5.28729799
C       4.86973771      1.72754947     -2.83046129
H       9.26630167     -8.08270524      6.97541990
H       4.80163882      1.79568636     -4.05488323
H       5.04059604      2.54568475     -3.73369440
C       4.52028629      0.05653075     -2.52975602
H       5.21745021     -0.96645803     -2.65593561
C       8.24133052     11.02659787    -16.67272651
H       4.02920994     -0.59587215     -3.45823713
H       7.59532382     11.83472489    -17.13210486
H      -0.88914472     13.61687685     12.12272325
C      12.37234461     -6.91729667    -13.67192055
H     -10.47467657     -0.06583539      5.67877578
H     -19.27118577     -7.16726916     -1.12682601
C      -9.29645936      4.95896142    -10.51503065
H     -10.71682842     -1.85742408      5.39797383
C       0.50672122     -5.59645565     11.41011981
H     -10.39643206      4.89740038    -10.25484936
H      -1.68749835     -6.56271496     11.58929553
H       0.48742234     -4.38842059     11.33894047
C       3.87675302     -0.18287143     -1.01568407
H       5.67405764      3.87265714     -1.44126971
C       3.96328662      3.31529170     -0.48154325
H       2.69590687     -0.06328757     -0.80160251
H       3.73353943      4.39339286      0.08140839
H       3.54067165      2.99435908      0.63941807
H       2.78413245      3.49645099     -0.84356901
H      11.94284700     -5.83658463    -13.37948360
H      12.89496904     -7.08642857    -14.73783995
H      12.27921780     -7.82887681    -12.89843808
H       8.31879890      2.09912369     13.25163918
H       6.17069632      4.41026966     12.89267045
H      -0.45130367     -7.85384272     12.11619842
H       8.90162650      1.49252528     10.68253738
H      -8.70101793     -4.16259184     22.46177845
H       6.54924999      7.23209961     11.26926302
H      -2.34926645     13.47707260     24.28447819
H       8.83924454      5.70924928     13.39145210
H       7.71522753      1.80543858     -2.36483388
H      -2.64619425     12.68453305     11.82861206
H      18.54992280      0.44742033     -4.91106469
H       1.39573177      1.59075688    -13.44446147
H      11.23802062     -9.17497491      4.58855267
H      28.97090236     -1.67643105      0.07609727
H       9.22121302      5.29759131     11.60952593
C      -8.61370621     -1.41036320      6.69234397
C      -0.57759903     -6.62835226     12.12454290
C       7.48774160      2.45870589     12.41082096
C       7.29452409      4.12521519     12.51245053
C       7.72232447      1.68306400     10.94243211
C       7.60316643      6.94425893     11.78621758
C       8.23856820      5.50143261     12.32859574
C      -2.09127935     13.78050884     11.91244264
C      -1.82991536     14.44140264     23.89137868
C       6.94356911      2.00756123     -1.41023713
C      18.57578614      0.95558225     -5.98787185
C      19.23607072      0.17857861     -7.14141271
C      28.89202853     -0.52001579     -0.02718812
C       5.31734196      2.68965874     -1.45603213
C      11.09143440     -8.35405626      5.46313197
H       8.04670291      2.36874692     -1.02520333
H      -6.28260564     -6.37004062     -5.09966482
H      -7.62288714     -1.63464033      7.26921031
H      -8.57271924     -3.49036836     22.83601772
H      -0.62314808     -6.46300505     13.34657281
H       7.05614522      1.25721100      8.58974112
H       6.61572788      1.84376548     13.03203424
H       8.03200671      8.07655684     11.77352867
H      -1.31056426     15.40573269     23.49827917
H       4.35949355     -0.38409433      0.08659683
H       7.32749767      0.92774185     -0.94212348
H      -2.24314842     14.39912108     10.85869898
H      18.12008332      2.03042956     -6.22335101
H       1.33598602      2.36517869    -13.51588489
H      12.23309733     -8.30075597      5.85646076
H      28.81337808      0.63646345     -0.12992607
H      -2.58663002     14.42150435     12.83973628
