   94

C      -9.75561445     -1.64884042     -3.71935278
C      -8.28602464     -2.05648443     -2.92401046
H      -9.55818517     -0.96339711     -4.74337105
C     -11.07293115     -1.02388920     -2.80405227
H     -10.10481031     -2.56596129     -4.48906867
H      -7.56922880     -1.08792617     -2.62804976
C      -0.19341317     -1.70242202     -1.26599688
H      -8.35019738     -2.83101861     -1.95904663
H      -5.83149183     -4.70305512    -13.95103974
H      -5.82378064     -5.47244912    -13.82308107
C       0.93958963     -1.42909229     -2.32212343
H       0.16327306     -0.99920811     -3.18075696
C       2.36172885     -0.58137810     -1.87922316
H       0.97559425     -2.59343405     -2.73067182
H       2.34262161      0.50705414     -2.48169890
H       3.22407392     -0.96692916     -2.69359494
C       3.00575449     -0.39484895     -0.27217857
H       4.25100338     -0.33704502     -0.32708361
C       2.47774993      0.71629893      0.96889012
H       3.21205467     -1.53739753      0.17001234
H       1.96079132      1.70496103      0.42802830
H       3.35235568      1.57821526      1.18420260
C       1.68391534      0.33166644      2.48062795
H       2.37644746      0.71314518      3.44336678
C       3.18964520      3.55919449    -10.57476222
H       2.02338386     -0.78020465      2.92477145
H       2.54363838      4.36732196    -11.03414092
H       0.48554135      9.62602215     12.25078141
C      11.20979782     -4.55356762     -9.44258479
H     -10.98105034      0.10224616     -2.29189199
H     -11.49060704     -1.64754610     -1.81755207
C     -21.28676211     -1.46699077     -2.29644391
H     -12.19181208     -0.85321011     -3.30821684
C      -8.02604159      0.03007679     10.36005092
H     -21.96497884     -2.35200931     -2.29991794
H      -8.08599946      0.90417613      9.59419152
H      -7.96597244     -0.84377905     11.12617943
C      -0.00946377      0.56988630      2.81539666
H      -0.49767110      1.36686892      1.99670279
C      -0.83099502      1.01130917      4.27189759
H      -0.59873076     -0.43589993      2.37542048
H      -0.56910537      2.08133857      4.84355877
H      -0.79134636      0.28180257      5.27460838
H      -2.06618933      1.15459363      4.29264502
H      10.78038563     -3.47282103     -9.15015010
H      11.73239316     -4.72274738    -10.50851087
H      11.11661468     -5.46513444     -8.66909341
H       4.46227252     -3.45177744     17.30022740
H       1.67116909     -3.91378547     19.31396788
H      12.08920534     -4.90537066     10.85316351
H      15.05395673     -4.76129252     11.29244838
H      -8.15060748     -4.13466397     22.23418244
H       8.59082486      8.66443840      0.98123329
H      -1.22752359     10.00974931     14.99585473
H      10.32193897      8.34594168      4.04415163
H      15.73523940     -2.50917575      0.60580318
H      -1.19265089      8.77759560     12.29356301
H      18.35201954     -0.66624843      1.54182262
H      17.76167520     -1.74108044     -1.57176269
H      12.56549052     -1.61192637      2.68116686
H      20.62891707     -1.49081381     -0.81877342
H       8.88128837      7.18966205      3.60245371
C      12.03199689     -3.19755441     12.38732266
C      12.64403761     -3.82323694     11.03764090
C       3.31170908     -3.13068763     17.27081417
C       2.34348886     -3.56555593     18.42799818
C      14.29587394     -3.84330686     11.08935966
C       9.18833265      9.01973075      1.97041339
C       9.21677020      8.37155021      3.49702694
C      -0.69736828      9.89369614     12.50583756
C      -1.06480955     10.68920352     13.97220458
C      16.17151341     -1.57118906      1.27536016
C      17.47707993     -0.63369967      0.66036420
C      18.16668481     -0.75510353     -0.93017175
C      19.85399201     -0.63710103     -1.27908656
C      14.72175217     -0.99676554      1.70923778
C      13.27141268     -0.73203964      2.27948594
H      20.31201333     -0.68636513     -2.43127938
H      -7.32723646     -2.72685079     -3.32458007
H      11.63185306     -2.72467278     13.38380043
H      -8.02230878     -3.46244048     22.60842171
H      12.15780372     -3.23174653     10.07470679
H      15.08154330     -2.93547845     10.95420539
H       2.94731158     -2.47749786     16.33839900
H       9.75455319      9.99070920      1.52452152
H      -0.25694009     11.51524514     14.42057049
H       8.47749427      8.95422929      4.29523458
H      16.39915760     -2.24011359      2.28888566
H      -0.99997697     10.44442049     11.43756789
H      17.28229801      0.56199864      0.94667615
H      17.51303996     -0.04121215     -1.71750326
H      12.78392726      0.35382879      2.36678881
H      20.47492851      0.39745732     -0.98976157
H      -2.09483358     11.37554563     14.03588920
   94

C      -9.76929697     -1.65154945     -3.72454778
C      -8.29928587     -2.05862228     -2.92968321
H      -9.57091301     -0.96626931     -4.74850752
C     -11.08724620     -1.02616036     -2.81055729
H     -10.11968222     -2.56941826     -4.49286634
H      -7.58215078     -1.09218301     -2.62775042
C      -0.18856656     -1.70293488     -1.26221741
H      -8.36059754     -2.82986885     -1.96185916
H      -5.83100377     -4.70365223    -13.95286798
H      -5.82329080     -5.47304621    -13.82490924
C       0.94510547     -1.42993801     -2.31769753
H       0.16779780     -1.00056930     -3.17560952
C       2.36702803     -0.58127994     -1.87614139
H       0.98267631     -2.59479421     -2.72460005
H       2.34814593      0.50729250     -2.47834882
H       3.22968593     -0.96357345     -2.69170097
C       3.00997927     -0.39729767     -0.26853893
H       4.25549490     -0.34358573     -0.32082237
C       2.48241176      0.71546345      0.97104843
H       3.21304425     -1.54047486      0.17350805
H       1.96605426      1.70463142      0.43051095
H       3.35735174      1.57721538      1.18557392
C       1.68790099      0.33078248      2.48217184
H       2.38051602      0.71352331      3.44429546
C       3.17894916      3.57018765    -10.57643616
H       2.02744409     -0.78041814      2.92794881
H       2.53306276      4.37841911    -11.03579547
H       0.48549318      9.62529631     12.25127721
C      11.14835611     -4.59270532     -9.48717216
H     -10.99455265      0.10001695     -2.29865539
H     -11.50666248     -1.64974080     -1.82474294
C     -21.30393625     -1.46746320     -2.29524850
H     -12.20567619     -0.85515013     -3.31565876
C      -8.02605239      0.03008733     10.36003307
H     -21.98215880     -2.35247731     -2.29872280
H      -8.08600472      0.90417379      9.59415855
H      -7.96599778     -0.84377547     11.12615476
C      -0.00590427      0.56774789      2.81505771
H      -0.49703239      1.36185051      1.99522010
C      -0.82322227      1.00925793      4.27374707
H      -0.59630079     -0.43683354      2.37383204
H      -0.55900312      2.07940049      4.84410243
H      -0.78108756      0.27888477      5.27573656
H      -2.05815146      1.15329391      4.29878225
H      10.71712372     -3.51235940     -9.19585712
H      11.67379586     -4.76110798    -10.55183678
H      11.05510465     -5.50428172     -8.71367292
H       4.43392482     -3.44878566     17.31788975
H       1.64080741     -3.91045002     19.33188375
H      12.08191320     -4.93277730     10.93284554
H      15.04656462     -4.78908163     11.37192128
H      -8.17821329     -4.13592299     22.24580028
H       8.59793990      8.67345209      0.98360709
H      -1.22664680     10.00975761     14.99599235
H      10.32952807      8.35448329      4.04624431
H      15.72626365     -2.49828907      0.64152486
H      -1.19336041      8.77798828     12.29313267
H      18.31446942     -0.64280355      1.59805936
H      17.64928359     -1.65413953     -2.64863196
H      12.55373219     -1.60392951      2.74200341
H      20.71200711     -1.48198240     -0.55373045
H       8.88884432      7.19821005      3.60462733
C      12.02451060     -3.22524962     12.46679863
C      12.63680555     -3.85063612     11.11708197
C       3.28314388     -3.12832731     17.28969564
C       2.31524628     -3.56334440     18.44708822
C      14.28865102     -3.87106457     11.16836076
C       9.19570115      9.02852987      1.97271219
C       9.22430718      8.38010683      3.49922463
C      -0.69736316      9.89369099     12.50583503
C      -1.06479588     10.68920586     13.97219888
C      16.15915546     -1.55740658      1.30890071
C      17.47457314     -0.63298076      0.68110992
C      18.31259736     -0.73213624     -0.83544045
C      20.01847742     -0.60851742     -1.09966341
C      14.70964845     -0.98729120      1.76041012
C      13.26136732     -0.72480810      2.34117072
H      20.66418759     -0.63265652     -2.16137335
H      -7.34395296     -2.72831613     -3.34002704
H      11.62335066     -2.75321209     13.46327873
H      -8.04991557     -3.46369977     22.62004036
H      12.15089410     -3.25900183     10.15407264
H      15.07452654     -2.96359101     11.03208674
H       2.91737909     -2.47515516     16.35781564
H       9.76187874      9.99955422      1.52686018
H      -0.25734064     11.51589895     14.42011377
H       8.48506141      8.96270161      4.29752298
H      16.38812848     -2.22572655      2.32395146
H      -0.99923786     10.44474753     11.43752850
H      17.25243407      0.56745925      0.92735937
H      17.46874937     -0.03175655     -2.70437953
H      12.77131944      0.36019057      2.42947479
H      20.57621308      0.42992150     -0.70974510
H      -2.09524393     11.37488698     14.03615288
   94

C      -9.78288111     -1.65425628     -3.72972884
C      -8.31243765     -2.06075254     -2.93534775
H      -9.58355240     -0.96913917     -4.75363145
C     -11.10146891     -1.02843442     -2.81705349
H     -10.13445379     -2.57287236     -4.49664727
H      -7.59495747     -1.09646351     -2.62748276
C      -0.18303345     -1.70342655     -1.25856926
H      -8.37089141     -2.82872692     -1.96470185
H      -5.83047639     -4.70424084    -13.95465741
H      -5.82276160     -5.47363485    -13.82669891
C       0.95137130     -1.43076980     -2.31335450
H       0.17307144     -1.00190030     -3.17053673
C       2.37316093     -0.58127182     -1.87320147
H       0.99047353     -2.59613993     -2.71860295
H       2.35455690      0.50743334     -2.47515617
H       3.23616984     -0.96033450     -2.68988163
C       3.01500146     -0.39975057     -0.26503788
H       4.26076429     -0.35008263     -0.31469931
C       2.48761280      0.71454075      0.97303724
H       3.21485645     -1.54353686      0.17687201
H       1.97185246      1.70420254      0.43280472
H       3.36285377      1.57615426      1.18681079
C       1.69224068      0.32986639      2.48347773
H       2.38487507      0.71386521      3.44503280
C       3.16841959      3.58110123    -10.57786298
H       2.03182887     -0.78066476      2.93090202
H       2.52264117      4.38940409    -11.03724372
H       0.48544160      9.62456857     12.25175880
C      11.08414454     -4.63288001     -9.52960369
H     -11.00796290      0.09778350     -2.30540827
H     -11.52262238     -1.65193733     -1.83192649
C     -21.32107754     -1.46793527     -2.29405480
H     -12.21944894     -0.85709476     -3.32308895
C      -8.02603712      0.03009713     10.35998846
H     -21.99930701     -2.35294412     -2.29752932
H      -8.08597759      0.90416867      9.59409599
H      -7.96600296     -0.84377064     11.12610611
C      -0.00199201      0.56559145      2.81452717
H      -0.49598462      1.35681814      1.99353876
C      -0.81519344      1.00716228      4.27535936
H      -0.59350775     -0.43777672      2.37202596
H      -0.54869077      2.07741577      4.84442593
H      -0.77062103      0.27592523      5.27662701
H      -2.04984613      1.15194142      4.30464435
H      10.65150044     -3.55286101     -9.23903375
H      11.61093370     -4.80094774    -10.59368436
H      10.99281424     -5.54376522     -8.75501727
H       4.40556276     -3.44580012     17.33555981
H       1.61044411     -3.90712267     19.34980050
H      12.07410852     -4.96043834     11.01322907
H      15.03865631     -4.81714637     11.45224577
H      -8.20579216     -4.13718064     22.25740364
H       8.60562833      8.68178439      0.98551654
H      -1.22577550     10.00976385     14.99611599
H      10.33728270      8.36273252      4.04806828
H      15.70134114     -2.48046130      0.64400835
H      -1.19407122      8.77837811     12.29268734
H      18.23456057     -0.60817831      1.69391052
H      17.97602913     -1.48360448     -3.72444199
H      12.51973572     -1.59508954      2.80128281
H      20.69357177     -1.49158178     -0.28793596
H       8.89659383      7.20644371      3.60648794
C      12.01650224     -3.25311268     12.54693531
C      12.62906036     -3.87829277     11.19723145
C       3.25456647     -3.12597249     17.30857939
C       2.28699315     -3.56113956     18.46618099
C      14.28090724     -3.89910326     11.24820423
C       9.20342070      9.03683033      1.97461273
C       9.23203878      8.38834597      3.50109611
C      -0.69736112      9.89368298     12.50581817
C      -1.06478568     10.68920492     13.97217936
C      16.11627102     -1.55612106      1.34370524
C      17.43728173     -0.62430684      0.73968789
C      18.35594454     -0.72321172     -0.72730188
C      20.07447285     -0.60523742     -0.90121733
C      14.66546771     -0.98976330      1.79314145
C      13.22770485     -0.71860218      2.39548339
H      20.85943561     -0.62628039     -1.86558776
H      -7.36058648     -2.72969779     -3.35539437
H      11.61441648     -2.78171318     13.54335216
H      -8.07749561     -3.46495779     22.63164479
H      12.14343812     -3.28649907     10.23417410
H      15.06697460     -2.99193212     11.11108200
H       2.88743533     -2.47282008     16.37723518
H       9.76954525     10.00790348      1.52880091
H      -0.25774565     11.51654878     14.41964472
H       8.49277765      8.97090112      4.29940823
H      16.33372948     -2.23976445      2.35123229
H      -0.99850055     10.44507006     11.43747406
H      17.18398565      0.57816753      0.93541768
H      17.85774133      0.04828617     -3.76784063
H      12.74244827      0.36837321      2.48681370
H      20.57255829      0.44250036     -0.45520583
H      -2.09565674     11.37422573     14.03640214
   94

C      -9.79639097     -1.65696105     -3.73492144
C      -8.32550592     -2.06288226     -2.94103067
H      -9.59612335     -0.97200637     -4.75876713
C     -11.11561988     -1.03071203     -2.82356125
H     -10.14914722     -2.57632321     -4.50043817
H      -7.60767569     -1.10077358     -2.62727438
C      -0.17711171     -1.70390192     -1.25524423
H      -8.38110774     -2.82760028     -1.96760154
H      -5.82981168     -4.70480672    -13.95639024
H      -5.82209710     -5.47420095    -13.82843309
C       0.95811195     -1.43158318     -2.30926559
H       0.17884848     -1.00321336     -3.16574052
C       2.37980091     -0.58127847     -1.87057767
H       0.99876954     -2.59746310     -2.71285316
H       2.36155038      0.50755451     -2.47228343
H       3.24326179     -0.95711743     -2.68825795
C       3.02024247     -0.40213344     -0.26175357
H       4.26623469     -0.35647495     -0.30873990
C       2.49278151      0.71360761      0.97478394
H       3.21687568     -1.54651723      0.18002733
H       1.97760457      1.70373305      0.43481388
H       3.36826258      1.57513955      1.18783662
C       1.69645873      0.32896901      2.48451454
H       2.38904153      0.71423213      3.44554829
C       3.15878055      3.59175363    -10.57887782
H       2.03605378     -0.78089137      2.93361151
H       2.51298804      4.40002117    -11.03830222
H       0.48533378      9.62387523     12.25226441
C      11.02981563     -4.66722229     -9.56118490
H     -11.02130148      0.09554498     -2.31217051
H     -11.53850825     -1.65413617     -1.83912323
C     -21.33819199     -1.46840708     -2.29286564
H     -12.23315087     -0.85904351     -3.33052734
C      -8.02605472      0.03010854     10.35994420
H     -22.01642921     -2.35341004     -2.29634007
H      -8.08598084      0.90416411      9.59403229
H      -7.96604278     -0.84376318     11.12605918
C       0.00181017      0.56345503      2.81381615
H      -0.49499762      1.35181563      1.99168184
C      -0.80726185      1.00506725      4.27679975
H      -0.59080837     -0.43869306      2.37001307
H      -0.53850056      2.07542761      4.84459056
H      -0.76027817      0.27296728      5.27734391
H      -2.04162386      1.15058885      4.31033034
H      10.59844967     -3.58690521     -9.26979439
H      11.55341665     -4.83631688    -10.62669031
H      10.94077783     -5.57735230     -8.78543751
H       4.37712067     -3.44282663     17.35334786
H       1.58001459     -3.90382036     19.36780984
H      12.06586015     -4.98866716     11.09537944
H      15.03040487     -4.84570356     11.53414808
H      -8.23336438     -4.13843887     22.26900983
H       8.61352459      8.68995854      0.98706341
H      -1.22494860     10.00980115     14.99626575
H      10.34469223      8.37142549      4.04986118
H      15.65492484     -2.47769430      0.71156789
H      -1.19483830      8.77880256     12.29226642
H      18.15485683     -0.58220939      1.82616453
H      18.74500041     -1.26034473     -4.87628173
H      12.45675577     -1.58478305      2.87699351
H      20.60730415     -1.50135561     -0.12220728
H       8.90392542      7.21515338      3.60833099
C      12.00805102     -3.28132588     12.62868873
C      12.62091285     -3.90653992     11.27914864
C       3.22591201     -3.12362898     17.32756613
C       2.25866472     -3.55895437     18.48537082
C      14.27276145     -3.92761739     11.32989063
C       9.21108605      9.04520621      1.97622486
C       9.23947876      8.39701277      3.50282834
C      -0.69741476      9.89370866     12.50582456
C      -1.06481962     10.68923497     13.97218681
C      16.05381105     -1.56392817      1.43377133
C      17.36682681     -0.60780492      0.86674306
C      18.29725283     -0.71836782     -0.57786203
C      20.00028443     -0.62445563     -0.76092201
C      14.60174429     -0.99666342      1.87024196
C      13.16689446     -0.71132721      2.46928316
H      20.78725509     -0.68342319     -1.71693109
H      -7.37716372     -2.73100415     -3.37071166
H      11.60498412     -2.81015091     13.62480911
H      -8.10506889     -3.46621641     22.64325205
H      12.13533052     -3.31450736     10.31622147
H      15.05901364     -3.02068631     11.19223937
H       2.85740891     -2.47049477     16.39676422
H       9.77732659     10.01618492      1.53036002
H      -0.25819329     11.51722756     14.41920170
H       8.50017380      8.97964658      4.30104091
H      16.26439926     -2.25562939      2.43655684
H      -0.99781764     10.44542562     11.43744288
H      17.10198757      0.59561304      1.02525410
H      18.61697654      0.17588823     -4.85015585
H      12.68991724      0.37934857      2.55763458
H      20.48761395      0.44314019     -0.35240533
H      -2.09611181     11.37359691     14.03667844
   94

C      -9.80995818     -1.65967467     -3.74014229
C      -8.33863131     -2.06502509     -2.94673630
H      -9.60875466     -0.97488360     -4.76393174
C     -11.12982323     -1.03299713     -2.83009317
H     -10.16389464     -2.57978248     -4.50425430
H      -7.62044745     -1.10512657     -2.62712665
C      -0.17137890     -1.70438597     -1.25191748
H      -8.39138762     -2.82650447     -1.97056351
H      -5.82908939     -4.70536491    -13.95812178
H      -5.82137680     -5.47475948    -13.83016659
C       0.96466333     -1.43240192     -2.30517062
H       0.18445744     -1.00453403     -3.16095487
C       2.38621676     -0.58125812     -1.86791189
H       1.00689999     -2.59878418     -2.70710215
H       2.36832254      0.50770399     -2.46936525
H       3.25013667     -0.95386701     -2.68657465
C       3.02519240     -0.40451407     -0.25840331
H       4.27139559     -0.36287990     -0.30269162
C       2.49772513      0.71269708      0.97660307
H       3.21858570     -1.54949198      0.18324499
H       1.98313611      1.70328754      0.43689558
H       3.37345062      1.57414328      1.18893080
C       1.70051329      0.32807700      2.48564695
H       2.39305434      0.71460378      3.44615038
C       3.14954923      3.60233582    -10.57985910
H       2.04011363     -0.78111043      2.93641582
H       2.50367910      4.41053335    -11.03930158
H       0.48521573      9.62318601     12.25278849
C      10.98433979     -4.69728267     -9.58980116
H     -11.03468867      0.09329727     -2.31895516
H     -11.55444587     -1.65634031     -1.84634592
C     -21.35536396     -1.46888040     -2.29167365
H     -12.24690431     -0.86099740     -3.33798860
C      -8.02609183      0.03012007     10.35991463
H     -22.03360900     -2.35387742     -2.29514788
H      -8.08600571      0.90415987      9.59398365
H      -7.96610001     -0.84375592     11.12602647
C       0.00545323      0.56132061      2.81318878
H      -0.49416575      1.34681472      1.98992691
C      -0.79944622      1.00298303      4.27832678
H      -0.58826481     -0.43960824      2.36809160
H      -0.52842480      2.07345016      4.84482954
H      -0.75004934      0.27002017      5.27814021
H      -2.03350109      1.14924852      4.31610531
H      10.55462725     -3.61656560     -9.29755755
H      11.50528096     -4.86720040    -10.65645867
H      10.89498238     -5.60756203     -8.81430146
H       4.34861687     -3.43984218     17.37118870
H       1.54951076     -3.90050025     19.38586522
H      12.05792732     -5.01688532     11.17761346
H      15.02252004     -4.87418446     11.61588269
H      -8.26102853     -4.13970085     22.28065706
H       8.62123274      8.69838300      0.98880648
H      -1.22412559     10.00984514     14.99643209
H      10.35199583      8.38031596      4.05183120
H      15.61243035     -2.47541118      0.80358507
H      -1.19561649      8.77923456     12.29186235
H      18.11808916     -0.57741635      1.94365184
H      19.63404198     -1.05330525     -5.78730181
H      12.39992854     -1.57467370      2.95578749
H      20.54547562     -1.49974955     -0.12074828
H       8.91112310      7.22407305      3.61038041
C      11.99993658     -3.30954008     12.71051162
C      12.61309296     -3.93477711     11.36112995
C       3.19719643     -3.12127710     17.34661225
C       2.23027433     -3.55676113     18.50462008
C      14.26495342     -3.95605188     11.41152002
C       9.21861330      9.05379711      1.97801748
C       9.24681127      8.40588032      3.50473905
C      -0.69747779      9.89374031     12.50584759
C      -1.06485995     10.68927125     13.97221099
C      16.00172982     -1.56854002      1.53992894
C      17.30286124     -0.58867275      1.01113078
C      18.19674599     -0.70943977     -0.43056725
C      19.86491221     -0.63179721     -0.68301068
C      14.55042696     -0.99808255      1.96644956
C      13.11252819     -0.70305234      2.54929046
H      20.42304097     -0.75023065     -1.77412324
H      -7.39382772     -2.73225040     -3.38598813
H      11.59576033     -2.83868195     13.70632407
H      -8.13273396     -3.46747875     22.65490024
H      12.12747013     -3.34250040     10.39837640
H      15.05139970     -3.04939938     11.27312086
H       2.82731869     -2.46816121     16.41635568
H       9.78500487     10.02465135      1.53207503
H      -0.25864798     11.51791327     14.41877328
H       8.50747963      8.98859584      4.30286690
H      16.21290278     -2.26433855      2.53868691
H      -0.99714231     10.44578771     11.43742882
H      17.04636785      0.61616736      1.15214633
H      19.45685949      0.28145340     -5.72927153
H      12.64177621      0.39051368      2.63263730
H      20.40475102      0.44528048     -0.40227608
H      -2.09657350     11.37297270     14.03697170
   94

C      -9.82353960     -1.66238941     -3.74535464
C      -8.35177259     -2.06717323     -2.95242410
H      -9.62140520     -0.97776223     -4.76908830
C     -11.14403433     -1.03528021     -2.83661183
H     -10.17865449     -2.58324159     -4.50805914
H      -7.63322982     -1.10951461     -2.62700093
C      -0.16576424     -1.70487407     -1.24843556
H      -8.40169007     -2.82542791     -1.97354350
H      -5.82840570     -4.70592784    -13.95987093
H      -5.82069506     -5.47532271    -13.83191747
C       0.97106388     -1.43322450     -2.30094427
H       0.18990852     -1.00585480     -3.15602971
C       2.39247474     -0.58124639     -1.86506439
H       1.01486369     -2.60010409     -2.70122479
H       2.37490667      0.50784463     -2.46626971
H       3.25680680     -0.95062584     -2.68474332
C       3.03013369     -0.40693826     -0.25492686
H       4.27653019     -0.36933993     -0.29653556
C       2.50276622      0.71176914      0.97856277
H       3.22029631     -1.55250166      0.18658378
H       1.98876915      1.70283990      0.43914411
H       3.37876958      1.57309665      1.19015191
C       1.70469601      0.32716149      2.48692997
H       2.39723535      0.71494089      3.44687737
C       3.14012327      3.61296843    -10.58099399
H       2.04432035     -0.78135210      2.93935201
H       2.49420512      4.42112787    -11.04043822
H       0.48513952      9.62246957     12.25329805
C      10.93735139     -4.72845325     -9.62192272
H     -11.04807875      0.09105029     -2.32572610
H     -11.57038816     -1.65853966     -1.85355582
C     -21.37252608     -1.46935330     -2.29048117
H     -12.26066528     -0.86294822     -3.34543404
C      -8.02610228      0.03012948     10.35988525
H     -22.05077864     -2.35434461     -2.29395532
H      -8.08600552      0.90415373      9.59393562
H      -7.96612936     -0.84375094     11.12599360
C       0.00921807      0.55916635      2.81266470
H      -0.49321902      1.34178815      1.98829169
C      -0.79153731      1.00088793      4.27992371
H      -0.58560662     -0.44054280      2.36628860
H      -0.51826121      2.07146248      4.84512576
H      -0.73973237      0.26706271      5.27899863
H      -2.02527068      1.14789532      4.32193577
H      10.50823977     -3.64759037     -9.32941233
H      11.45790233     -4.89844182    -10.68874029
H      10.84688256     -5.63911038     -8.84701996
H       4.32025355     -3.43684956     17.38889215
H       1.51913198     -3.89715575     19.40379736
H      12.05054306     -5.04459654     11.25843652
H      15.01515207     -4.90214257     11.69610633
H      -8.28865416     -4.14096033     22.29228457
H       8.62885801      8.70679485      0.99076731
H      -1.22326906     10.00986518     14.99658175
H      10.35955880      8.38884203      4.05381945
H      15.58282126     -2.46932391      0.87701628
H      -1.19635012      8.77963890     12.29144450
H      18.11235861     -0.58338256      2.00314572
H      20.33782309     -0.90132209     -6.34243728
H      12.36453128     -1.56522398      3.02625689
H      20.47077467     -1.50727029     -0.24270128
H       8.91862451      7.23261114      3.61245291
C      11.99237668     -3.33741289     12.79101204
C      12.60580017     -3.96248956     11.44167642
C       3.16862058     -3.11892055     17.36553991
C       2.20201758     -3.55455479     18.52375464
C      14.25768115     -3.98397304     11.49154027
C       9.22620496      9.06224779      1.97998540
C       9.25436850      8.41439594      3.50673707
C      -0.69749834      9.89374448     12.50585710
C      -1.06486598     10.68928261     13.97221866
C      15.96869726     -1.56606006      1.62000808
C      17.26271099     -0.57791239      1.10563890
C      18.12896809     -0.69946466     -0.33174136
C      19.75585264     -0.61834496     -0.71248457
C      14.52038229     -0.99297421      2.04956744
C      13.07922083     -0.69480161      2.62123426
H      20.13150645     -0.72593838     -1.87753968
H      -7.41053829     -2.73343301     -3.40118183
H      11.58702741     -2.86720940     13.78665840
H      -8.16036055     -3.46873859     22.66652873
H      12.12025385     -3.37002640     10.47899853
H      15.04433092     -3.07767393     11.35198724
H       2.79737305     -2.46582522     16.43582631
H       9.79263913     10.03306546      1.53401539
H      -0.25906966     11.51857385     14.41832942
H       8.51503145      8.99713155      4.30484571
H      16.18706880     -2.26196320      2.61639826
H      -0.99642621     10.44612132     11.43740178
H      17.01496665      0.62817121      1.23372166
H      20.14653115      0.33682473     -6.33009182
H      12.61086782      0.40003203      2.70132325
H      20.32025342      0.45337983     -0.47957498
H      -2.09700058     11.37232329     14.03724831
   94

C      -9.83711317     -1.66510546     -3.75056158
C      -8.36490430     -2.06932504     -2.95810148
H      -9.63405422     -0.98064254     -4.77424030
C     -11.15823402     -1.03756338     -2.84312269
H     -10.19340435     -2.58670121     -4.51185552
H      -7.64599767     -1.11393506     -2.62690521
C      -0.16009980     -1.70536207     -1.24490583
H      -8.41198946     -2.82436810     -1.97654778
H      -5.82774431     -4.70649368    -13.96162356
H      -5.82003513     -5.47588882    -13.83367164
C       0.97750544     -1.43404601     -2.29667595
H       0.19539541     -1.00717211     -3.15105633
C       2.39878160     -0.58124904     -1.86216025
H       1.02285656     -2.60141946     -2.69530467
H       2.38153130      0.50796875     -2.46312353
H       3.26350737     -0.94740408     -2.68285755
C       3.03519446     -0.40937940     -0.25142317
H       4.28176603     -0.37581176     -0.29036472
C       2.50794190      0.71082335      0.98055247
H       3.22213883     -1.55551761      0.18994701
H       1.99453469      1.70237912      0.44143477
H       3.38423531      1.57201970      1.19139815
C       1.70900298      0.32623238      2.48823844
H       2.40155512      0.71525693      3.44762109
C       3.13055746      3.62363010    -10.58217523
H       2.04865838     -0.78160648      2.94230389
H       2.48461290      4.43176794    -11.04162132
H       0.48508383      9.62173883     12.25379517
C      10.88808835     -4.76088060     -9.65574255
H     -11.06145382      0.08880191     -2.33248846
H     -11.58631615     -1.66073672     -1.86075871
C     -21.38967932     -1.46982600     -2.28928846
H     -12.27441485     -0.86489866     -3.35286922
C      -8.02609329      0.03013765     10.35984998
H     -22.06793948     -2.35481153     -2.29276258
H      -8.08598546      0.90414608      9.59388140
H      -7.96613984     -0.84374687     11.12595524
C       0.01310434      0.55700115      2.81215466
H      -0.49214475      1.33674865      1.98668403
C      -0.78353662      0.99878082      4.28150752
H      -0.58282971     -0.44148590      2.36450514
H      -0.50801749      2.06946198      4.84540375
H      -0.72933473      0.26409343      5.27983739
H      -2.01693480      1.14652739      4.32774027
H      10.45917029     -3.67997056     -9.36315814
H      11.40870467     -4.93081216    -10.72252746
H      10.79688569     -5.67177180     -8.88121186
H       4.29194580     -3.43385371     17.40653375
H       1.48880523     -3.89380029     19.42167284
H      12.04317949     -5.07215148     11.33882878
H      15.00776450     -4.92997809     11.77600057
H      -8.31626035     -4.14221839     22.30390091
H       8.63659420      8.71507036      0.99271095
H      -1.22239709     10.00987309     14.99671825
H      10.36730934      8.39712903      4.05573161
H      15.56035138     -2.45923268      0.93289506
H      -1.19706110      8.78002904     12.29101454
H      18.10368991     -0.58225502      2.04741947
H      20.87353212     -0.76200399     -6.85691836
H      12.33703186     -1.55598964      3.09206509
H      20.40650829     -1.50721612     -0.32122892
H       8.92633949      7.24090361      3.61444394
C      11.98482174     -3.36519197     12.87112497
C      12.59851369     -3.99003888     11.52179526
C       3.14010075     -3.11656261     17.38441434
C       2.17381396     -3.55234321     18.54283831
C      14.25041341     -4.01177530     11.57113654
C       9.23393772      9.07053271      1.98192800
C       9.26210231      8.42267945      3.50868141
C      -0.69749769      9.89373432     12.50585502
C      -1.06485574     10.68928084     13.97221331
C      15.94249142     -1.55944056      1.68230092
C      17.23472879     -0.57139963      1.17133573
C      18.10730396     -0.69193687     -0.24711826
C      19.68716632     -0.60473992     -0.75112840
C      14.49621070     -0.98648048      2.11922702
C      13.05376486     -0.68703172      2.68756130
H      19.97962839     -0.69128346     -1.94123283
H      -7.42726842     -2.73455017     -3.41630063
H      11.57832645     -2.89573120     13.86666105
H      -8.18796780     -3.46999705     22.67814615
H      12.11313881     -3.39741459     10.55912826
H      15.03726734     -3.10584081     11.43039015
H       2.76748727     -2.46348977     16.45524247
H       9.80037448     10.04134689      1.53595141
H      -0.25947612     11.51922093     14.41787349
H       8.52275964      9.00542144      4.30678053
H      16.16666420     -2.25573250      2.67681042
H      -0.99568943     10.44643969     11.43736336
H      16.98649338      0.63521851      1.27804444
H      20.69575918      0.38160588     -6.89486996
H      12.58636218      0.40845191      2.76610827
H      20.25304642      0.46523768     -0.52174677
H      -2.09741087     11.37166074     14.03751207
   94

C      -9.85068127     -1.66782316     -3.75577078
C      -8.37802831     -2.07148179     -2.96377764
H      -9.64670337     -0.98352495     -4.77939533
C     -11.17242493     -1.03984769     -2.84963317
H     -10.20814582     -2.59016189     -4.51565117
H      -7.65875350     -1.11838817     -2.62684902
C      -0.15440563     -1.70585205     -1.24139675
H      -8.42228865     -2.82332582     -1.97958482
H      -5.82708020     -4.70705854    -13.96337300
H      -5.81937247     -5.47645395    -13.83542264
C       0.98397936     -1.43486768     -2.29242501
H       0.20091793     -1.00848850     -3.14610074
C       2.40512100     -0.58125429     -1.85927526
H       1.03088309     -2.60273108     -2.68939948
H       2.38819434      0.50808839     -2.45999979
H       3.27024310     -0.94418965     -2.68097188
C       3.04027215     -0.41181586     -0.24793787
H       4.28699953     -0.38227042     -0.28421745
C       2.51312298      0.70987569      0.98252179
H       3.22400487     -1.55851990      0.19328802
H       2.00030289      1.70191507      0.44370622
H       3.38970448      1.57094255      1.19262276
C       1.71331137      0.32530282      2.48952504
H       2.40587377      0.71556971      3.44834406
C       3.12101194      3.63428550    -10.58334915
H       2.05299394     -0.78186028      2.94523251
H       2.47503997      4.44240115    -11.04279665
H       0.48502369      9.62100928     12.25429241
C      10.83835497     -4.79358202     -9.68998882
H     -11.07481697      0.08655106     -2.33924948
H     -11.60223297     -1.66293261     -1.86796223
C     -21.40682921     -1.47029865     -2.28809609
H     -12.28815553     -0.86684968     -3.36030176
C      -8.02608412      0.03014547     10.35981373
H     -22.08509710     -2.35527830     -2.29157015
H      -8.08596488      0.90413782      9.59382586
H      -7.96615045     -0.84374288     11.12591623
C       0.01699517      0.55483689      2.81163417
H      -0.49105238      1.33171149      1.98507959
C      -0.77553367      0.99667196      4.28306836
H      -0.58004626     -0.44242598      2.36271270
H      -0.49778212      2.06745851      4.84565503
H      -0.71894548      0.26112221      5.28064699
H      -2.00858229      1.14515619      4.33351406
H      10.40953074     -3.71265011     -9.39736974
H      11.35911501     -4.96344615    -10.75670793
H      10.74657076     -5.70464700     -8.91573804
H       4.26363794     -3.43085923     17.42417552
H       1.45848000     -3.89044338     19.43954444
H      12.03563846     -5.09978372     11.41944056
H      15.00019015     -4.95791537     11.85619952
H      -8.34386501     -4.14347631     22.31551619
H       8.64440108      8.72329743      0.99458799
H      -1.22152883     10.00988275     14.99685479
H      10.37506685      8.40541302      4.05760648
H      15.53750745     -2.44806995      0.98501322
H      -1.19777528      8.78042082     12.29058481
H      18.08136598     -0.57415780      2.10639492
H      21.35872910     -0.61687090     -7.49759767
H      12.30655787     -1.54666399      3.15822745
H      20.35658633     -1.50492898     -0.33043800
H       8.93405729      7.24919863      3.61639403
C      11.97707861     -3.39302658     12.95145228
C      12.59104908     -4.01766795     11.60214480
C       3.11158218     -3.11420669     17.40329044
C       2.14561054     -3.55013316     18.56192385
C      14.24296383     -4.03967856     11.65102344
C       9.24171751      9.07878741      1.98381136
C       9.26984820      8.43096214      3.51057855
C      -0.69750082      9.89372529     12.50585316
C      -1.06484888     10.68928014     13.97220835
C      15.91342445     -1.55329526      1.74365248
C      17.20550720     -0.56430911      1.23922267
C      18.10503186     -0.68140484     -0.15016359
C      19.64160256     -0.59484423     -0.74797490
C      14.46785350     -0.98169125      2.18591762
C      13.02541635     -0.67951342      2.75364823
H      19.89496113     -0.67181712     -1.94761358
H      -7.44401943     -2.73560370     -3.43135478
H      11.56946341     -2.92425392     13.94686060
H      -8.21557357     -3.47125538     22.68976255
H      12.10585390     -3.42487568     10.63948920
H      15.03001917     -3.13409142     11.50919173
H       2.73760339     -2.46115732     16.47466149
H       9.80817713     10.04958278      1.53782145
H      -0.25988640     11.51986847     14.41741806
H       8.53049470      9.01372302      4.30865395
H      16.13982325     -2.25199576      2.73582569
H      -0.99495611     10.44675853     11.43732534
H      16.95113473      0.64192182      1.31881100
H      21.20186455      0.43263663     -7.56468464
H      12.55953326      0.41684020      2.83102716
H      20.20179621      0.47701981     -0.51763181
H      -2.09782377     11.37099942     14.03777632
   94

C      -9.86424797     -1.67054266     -3.76098398
C      -8.39114891     -2.07364413     -2.96945424
H      -9.65935636     -0.98640972     -4.78455515
C     -11.18661099     -1.04213328     -2.85614486
H     -10.22288261     -2.59362393     -4.51944781
H      -7.67150189     -1.12287378     -2.62683418
C      -0.14870562     -1.70634499     -1.23790893
H      -8.43259268     -2.82230093     -1.98265525
H      -5.82640840     -4.70762146    -13.96511997
H      -5.81870236     -5.47701716    -13.83717127
C       0.99046159     -1.43569072     -2.28819220
H       0.20645382     -1.00980481     -3.14116486
C       2.41146600     -0.58126011     -1.85640979
H       1.03892117     -2.60403977     -2.68351061
H       2.39486948      0.50820598     -2.45689776
H       3.27698824     -0.94097982     -2.67908606
C       3.04533001     -0.41424743     -0.24446776
H       4.29219379     -0.38871718     -0.27809021
C       2.51827789      0.70892815      0.98447473
H       3.22585582     -1.56150906      0.19660942
H       2.00604341      1.70145006      0.44596173
H       3.39514500      1.56986767      1.19382986
C       1.71759574      0.32437339      2.49079632
H       2.41016439      0.71588052      3.44905343
C       3.11151787      3.64492867    -10.58452149
H       2.05730014     -0.78211290      2.94814547
H       2.46551362      4.45302006    -11.04396738
H       0.48495583      9.62028273     12.25479298
C      10.78851564     -4.82635673     -9.72457836
H     -11.08817224      0.08429759     -2.34601075
H     -11.61814286     -1.66512738     -1.87516800
C     -21.42397813     -1.47077129     -2.28690412
H     -12.30189116     -0.86880137     -3.36773344
C      -8.02607820      0.03015298     10.35977839
H     -22.10225386     -2.35574500     -2.29037808
H      -8.08594751      0.90412904      9.59377100
H      -7.96616429     -0.84373898     11.12587840
C       0.02086608      0.55267429      2.81111016
H      -0.48996579      1.32667761      1.98348518
C      -0.76754711      0.99456307      4.28461534
H      -0.57727982     -0.44336280      2.36091832
H      -0.48757322      2.06545402      4.84588811
H      -0.70858282      0.25815083      5.28143667
H      -2.00023169      1.14378365      4.33926669
H      10.35971146     -3.74542498     -9.43194564
H      11.30958064     -4.99610221    -10.79116246
H      10.69616660     -5.73758275     -8.95058936
H       4.23532881     -3.42786646     17.44182188
H       1.42815417     -3.88708487     19.45741533
H      12.02796374     -5.12749128     11.50027015
H      14.99248357     -4.98593947     11.93666176
H      -8.37147157     -4.14473429     22.32713238
H       8.65221919      8.73152729      0.99643427
H      -1.22066644     10.00989574     14.99699442
H      10.38278497      8.41374041      4.05947796
H      15.51240039     -2.43737965      1.03803262
H      -1.19849608      8.78081605     12.29015840
H      18.04830322     -0.56218867      2.18046222
H      21.84926975     -0.46463110     -8.26170185
H      12.27238736     -1.53726562      3.22558143
H      20.31312280     -1.50444835     -0.29242459
H       8.94172876      7.25754081      3.61833755
C      11.96919685     -3.42091040     13.03198674
C      12.58345286     -4.04537540     11.68272073
C       3.08306378     -3.11185308     17.42217249
C       2.11740606     -3.54792493     18.58101506
C      14.23538042     -4.06766820     11.73117968
C       9.24949105      9.08705828      1.98566964
C       9.27756003      8.43928762      3.51246176
C      -0.69751106      9.89371919     12.50585444
C      -1.06484776     10.68928218     13.97220687
C      15.88024306     -1.54893927      1.80799073
C      17.17173525     -0.55575737      1.31575276
C      18.10516311     -0.66904451     -0.03947877
C      19.60508962     -0.58736114     -0.70314054
C      14.43497371     -0.97844999      2.25311909
C      12.99329112     -0.67199661      2.82074246
H      19.82723102     -0.66317220     -1.90834895
H      -7.46079535     -2.73659522     -3.44634672
H      11.56047056     -2.95278073     14.02724644
H      -8.24318128     -3.47251380     22.70137991
H      12.09842439     -3.45240513     10.72008990
H      15.02263510     -3.16241543     11.58834060
H       2.70771949     -2.45882798     16.49408818
H       9.81599168     10.05782111      1.53966000
H      -0.26030273     11.52051816     14.41696599
H       8.53819297      9.02207509      4.31050525
H      16.10679168     -2.25135266      2.79738460
H      -0.99422947     10.44707969     11.43729067
H      16.90937670      0.64922879      1.36456066
H      21.71117278      0.49150738     -8.33464688
H      12.52975225      0.42553750      2.89683150
H      20.15812394      0.48820464     -0.47719004
H      -2.09824164     11.37034093     14.03804402
   94

C      -9.87962330     -1.67382623     -3.76652310
C      -8.40594769     -2.07655998     -2.97574811
H      -9.67274189     -0.98969656     -4.78972405
C     -11.20283066     -1.04464468     -2.86367356
H     -10.24060108     -2.59809698     -4.52247361
H      -7.68527398     -1.13053333     -2.62238975
C      -0.14163313     -1.70620514     -1.23269903
H      -8.44211899     -2.81832351     -1.98342728
H      -5.82565398     -4.70825757    -13.96702431
H      -5.81794279     -5.47765156    -13.83906564
C       0.99858995     -1.43624005     -2.28197182
H       0.21253165     -1.01107747     -3.13325620
C       2.41931474     -0.58017928     -1.85301469
H       1.04988014     -2.60548118     -2.67419210
H       2.40337467      0.50939298     -2.45329039
H       3.28536071     -0.93384902     -2.67774525
C       3.05094602     -0.41744334     -0.24006299
H       4.29800932     -0.39906343     -0.26902495
C       2.52417112      0.70822501      0.98633768
H       3.22604811     -1.56564864      0.20067419
H       2.01296992      1.70166450      0.44845166
H       3.40147004      1.56903814      1.19424621
C       1.72208662      0.32363566      2.49148441
H       2.41465362      0.71729950      3.44873290
C       3.10167032      3.65598037    -10.58674094
H       2.06172278     -0.78164158      2.95180460
H       2.45566351      4.46410784    -11.04611964
H       0.48498731      9.61934759     12.25545905
C      10.73503470     -4.86111106     -9.76333234
H     -11.10270488      0.08192198     -2.35419724
H     -11.63741262     -1.66738206     -1.88386067
C     -21.44161111     -1.47125103     -2.28573277
H     -12.31740132     -0.87088787     -3.37673234
C      -8.02601567      0.03013353     10.36011364
H     -22.11982784     -2.35626957     -2.28920680
H      -8.08601248      0.90414778      9.59416020
H      -7.96598540     -0.84380744     11.12614809
C       0.02462317      0.54987750      2.80849116
H      -0.49138789      1.31832602      1.97868324
C      -0.75667907      0.99192047      4.28550023
H      -0.57570804     -0.44359128      2.35546299
H      -0.47265429      2.06297813      4.84436323
H      -0.69381925      0.25372090      5.28077364
H      -1.98864871      1.14272450      4.34761600
H      10.30562250     -3.78036447     -9.47089764
H      11.25763004     -5.03029082    -10.82925841
H      10.64185156     -5.77267788     -8.98984096
H       4.20792801     -3.42468124     17.45865040
H       1.39786246     -3.88357704     19.47506375
H      12.02091771     -5.15664965     11.58506393
H      14.98542565     -5.01536855     12.02027928
H      -8.39907487     -4.14614902     22.33906395
H       8.66069183      8.74055554      0.99837594
H      -1.21943034     10.00979830     14.99714626
H      10.39185408      8.42210325      4.06100505
H      15.48941355     -2.42522547      1.08631442
H      -1.19932685      8.78128372     12.28956104
H      18.00316193     -0.54799607      2.27524192
H      22.37918902     -0.25661961     -9.15259292
H      12.23165988     -1.52430926      3.29444754
H      20.25824551     -1.51381974     -0.22164540
H       8.95094528      7.26579672      3.61991512
C      11.96143551     -3.45012731     13.11587579
C      12.57650919     -4.07449754     11.76693721
C       3.05529868     -3.10976467     17.44124126
C       2.08958206     -3.54576566     18.60008425
C      14.22846231     -4.09703731     11.81453624
C       9.25813754      9.09583694      1.98759513
C       9.28652403      8.44763004      3.51419829
C      -0.69742482      9.89366190     12.50584797
C      -1.06473267     10.68922166     13.97220745
C      15.83985558     -1.54822318      1.87698930
C      17.12886808     -0.54458455      1.41123794
C      18.12829041     -0.64671668      0.12654405
C      19.56946474     -0.58084964     -0.62222121
C      14.39637094     -0.97547680      2.32447154
C      12.95563637     -0.66152151      2.89016095
H      19.73302563     -0.66181633     -1.83391459
H      -7.48329292     -2.73765398     -3.47068853
H      11.55126489     -2.98228333     14.11067815
H      -8.27077617     -3.47392553     22.71330323
H      12.09172467     -3.48125082     10.80435802
H      15.01599662     -3.19219406     11.67064772
H       2.67752448     -2.45668655     16.51419866
H       9.82438928     10.06682306      1.54175375
H      -0.26073249     11.52129532     14.41639438
H       8.54713459      9.03014420      4.31242050
H      16.06521688     -2.25554605      2.86297056
H      -0.99325944     10.44740507     11.43723534
H      16.85338849      0.65618388      1.40004143
H      22.27028638      0.51344275     -9.21212595
H      12.49623740      0.43804929      2.96365704
H      20.10705726      0.50297169     -0.40869962
H      -2.09864228     11.36946443     14.03841739
