   94

C       6.82690034     -7.22627313     -7.49673297
C       5.11399600     -7.35587622     -7.10085786
H       6.91866967     -6.59480056     -6.44785792
C     -10.16968116     -0.97812121      5.78662609
H     -18.89185999     -7.18329685     -1.80818867
H       4.38496570     -6.45408604     -6.66955580
C      10.59159526     -1.59636020      9.16804471
H       4.26385328     -7.87158981     -6.38787013
H      -7.33803447     -5.79219452    -16.94280354
H      -7.33032328     -6.56158851    -16.81484487
C       9.57295107      1.58784681      5.70626273
H      10.07782575      2.56738162      6.25430706
C      10.95660461     -2.95168905      8.40310139
H      10.41729176      0.33138888      3.61538281
H      12.15352167     -2.82897856      8.45337614
H       0.32151266     -6.93136924     11.13962880
C      10.24683452     -4.20507021      7.56236359
H       9.00854071     -4.16062593      7.52880893
C       5.04478924      4.04718506     -2.93304785
H      10.10430274     -5.11254548      8.39421700
H       5.99270119      4.53598491     -3.57026902
H       4.45973232      5.08754489     -3.29222980
C       4.89118802      2.46181685     -5.35488331
H       5.47513007      3.69481330     -7.51956085
C       4.66130236      3.34764912     -6.70419734
H       5.63404362      1.52655669     -5.59426080
H       3.65384742      3.87685603     -7.09640104
H      -1.67522236     13.86417483     12.14530767
C       8.57611871     -7.39825176     -7.72757972
H     -10.56103991      0.14113743      5.63681892
H     -19.27118577     -7.16726916     -1.12682601
C      -9.30897803      4.96232714    -10.51107341
H     -10.83134575     -1.85898474      5.32335166
C      -0.70363008     -6.68637707     11.73167774
H     -10.40895073      4.90076610    -10.25089213
H      -2.93895866     -7.63587566     11.98707502
H      -0.70040068     -5.47997208     11.64753832
C       4.31874388      2.74453619     -3.80709328
H       6.04644790      5.12829539     -1.04202386
C       4.10531265      4.18133063     -0.16305802
H       3.07983395      2.67775779     -3.82482623
H       4.05410508      5.11692203      0.64919542
H       3.75720188      3.25762907      0.58289801
H       2.92128933      4.34836546     -0.48054843
H       8.87337573     -6.36558839     -8.33915526
H       8.74996521     -8.58640199     -8.03271695
H      11.39736859     -7.57974682     -7.21958846
H       8.00826382     -0.36530325      8.97240783
H      11.55155834      0.13344346      9.04266752
H      -1.57103242     -8.91443598     12.38131850
H       8.46680101     -0.44247978      6.28727798
H      -8.70101793     -4.16259184     22.46177845
H       8.20294139     13.22024196     11.17403150
H      -2.34916350     13.47718722     24.28698232
H      10.57042276      0.86555794     11.86815400
H       7.68632408      2.62658115     -1.47200406
H      -3.43227189     12.93183102     11.85119647
H      12.79393118      2.34725003      3.27879243
H       1.13365400      1.57462925    -14.28149545
H      10.47805282     -5.36207796      5.22674296
H       6.60248562     -7.24340513     -8.71780312
H      10.95994028      2.19338880     10.68368638
C      -8.83793724     -1.27961620      6.56198183
C      -1.79777085     -7.70452901     12.45119700
C       8.93118298      0.33082406      8.52431176
C      10.37606862      0.00466588      9.37170870
C       9.01977386      0.48834188      6.84825724
C       9.13832474     13.77367479     11.58991048
C      10.64329492      1.01865056     10.67090600
C      -2.87735699     14.02780680     11.93502706
C      -1.82981241     14.44151727     23.89388281
C       6.71747610      2.93925762     -0.76450872
C      11.86843119      1.87655478      3.81884039
C      10.56925018      1.20723139      4.43103831
C      10.23189761     -7.36876841     -7.36503508
C       5.45947088      4.03769430     -1.23898491
C      10.94859677     -4.55679757      6.03878105
H       7.44768538      3.18110643      0.20864182
H       4.14048086     -7.87755401     -7.64212646
H      -7.84953394     -1.50338191      7.13744095
H      -8.57271924     -3.49036836     22.83601772
H      -1.92086050     -7.53968585     13.66782427
H       8.59731464      2.16385123      5.21457235
H       8.16238471      1.21595164      8.91467160
H      10.07370777     14.32710836     12.00578918
H      -1.31046131     15.40584731     23.50078330
H       4.16406459      1.63982132     -3.27214881
H       6.47422469      1.75855587     -0.48043702
H      -3.02922606     14.64641905     10.88128340
H      11.05010195     -3.64177881      5.20968246
H       1.07390799      2.34905100    -14.35291928
H      12.08459588     -5.05336151      6.03228289
H      11.39926887     -7.11830206     -7.34224469
H      -3.37270765     14.66880232     12.86232070
   94

C       6.82629088     -7.22174400     -7.49526452
C       5.11526247     -7.35560336     -7.10038185
H       6.93028286     -6.59377534     -6.44426298
C     -10.16975613     -0.97813968      5.78664081
H     -18.89186394     -7.18329873     -1.80819061
H       4.39297024     -6.44424813     -6.67588409
C      10.59636334     -1.59551351      9.16763112
H       4.28352746     -7.88581102     -6.37456250
H      -7.33802779     -5.79218814    -16.94279553
H      -7.33031769     -6.56158233    -16.81483797
C       9.56858973      1.58690012      5.69493821
H      10.08300017      2.55921525      6.24747973
C      10.96241239     -2.95384132      8.40846095
H      10.39615845      0.29900270      3.62018928
H      12.15962855     -2.83655104      8.46624295
H       0.32144170     -6.93144262     11.13970182
C      10.25124790     -4.20624051      7.56728350
H       9.01305712     -4.15894656      7.53529828
C       5.04966447      4.04592104     -2.93111397
H      10.10883637     -5.11464092      8.39817128
H       6.00077318      4.53163596     -3.56569824
H       4.46491334      5.08599346     -3.29309619
C       4.89069945      2.46397424     -5.35731515
H       5.47230956      3.69687811     -7.52269149
C       4.65927985      3.34953846     -6.70657854
H       5.62795305      1.52528868     -5.60037077
H       3.65040433      3.87509613     -7.09996134
H      -1.67525975     13.86422305     12.14535564
C       8.57219267     -7.39797742     -7.73221913
H     -10.56111371      0.14111936      5.63683436
H     -19.27118989     -7.16727114     -1.12682804
C      -9.30895094      4.96232157    -10.51106834
H     -10.83141306     -1.85900302      5.32335532
C      -0.70370213     -6.68644741     11.73174578
H     -10.40892517      4.90076251    -10.25089269
H      -2.93902773     -7.63594227     11.98713127
H      -0.70047540     -5.48004248     11.64761782
C       4.32332311      2.74485843     -3.80731266
H       6.04335988      5.12754356     -1.04007650
C       4.08882407      4.19060991     -0.16803646
H       3.08428805      2.67796684     -3.82542440
H       4.03697084      5.12820550      0.64209607
H       3.73190593      3.26942373      0.57757139
H       2.90805391      4.36062581     -0.49505689
H       8.86711806     -6.36660538     -8.34784277
H       8.73909965     -8.58865553     -8.03231049
H      11.38663188     -7.59923727     -7.20908977
H       8.01121473     -0.36356393      8.97394706
H      11.55124961      0.13869637      9.03390868
H      -1.57109954     -8.91450462     12.38137498
H       8.46582836     -0.44227531      6.29054119
H      -8.70102707     -4.16259519     22.46179017
H       8.20294221     13.22029661     11.17409926
H      -2.34916656     13.47719269     24.28699268
H      10.57188588      0.85718165     11.86983441
H       8.07249833      2.56892965     -1.36247476
H      -3.43231185     12.93188023     11.85124542
H      12.73045534      2.35565238      3.19076161
H       1.13369204      1.57465857    -14.28133260
H      10.47670178     -5.36588627      5.23300188
H       6.59835957     -7.23860888     -8.71581439
H      10.96197977      2.18844481     10.69114381
C      -8.83802386     -1.27964141      6.56201311
C      -1.79784296     -7.70459946     12.45125867
C       8.93309044      0.33201681      8.52194987
C      10.37809118      0.00540599      9.36926793
C       9.02173239      0.49057888      6.84484904
C       9.13834011     13.77371661     11.58996184
C      10.64576283      1.01369147     10.67302462
C      -2.87739408     14.02785472     11.93507331
C      -1.82981536     14.44152268     23.89389315
C       6.70265685      2.94754134     -0.72590871
C      11.75985522      1.92324732      3.68219325
C      10.53174149      1.21672838      4.39050796
C      10.22596536     -7.36962180     -7.36524512
C       5.45223424      4.03881021     -1.23446359
C      10.95012230     -4.55993022      6.04282633
H       7.35759055      3.18911344      0.29869734
H       4.15153115     -7.88134398     -7.65709949
H      -7.84963148     -1.50341872      7.13748620
H      -8.57272819     -3.49037165     22.83602929
H      -1.92093057     -7.53975544     13.66788549
H       8.58814012      2.16826044      5.22228580
H       8.16465234      1.21592827      8.91601202
H      10.07373264     14.32714198     12.00582943
H      -1.31046412     15.40585261     23.50079350
H       4.17093110      1.64041595     -3.27144371
H       6.44782951      1.76635752     -0.45841052
H      -3.02926335     14.64646738     10.88132997
H      11.05168517     -3.64561870      5.21304685
H       1.07395156      2.34908153    -14.35274753
H      12.08588606     -5.05692001      6.03384785
H      11.38956146     -7.10147693     -7.34119190
H      -3.37274374     14.66885078     12.86236706
   94

C       6.82564675     -7.21712445     -7.49369505
C       5.11640630     -7.35529202     -7.09978462
H       6.94190818     -6.59264663     -6.44073496
C     -10.16982658     -0.97816061      5.78665976
H     -18.89186881     -7.18330151     -1.80819234
H       4.40108936     -6.43434412     -6.68214494
C      10.60091430     -1.59454156      9.16707582
H       4.30353494     -7.89975636     -6.36138927
H      -7.33801971     -5.79218289    -16.94278882
H      -7.33031056     -6.56157721    -16.81483199
C       9.56699569      1.58579504      5.68208983
H      10.09090364      2.55076798      6.23910155
C      10.96806923     -2.95594088      8.41389845
H      10.38437334      0.26880143      3.62948455
H      12.16550870     -2.84419745      8.47943277
H       0.32139385     -6.93148877     11.13974942
C      10.25553027     -4.20732473      7.57222374
H       9.01746122     -4.15702642      7.54167776
C       5.05281670      4.04567317     -2.93110799
H      10.11306188     -5.11660684      8.40215954
H       6.01183245      4.52348912     -3.55947197
H       4.47264774      5.08660755     -3.29826664
C       4.89233425      2.46588232     -5.35971131
H       5.47197706      3.69835901     -7.52553700
C       4.65911548      3.34991986     -6.70969195
H       5.62744070      1.52576821     -5.60339916
H       3.64913262      3.87202730     -7.10486283
H      -1.67529163     13.86426457     12.14540016
C       8.56823765     -7.39763590     -7.73676531
H     -10.56118503      0.14109829      5.63685498
H     -19.27119482     -7.16727393     -1.12682981
C      -9.30894221      4.96231662    -10.51108014
H     -10.83147575     -1.85902398      5.32336337
C      -0.70375029     -6.68649205     11.73179102
H     -10.40891695      4.90075923    -10.25090583
H      -2.93907364     -7.63598559     11.98716902
H      -0.70052528     -5.48008710     11.64767140
C       4.32657477      2.74607437     -3.80906315
H       6.03850825      5.12927995     -1.03920574
C       4.06938667      4.20046433     -0.17335232
H       3.08745762      2.67972929     -3.82880911
H       4.01706784      5.13919999      0.63535825
H       3.70634393      3.28024687      0.57102424
H       2.89182023      4.37205113     -0.50945609
H       8.86077121     -6.36752930     -8.35639185
H       8.72813628     -8.59078092     -8.03184562
H      11.37553642     -7.61865642     -7.19855870
H       8.01433924     -0.36110124      8.97408182
H      11.55101741      0.14384994      9.02544019
H      -1.57114354     -8.91454863     12.38141238
H       8.46627169     -0.44126539      6.29252809
H      -8.70103318     -4.16259761     22.46179858
H       8.20294200     13.22032783     11.17414452
H      -2.34916836     13.47719637     24.28700036
H      10.57299010      0.84888580     11.87128230
H       8.44250944      2.49751588     -1.17454535
H      -3.43234647     12.93192326     11.85129185
H      12.66590016      2.35149280      3.12937225
H       1.13376336      1.57467748    -14.28117155
H      10.47533222     -5.36976865      5.23939056
H       6.59421567     -7.23370540     -8.71372067
H      10.96386828      2.18355157     10.69844719
C      -8.83810366     -1.27966790      6.56204552
C      -1.79789068     -7.70464474     12.45129959
C       8.93546611      0.33373446      8.51848859
C      10.38004831      0.00631428      9.36655677
C       9.02508237      0.49350177      6.84033239
C       9.13835015     13.77373921     11.58999497
C      10.64787464      1.00886312     10.67492816
C      -2.87742579     14.02789642     11.93511725
C      -1.82981708     14.44152634     23.89390086
C       6.68031721      2.95895453     -0.69889127
C      11.62586399      1.97976600      3.52314068
C      10.50042750      1.22740654      4.35108575
C      10.22011204     -7.37043000     -7.36566042
C       5.43893560      4.04517895     -1.23154743
C      10.95163011     -4.56314925      6.04699691
H       7.28706903      3.19568427      0.35299865
H       4.16283495     -7.88500571     -7.67209273
H      -7.84971947     -1.50345453      7.13752893
H      -8.57273417     -3.49037404     22.83603759
H      -1.92097667     -7.53980015     13.66792614
H       8.58199346      2.17223715      5.22827479
H       8.16742788      1.21658920      8.91593194
H      10.07374906     14.32715939     12.00585463
H      -1.31046574     15.40585620     23.50080116
H       4.17535188      1.64194349     -3.27248889
H       6.42973982      1.77422945     -0.45330638
H      -3.02929609     14.64651031     10.88137483
H      11.05338854     -3.64960145      5.21649302
H       1.07402681      2.34910108    -14.35258222
H      12.08711405     -5.06065423      6.03565684
H      11.37964807     -7.08459477     -7.34015143
H      -3.37277398     14.66889266     12.86241161
   94

C       6.82499467     -7.21236918     -7.49197060
C       5.11744776     -7.35494003     -7.09904390
H       6.95354631     -6.59134894     -6.43722784
C     -10.16986325     -0.97817649      5.78667491
H     -18.89187293     -7.18330450     -1.80819285
H       4.40934125     -6.42437165     -6.68832864
C      10.60503165     -1.59368150      9.16675480
H       4.32390144     -7.91343248     -6.34833450
H      -7.33801865     -5.79218536    -16.94279035
H      -7.33030930     -6.56157959    -16.81483298
C       9.56778016      1.58533681      5.66844527
H      10.09987559      2.54319422      6.23056016
C      10.97344357     -2.95815836      8.41969291
H      10.38557861      0.24404872      3.64385105
H      12.17102041     -2.85215864      8.49336366
H       0.32136926     -6.93150012     11.13975687
C      10.25959853     -4.20843481      7.57733264
H       9.02167422     -4.15493231      7.54801928
C       5.05010227      4.04902793     -2.93574866
H      10.11682857     -5.11858969      8.40628012
H       6.01611256      4.52042143     -3.55806480
H       4.47245839      5.08988520     -3.30667089
C       4.89229825      2.46784460     -5.36420728
H       5.47182080      3.69969936     -7.53000052
C       4.65822867      3.34954470     -6.71557970
H       5.62771889      1.52768230     -5.60648169
H       3.64760389      3.86868828     -7.11307727
H      -1.67530711     13.86428398     12.14542423
C       8.56428656     -7.39713067     -7.74114805
H     -10.56122459      0.14108173      5.63687252
H     -19.27119882     -7.16727679     -1.12683026
C      -9.30897694      4.96231531    -10.51111271
H     -10.83150779     -1.85904007      5.32337230
C      -0.70377297     -6.68650258     11.73180097
H     -10.40894998      4.90075783    -10.25093112
H      -2.93909334     -7.63599781     11.98717804
H      -0.70054928     -5.48009777     11.64768235
C       4.32602414      2.74878987     -3.81395931
H       6.03030100      5.13582951     -1.04376636
C       4.05200618      4.20767356     -0.17878204
H       3.08692344      2.68192322     -3.83530454
H       3.99963888      5.14566828      0.63054771
H       3.68894955      3.28557034      0.56358444
H       2.87622374      4.37794099     -0.51993388
H       8.85434787     -6.36824259     -8.36470863
H       8.71714421     -8.59267471     -8.03126233
H      11.36411015     -7.63782735     -7.18792518
H       8.01745185     -0.35819872      8.97284894
H      11.55067491      0.14861360      9.01797054
H      -1.57116195     -8.91456021     12.38142147
H       8.46852600     -0.43932947      6.29305874
H      -8.70103553     -4.16259837     22.46180129
H       8.20293636     13.22033554     11.17415845
H      -2.34916895     13.47719756     24.28700300
H      10.57356239      0.84053653     11.87294345
H       8.79103888      2.40468295     -0.90389460
H      -3.43236375     12.93194399     11.85131790
H      12.58756507      2.34275944      3.08462196
H       1.13377887      1.57465697    -14.28120497
H      10.47389596     -5.37381730      5.24603244
H       6.59009989     -7.22866389     -8.71147265
H      10.96543167      2.17856186     10.70605656
C      -8.83814316     -1.27968583      6.56206489
C      -1.79791090     -7.70465684     12.45130957
C       8.93815539      0.33579982      8.51418988
C      10.38166682      0.00715498      9.36407290
C       9.02963086      0.49730733      6.83497780
C       9.13834803     13.77374416     11.59000446
C      10.64931762      1.00405301     10.67705922
C      -2.87744130     14.02791632     11.93514206
C      -1.82981762     14.44152752     23.89390354
C       6.65689138      2.97556254     -0.68825421
C      11.49092532      2.02684329      3.36849112
C      10.47440588      1.24310631      4.31207972
C      10.21436140     -7.37105608     -7.36617165
C       5.42260114      4.05636471     -1.23430384
C      10.95306858     -4.56659123      6.05146473
H       7.24055492      3.20769765      0.37324958
H       4.17443270     -7.88853091     -7.68709811
H      -7.84976087     -1.50347580      7.13755032
H      -8.57273648     -3.49037479     22.83604027
H      -1.92099614     -7.53981180     13.66793599
H       8.57867112      2.17614773      5.23226854
H       8.17046425      1.21765086      8.91478899
H      10.07374908     14.32716273     12.00586131
H      -1.31046623     15.40585736     23.50080385
H       4.17680039      1.64501110     -3.27625826
H       6.42631848      1.78514271     -0.46561355
H      -3.02931300     14.64653180     10.88140080
H      11.05515870     -3.65383348      5.22022884
H       1.07404074      2.34907976    -14.35262294
H      12.08821780     -5.06472265      6.03789443
H      11.36953560     -7.06746919     -7.33901696
H      -3.37278812     14.66891233     12.86243728
   94

C       6.82435411     -7.20752421     -7.49009395
C       5.11840153     -7.35462407     -7.09817364
H       6.96520913     -6.58993615     -6.43373769
C     -10.16985957     -0.97818235      5.78668172
H     -18.89187521     -7.18330678     -1.80819199
H       4.41774191     -6.41440707     -6.69445667
C      10.60882009     -1.59315207      9.16696108
H       4.34465850     -7.92691897     -6.33540302
H      -7.33802748     -5.79219610    -16.94280090
H      -7.33031666     -6.56159002    -16.81484178
C       9.56873276      1.58593445      5.65583928
H      10.10811829      2.53678010      6.22347012
C      10.97861183     -2.96060049      8.42590423
H      10.39732415      0.22499778      3.66200411
H      12.17623126     -2.86046858      8.50799633
H       0.32135561     -6.93149087     11.13973532
C      10.26353475     -4.20964893      7.58261174
H       9.02577212     -4.15282953      7.55438487
C       5.04137536      4.05528299     -2.94495418
H      10.12030102     -5.12073556      8.41047532
H       6.01148198      4.52348587     -3.56333701
H       4.46289107      5.09510892     -3.31666278
C       4.88852249      2.46972230     -5.37139291
H       5.47022490      3.70128146     -7.53662702
C       4.65528915      3.34933368     -6.72428528
H       5.62487055      1.52984911     -5.61185044
H       3.64439454      3.86608439     -7.12424854
H      -1.67530289     13.86427806     12.14542174
C       8.56036288     -7.39648646     -7.74535860
H     -10.56122424      0.14107506      5.63688137
H     -19.27120085     -7.16727882     -1.12682926
C      -9.30904459      4.96231878    -10.51115338
H     -10.83150379     -1.85904613      5.32337891
C      -0.70378256     -6.68649192     11.73178577
H     -10.40901427      4.90075928    -10.25095848
H      -2.93909843     -7.63599014     11.98716631
H      -0.70056034     -5.48008747     11.64766174
C       4.32119708      2.75241035     -3.82187755
H       6.02035960      5.14472619     -1.05400063
C       4.03994641      4.21132462     -0.18267848
H       3.08216828      2.68441805     -3.84377438
H       3.98960817      5.14697420      0.62912852
H       3.68283123      3.28515778      0.55753213
H       2.86435609      4.37857803     -0.52391919
H       8.84787052     -6.36877776     -8.37279768
H       8.70617032     -8.59436144     -8.03054106
H      11.35236308     -7.65669872     -7.17709701
H       8.02034329     -0.35545642      8.97137541
H      11.55011824      0.15288336      9.01170374
H      -1.57116666     -8.91455163     12.38141090
H       8.47162421     -0.43698256      6.29310390
H      -8.70103575     -4.16259777     22.46179970
H       8.20292622     13.22032582     11.17414306
H      -2.34916900     13.47719713     24.28700120
H      10.57376992      0.83200155     11.87521723
H       9.10234875      2.31419421     -0.57852824
H      -3.43235991     12.93193878     11.85131673
H      12.50109433      2.33872668      3.04153743
H       1.13370095      1.57460191    -14.28146241
H      10.47239423     -5.37790007      5.25280788
H       6.58603975     -7.22353188     -8.70907482
H      10.96674833      2.17332151     10.71431804
C      -8.83813612     -1.27969026      6.56206704
C      -1.79791603     -7.70464826     12.45129806
C       8.94078586      0.33777015      8.51011160
C      10.38293019      0.00766965      9.36230011
C       9.03413338      0.50156502      6.82988611
C       9.13833471     13.77373726     11.58999274
C      10.65025649      0.99908305     10.67981148
C      -2.87743727     14.02791100     11.93514107
C      -1.82981760     14.44152703     23.89390168
C       6.63061352      2.99233253     -0.69256360
C      11.37279537      2.05605142      3.23908338
C      10.44798389      1.26136667      4.27455516
C      10.20872699     -7.37149476     -7.36672246
C       5.40503001      4.06968700     -1.24293026
C      10.95444278     -4.57016705      6.05615256
H       7.22404045      3.22211787      0.35866478
H       4.18635130     -7.89199359     -7.70212459
H      -7.84975016     -1.50347774      7.13754733
H      -8.57273672     -3.49037421     22.83603872
H      -1.92100137     -7.53980275     13.66792439
H       8.57644692      2.18069710      5.23539578
H       8.17333959      1.21855063      8.91382944
H      10.07373385     14.32715743     12.00585203
H      -1.31046616     15.40585682     23.50080195
H       4.17484248      1.64903810     -3.28260875
H       6.43948582      1.79478531     -0.49144145
H      -3.02930994     14.64652758     10.88140060
H      11.05693368     -3.65815510      5.22424648
H       1.07395661      2.34902283    -14.35289600
H      12.08921968     -5.06899579      6.04039508
H      11.35921507     -7.05004303     -7.33767382
H      -3.37278346     14.66890664     12.86243687
   94

C       6.82371603     -7.20270936     -7.48810894
C       5.11924562     -7.35442387     -7.09722463
H       6.97689624     -6.58853831     -6.43030288
C     -10.16983128     -0.97817888      5.78668101
H     -18.89187565     -7.18330779     -1.80819045
H       4.42629427     -6.40451298     -6.70058609
C      10.61250010     -1.59287439      9.16744908
H       4.36578803     -7.94027703     -6.32263578
H      -7.33804107     -5.79220926    -16.94281460
H      -7.33032834     -6.56160283    -16.81485346
C       9.56930992      1.58711823      5.64420059
H      10.11595374      2.53078703      6.21737219
C      10.98372617     -2.96314541      8.43217861
H      10.41407997      0.21146432      3.68067660
H      12.18129162     -2.86890825      8.52281342
H       0.32134707     -6.93147710     11.13970511
C      10.26746023     -4.21084397      7.58772794
H       9.02986794     -4.15070098      7.56057584
C       5.03102732      4.06176321     -2.95579996
H      10.12374059     -5.12296457      8.41439006
H       6.00387392      4.52794408     -3.57155124
H       4.45089233      5.10085420     -3.32604948
C       4.88249067      2.47159300     -5.37986310
H       5.46750771      3.70332602     -7.54422781
C       4.65114395      3.34987622     -6.73394663
H       5.61916264      1.53166493     -5.61909282
H       3.64007559      3.86450363     -7.13620160
H      -1.67528552     13.86425648     12.14540110
C       8.55646389     -7.39581696     -7.74943505
H     -10.56119811      0.14107796      5.63688155
H     -19.27120103     -7.16727959     -1.12682758
C      -9.30911129      4.96232525    -10.51118477
H     -10.83147819     -1.85904275      5.32338205
C      -0.70378651     -6.68647610     11.73176266
H     -10.40907764      4.90076290    -10.25097715
H      -2.93909781     -7.63597662     11.98714769
H      -0.70056571     -5.48007211     11.64763108
C       4.31431381      2.75625935     -3.83101742
H       6.01368413      5.15054571     -1.06621330
C       4.03354683      4.21296674     -0.18433810
H       3.07532023      2.68807023     -3.85255116
H       3.98833296      5.14583560      0.63049673
H       3.68433363      3.28268224      0.55429323
H       2.85746610      4.37797526     -0.52280639
H       8.84134154     -6.36926551     -8.38072218
H       8.69521078     -8.59595555     -8.02971840
H      11.34029294     -7.67537201     -7.16609973
H       8.02307766     -0.35300840      8.96999512
H      11.54941614      0.15685033      9.00611746
H      -1.57116637     -8.91453768     12.38139409
H       8.47503483     -0.43457135      6.29298989
H      -8.70103534     -4.16259662     22.46179649
H       8.20291635     13.22030689     11.17411222
H      -2.34916893     13.47719615     24.28699730
H      10.57381538      0.82328645     11.87787610
H       9.36684942      2.25430684     -0.24088621
H      -3.43234183     12.93191732     11.85129651
H      12.41408619      2.33864788      2.99715274
H       1.13357650      1.57454369    -14.28179579
H      10.47083179     -5.38162320      5.25926473
H       6.58202810     -7.21840365     -8.70657169
H      10.96794773      2.16784932     10.72298008
C      -8.83810183     -1.27968368      6.56205787
C      -1.79791545     -7.70463410     12.45127975
C       8.94329674      0.33953128      8.50636011
C      10.38400292      0.00791592      9.36098969
C       9.03825814      0.50595422      6.82515637
C       9.13831767     13.77372453     11.58997030
C      10.65096017      0.99393606     10.68295690
C      -2.87742010     14.02788993     11.93512190
C      -1.82981745     14.44152594     23.89389762
C       6.59824700      3.00064181     -0.70329014
C      11.26862972      2.07278005      3.13102048
C      10.41956856      1.27906253      4.23859468
C      10.20321325     -7.37186251     -7.36735411
C       5.38857618      4.08137233     -1.25395974
C      10.95576110     -4.57347941      6.06060266
H       7.23297637      3.23066367      0.31767649
H       4.19856493     -7.89544553     -7.71721470
H      -7.84971010     -1.50346580      7.13753054
H      -8.57273637     -3.49037308     22.83603557
H      -1.92100137     -7.53978806     13.66790595
H       8.57471985      2.18594193      5.23826925
H       8.17603139      1.21916609      8.91323700
H      10.07371246     14.32714830     12.00583508
H      -1.31046593     15.40585564     23.50079777
H       4.17032521      1.65320809     -3.29044904
H       6.45636464      1.79747943     -0.51877657
H      -3.02929296     14.64650673     10.88138158
H      11.05861896     -3.66212280      5.22812061
H       1.07382525      2.34896272    -14.35324497
H      12.09015237     -5.07302194      6.04260422
H      11.34867782     -7.03241996     -7.33615526
H      -3.37276656     14.66888535     12.86241773
   94

C       6.82306140     -7.19800369     -7.48604864
C       5.11994734     -7.35435922     -7.09623199
H       6.98860093     -6.58723182     -6.42695980
C     -10.16979447     -0.97816996      5.78667513
H     -18.89187445     -7.18330749     -1.80818901
H       4.43499896     -6.39468908     -6.70675458
C      10.61624222     -1.59251621      9.16764584
H       4.38725519     -7.95350473     -6.31006196
H      -7.33805259     -5.79221919    -16.94282509
H      -7.33033835     -6.56161249    -16.81486247
C       9.57012613      1.58832505      5.63201692
H      10.12486552      2.52437488      6.21036489
C      10.98890327     -2.96553648      8.43808366
H      10.43084769      0.20292616      3.69650724
H      12.18631998     -2.87716405      8.53728170
H       0.32134880     -6.93146235     11.13967692
C      10.27144730     -4.21180482      7.59235566
H       9.03403035     -4.14837720      7.56635624
C       5.02278164      4.06700638     -2.96568222
H      10.12730152     -5.12503816      8.41773815
H       5.99837922      4.53076065     -3.57907358
H       4.44179613      5.10615065     -3.33351692
C       4.87651723      2.47358154     -5.38801934
H       5.46451286      3.70576141     -7.55148370
C       4.64701105      3.35116621     -6.74284107
H       5.61260118      1.53309397     -5.62685630
H       3.63562408      3.86358141     -7.14708130
H      -1.67526413     13.86423044     12.14537457
C       8.55257556     -7.39520128     -7.75341370
H     -10.56116194      0.14108670      5.63687546
H     -19.27119965     -7.16727915     -1.12682604
C      -9.30915237      4.96233150    -10.51119821
H     -10.83144531     -1.85903380      5.32338158
C      -0.70378144     -6.68645970     11.73173974
H     -10.40911665      4.90076675    -10.25098299
H      -2.93909010     -7.63596118     11.98712866
H      -0.70056109     -5.48005604     11.64760165
C       4.30799070      2.75997316     -3.83960582
H       6.01237564      5.15184010     -1.07710174
C       4.03129354      4.21393561     -0.18432028
H       3.06896397      2.69282161     -3.86033934
H       3.99316173      5.14425077      0.63325976
H       3.68919217      3.28037140      0.55325786
H       2.85475347      4.37816185     -0.51948191
H       8.83475080     -6.36979298     -8.38852952
H       8.68423768     -8.59753593     -8.02884088
H      11.32789583     -7.69396337     -7.15503193
H       8.02590313     -0.35045825      8.96804164
H      11.54875589      0.16088097      9.00036629
H      -1.57115957     -8.91452228     12.38137677
H       8.47897009     -0.43207719      6.29223536
H      -8.70103430     -4.16259539     22.46179292
H       8.20291100     13.22028334     11.17408016
H      -2.34916859     13.47719487     24.28699297
H      10.57376921      0.81451886     11.88026306
H       9.58580744      2.22623109      0.09831537
H      -3.43231917     12.93189101     11.85126966
H      12.32499779      2.33965807      2.94929858
H       1.13346746      1.57450558    -14.28205731
H      10.46924309     -5.38469581      5.26507444
H       6.57804436     -7.21332791     -8.70399640
H      10.96910471      2.16232294     10.73142683
C      -8.83805908     -1.27967140      6.56204360
C      -1.79790767     -7.70461833     12.45126078
C       8.94594767      0.34137806      8.50211434
C      10.38510272      0.00823585      9.35937294
C       9.04262736      0.51048130      6.81994295
C       9.13830431     13.77370823     11.58994720
C      10.65158301      0.98877268     10.68584665
C      -2.87739885     14.02786426     11.93509641
C      -1.82981706     14.44152456     23.89389313
C       6.56231968      3.00019878     -0.71254125
C      11.16931914      2.08143850      3.03268348
C      10.38902661      1.29517646      4.20214620
C      10.19782183     -7.37226328     -7.36813377
C       5.37509037      4.09029540     -1.26419332
C      10.95705453     -4.57618671      6.06443580
H       7.25859230      3.23064991      0.26149170
H       4.21103251     -7.89887046     -7.73239669
H      -7.84966193     -1.50344785      7.13750934
H      -8.57273539     -3.49037187     22.83603206
H      -1.92099459     -7.53977193     13.66788689
H       8.57375293      2.19178674      5.24074011
H       8.17887113      1.21987961      8.91211050
H      10.07369414     14.32713645     12.00581776
H      -1.31046548     15.40585417     23.50079317
H       4.16540132      1.65703255     -3.29840253
H       6.46871806      1.79379565     -0.54283876
H      -3.02927132     14.64648063     10.88135575
H      11.06019312     -3.66540892      5.23144454
H       1.07371134      2.34892335    -14.35351679
H      12.09106097     -5.07642912      6.04412017
H      11.33792193     -7.01472059     -7.33457542
H      -3.37274614     14.66885963     12.86239186
   94

C       6.82237845     -7.19341977     -7.48392269
C       5.12048764     -7.35441497     -7.09519836
H       7.00032139     -6.58602246     -6.42372414
C     -10.16975646     -0.97815853      5.78666520
H     -18.89187159     -7.18330602     -1.80818802
H       4.44385988     -6.38491098     -6.71296346
C      10.62014691     -1.59177400      9.16713787
H       4.40904736     -7.96657579     -6.29767839
H      -7.33805834     -5.79222356    -16.94282915
H      -7.33034328     -6.56161675    -16.81486588
C       9.57163073      1.58935504      5.61816748
H      10.13595867      2.51716252      6.20092642
C      10.99420153     -2.96757787      8.44341535
H      10.44526126      0.19846704      3.70816681
H      12.19137711     -2.88501572      8.55115733
H       0.32136585     -6.93144440     11.13965337
C      10.27552237     -4.21239288      7.59641074
H       9.03828565     -4.14572255      7.57166557
C       5.01831730      4.07059385     -2.97322337
H      10.13102693     -5.12676695      8.42049283
H       5.99692424      4.53122753     -3.58429731
H       4.43735324      5.11037582     -3.33852212
C       4.87184793      2.47568796     -5.39495766
H       5.46166746      3.70836539     -7.55770855
C       4.64348002      3.35293488     -6.75012751
H       5.60649932      1.53419730     -5.63423429
H       3.63151457      3.86283618     -7.15603651
H      -1.67524458     13.86420638     12.14534954
C       8.54868678     -7.39466078     -7.75731223
H     -10.56112340      0.14109824      5.63686463
H     -19.27119677     -7.16727766     -1.12682505
C      -9.30916029      4.96233524    -10.51119291
H     -10.83141149     -1.85902228      5.32337737
C      -0.70376324     -6.68644127     11.73171842
H     -10.40912411      4.90076923    -10.25097640
H      -2.93907220     -7.63594267     11.98711014
H      -0.70054179     -5.48003770     11.64757604
C       4.30386221      2.76328607     -3.84655942
H       6.01606651      5.14978585     -1.08522203
C       4.03190572      4.21462186     -0.18337493
H       3.06475255      2.69788837     -3.86629382
H       4.00114023      5.14282027      0.63636904
H       3.69542859      3.27851353      0.55333182
H       2.85518981      4.37901400     -0.51597973
H       8.82809323     -6.37038591     -8.39624145
H       8.67322649     -8.59912401     -8.02793415
H      11.31516488     -7.71253493     -7.14395978
H       8.02901765     -0.34738689      8.96489527
H      11.54830590      0.16528092      8.99384781
H      -1.57114301     -8.91450399     12.38135954
H       8.48374015     -0.42937802      6.29045643
H      -8.70103223     -4.16259422     22.46178917
H       8.20291189     13.22025738     11.17405417
H      -2.34916782     13.47719322     24.28698892
H      10.57364239      0.80582234     11.88187837
H       9.76146987      2.21819223      0.44444373
H      -3.43229813     12.93186640     11.85124370
H      12.22819430      2.34111444      2.89350227
H       1.13340310      1.57449285    -14.28218754
H      10.46767984     -5.38706076      5.27021742
H       6.57407232     -7.20829926     -8.70135780
H      10.97026497      2.15691449     10.73921060
C      -8.83801613     -1.27965693      6.56202667
C      -1.79788939     -7.70459946     12.45124176
C       8.94898810      0.34364215      8.49670987
C      10.38640440      0.00894636      9.35686111
C       9.04786534      0.51526077      6.81357879
C       9.13829837     13.77368890     11.58992819
C      10.65220894      0.98376015     10.68799166
C      -2.87737939     14.02784036     11.93507186
C      -1.82981626     14.44152286     23.89388898
C       6.52711929      2.99590955     -0.71475965
C      11.06655485      2.08283529      2.93518139
C      10.35600782      1.30965739      4.16357267
C      10.19255208     -7.37274470     -7.36909509
C       5.36568106      4.09677663     -1.27198632
C      10.95836894     -4.57818164      6.06758323
H       7.29621954      3.22388885      0.19762629
H       4.22373151     -7.90223067     -7.74766340
H      -7.84961472     -1.50342847      7.13748708
H      -8.57273339     -3.49037072     22.83602836
H      -1.92097773     -7.53975305     13.66786786
H       8.57370704      2.19825271      5.24277065
H       8.18215252      1.22109991      8.90968401
H      10.07368375     14.32712154     12.00580327
H      -1.31046468     15.40585244     23.50078896
H       4.16211006      1.66027267     -3.30524443
H       6.47879579      1.78755032     -0.56501712
H      -3.02925117     14.64645595     10.88133061
H      11.06171208     -3.66794411      5.23410681
H       1.07364480      2.34891012    -14.35365103
H      12.09199449     -5.07910446      6.04490040
H      11.32694385     -6.99700967     -7.33300851
H      -3.37272768     14.66883576     12.86236679
   94

C       6.82166246     -7.18894260     -7.48172873
C       5.12085811     -7.35457295     -7.09411302
H       7.01205860     -6.58488766     -6.42059952
C     -10.16971948     -0.97814598      5.78665145
H     -18.89186706     -7.18330355     -1.80818762
H       4.45288214     -6.37515918     -6.71920006
C      10.62426468     -1.59047300      9.16573227
H       4.43116765     -7.97946688     -6.28546995
H      -7.33805742     -5.79222233    -16.94282618
H      -7.33034224     -6.56161554    -16.81486303
C       9.57385063      1.59030175      5.60216501
H      10.14954696      2.50915589      6.18833420
C      10.99964232     -2.96916303      8.44812128
H      10.45684980      0.19793467      3.71542414
H      12.19648530     -2.89234798      8.56438369
H       0.32139982     -6.93142160     11.13963430
C      10.27969131     -4.21254019      7.59991795
H       9.04264062     -4.14266357      7.57652496
C       5.01821288      4.07236907     -2.97768989
H      10.13491729     -5.12804880      8.42271485
H       5.99980158      4.52942298     -3.58673984
H       4.43768404      5.11304485     -3.34069892
C       4.86881796      2.47790325     -5.40031682
H       5.45908607      3.71094699     -7.56269117
C       4.64068770      3.35494384     -6.75557777
H       5.60133262      1.53505820     -5.64078066
H       3.62787612      3.86195752     -7.16291307
H      -1.67522961     13.86418696     12.14532868
C       8.54479117     -7.39419114     -7.76113579
H     -10.56108502      0.14111111      5.63684960
H     -19.27119238     -7.16727529     -1.12682472
C      -9.30913699      4.96233571    -10.51117127
H     -10.83137853     -1.85900969      5.32336926
C      -0.70373054     -6.68641953     11.73169832
H     -10.40910188      4.90076969    -10.25095928
H      -2.93904294     -7.63592000     11.98709168
H      -0.70050653     -5.48001576     11.64755419
C       4.30264133      2.76606428     -3.85135387
H       6.02419084      5.14534534     -1.09022661
C       4.03478297      4.21496346     -0.18218128
H       3.06342107      2.70262761     -3.87000689
H       4.01043208      5.14159689      0.63904705
H       3.70228147      3.27686007      0.55362695
H       2.85821105      4.37993334     -0.51350138
H       8.82136890     -6.37104377     -8.40386586
H       8.66216290     -8.60071567     -8.02700743
H      11.30209138     -7.73111019     -7.13291025
H       8.03251967     -0.34359108      8.96025185
H      11.54815172      0.17022913      8.98627112
H      -1.57111538     -8.91448151     12.38134181
H       8.48958776     -0.42639331      6.28748368
H      -8.70102901     -4.16259313     22.46178521
H       8.20291855     13.22023169     11.17403681
H      -2.34916661     13.47719122     24.28698540
H      10.57342922      0.79725152     11.88249596
H       9.90047723      2.21862460      0.79938363
H      -3.43228164     12.93184613     11.85122138
H      12.11720796      2.34387958      2.82535507
H       1.13338668      1.57450149    -14.28218811
H      10.46618031     -5.38871515      5.27476911
H       6.57010334     -7.20329497     -8.69865271
H      10.97144670      2.15171082     10.74614559
C      -8.83797537     -1.27964184      6.56200740
C      -1.79785938     -7.70457621     12.45122209
C       8.95254192      0.34650385      8.48985024
C      10.38800007      0.01022582      9.35317876
C       9.05433720      0.52037787      6.80577174
C       9.13830048     13.77366803     11.58991485
C      10.65287231      0.97898550     10.68917373
C      -2.87736444     14.02782081     11.93505085
C      -1.82981509     14.44152086     23.89388545
C       6.49805550      2.99246455     -0.70668882
C      10.95311444      2.07627504      2.83291291
C      10.31998164      1.32314764      4.12207684
C      10.18740204     -7.37332137     -7.37024134
C       5.36145086      4.10060612     -1.27655227
C      10.95973810     -4.57943172      6.07009123
H       7.34139499      3.21239780      0.13433926
H       4.23665450     -7.90549562     -7.76299301
H      -7.84957092     -1.50340950      7.13746410
H      -8.57273024     -3.49036965     22.83602446
H      -1.92094950     -7.53973015     13.66784826
H       8.57438204      2.20542216      5.24464542
H       8.18600947      1.22302549      8.90563478
H      10.07368262     14.32710430     12.00579255
H      -1.31046356     15.40585048     23.50078547
H       4.16164520      1.66289821     -3.31014574
H       6.49057778      1.78274842     -0.58651936
H      -3.02923540     14.64643545     10.88130890
H      11.06323128     -3.66971523      5.23613385
H       1.07362851      2.34891889    -14.35365044
H      12.09298289     -5.08102498      6.04502174
H      11.31573656     -6.97931187     -7.33148347
H      -3.37271364     14.66881623     12.86234530
   94

C       6.81992333     -7.18460951     -7.47473365
C       5.11949856     -7.35478516     -7.09270592
H       7.03412479     -6.58565020     -6.41277828
C     -10.16968116     -0.97812121      5.78662609
H     -18.89185999     -7.18329685     -1.80818867
H       4.47155626     -6.35384387     -6.73364246
C      10.63033831     -1.58641107      9.16029664
H       4.47184664     -8.00289302     -6.26377647
H      -7.33803449     -5.79219454    -16.94280355
H      -7.33032330     -6.56158854    -16.81484488
C       9.58430033      1.59346041      5.56251541
H      10.18220367      2.49466590      6.15443273
C      11.00826181     -2.97026723      8.45349990
H      10.47544435      0.21108314      3.71614355
H      12.20438156     -2.90364764      8.58458327
H       0.32151117     -6.93136950     11.13962626
C      10.28622441     -4.21042897      7.60183598
H       9.04956380     -4.13445608      7.58071975
C       5.02665306      4.07129201     -2.97751058
H      10.14077590     -5.12849394      8.42171938
H       6.01329696      4.52139994     -3.58359641
H       4.44616046      5.11314917     -3.33725985
C       4.86729964      2.48040375     -5.40470154
H       5.45670497      3.71375141     -7.56686783
C       4.63830806      3.35690999     -6.76007269
H       5.59593409      1.53528461     -5.64796624
H       3.62416312      3.85974220     -7.16915751
H      -1.67522236     13.86417483     12.14530767
C       8.53774344     -7.39382812     -7.76483854
H     -10.56103991      0.14113743      5.63681892
H     -19.27118577     -7.16726916     -1.12682601
C      -9.30897803      4.96232714    -10.51107341
H     -10.83134575     -1.85898474      5.32335166
C      -0.70363006     -6.68637711     11.73167772
H     -10.40895073      4.90076610    -10.25089213
H      -2.93895844     -7.63587652     11.98707428
H      -0.70039908     -5.47997198     11.64754065
C       4.30733030      2.76857369     -3.85342697
H       6.04656729      5.13334218     -1.09288017
C       4.04348479      4.21408060     -0.17846584
H       3.06790022      2.70796897     -3.87022148
H       4.02753722      5.13917137      0.64406599
H       3.71564240      3.27302847      0.55569225
H       2.86766253      4.37943648     -0.51014425
H       8.80651787     -6.37176518     -8.41427036
H       8.64212876     -8.60384786     -8.02300446
H      11.27795136     -7.76705564     -7.11661086
H       8.03903313     -0.33323567      8.94374111
H      11.54674731      0.18115680      8.96832749
H      -1.57103100     -8.91443575     12.38131970
H       8.50600419     -0.41758583      6.27549171
H      -8.70101793     -4.16259184     22.46177845
H       8.20294142     13.22024190     11.17403152
H      -2.34916350     13.47718722     24.28698232
H      10.57138265      0.78544453     11.87911126
H      10.15275876      2.19787196      1.53035417
H      -3.43227189     12.93183102     11.85119647
H      11.85051600      2.35216383      2.65030945
H       1.13365399      1.57462924    -14.28149553
H      10.46286957     -5.38876414      5.27843982
H       6.56349482     -7.19758419     -8.69107044
H      10.97245035      2.14481097     10.75351649
C      -8.83793724     -1.27961620      6.56198183
C      -1.79777088     -7.70452898     12.45119702
C       8.95995545      0.35475358      8.47001833
C      10.38981291      0.01453939      9.34229012
C       9.07196006      0.53347765      6.78417430
C       9.13832469     13.77367491     11.58991044
C      10.65198159      0.97314114     10.68666884
C      -2.87735699     14.02780680     11.93502706
C      -1.82981241     14.44151727     23.89388281
C       6.47059080      2.99546329     -0.67080543
C      10.69149913      2.03208348      2.60782861
C      10.25301553      1.35216767      4.03306379
C      10.17881424     -7.37316947     -7.37112462
C       5.36499371      4.10113075     -1.27608466
C      10.96140581     -4.57864440      6.07006981
H       7.40895535      3.18873090      0.06262911
H       4.26132050     -7.90890008     -7.79631676
H      -7.84953394     -1.50338191      7.13744095
H      -8.57271924     -3.49036836     22.83601772
H      -1.92086225     -7.53968506     13.66782401
H       8.58165113      2.22011269      5.24209466
H       8.19363328      1.22953378      8.89031182
H      10.07370780     14.32710830     12.00578920
H      -1.31046131     15.40584731     23.50078330
H       4.16898232      1.66526201     -3.31196661
H       6.51860992      1.78583323     -0.61799713
H      -3.02922606     14.64641905     10.88128340
H      11.06534941     -3.66972246      5.23540441
H       1.07390796      2.34905099    -14.35291939
H      12.09405114     -5.08124370      6.04067333
H      11.29442559     -6.94271208     -7.33425159
H      -3.37270765     14.66880232     12.86232070
