   94
energy=      0.00000000
C     -10.41771130     -1.89344867     -4.08308120
C      -8.92774950     -2.27095956     -3.30996848
H     -10.21164210     -1.23172217     -5.12127614
C     -11.74197622     -1.23348588     -3.20510113
H     -10.79887146     -2.85344253     -4.78343639
H      -8.23210668     -1.34727112     -2.86158647
C       2.78292905     -2.22559046     -1.79270032
H      -8.91480473     -3.02718325     -2.32775381
H      -5.76756303     -4.75262803    -14.10543029
H      -5.75985184     -5.52202203    -13.97747162
C       4.05964350     -2.05418708     -2.69309853
H       3.31669815     -1.49336288     -3.51086389
C       5.61245789     -1.39866900     -2.32690312
H       3.95119575     -3.24553856     -2.99214415
H       5.37681701     -0.18432668     -2.47835781
H       6.11551935     -1.58113959     -3.45680320
C       6.84480687     -1.60881104     -1.07099001
H       7.63391271     -1.27104455     -1.94166501
C       6.49243117      0.05525052      0.90997201
H       6.62199611     -2.79792879     -0.77381847
H       6.26904163      1.04393483      0.20690128
H       6.83680043      1.18821472      1.27022851
C       5.06856061     -0.42977616      1.78818067
H       4.88982084      0.04018091      2.92148966
C       3.12568889      3.71836650    -10.75803011
H       4.90788149     -1.60679293      2.12109735
H       2.47968207      4.52649394    -11.21740874
H      -0.82303756     10.57625830     12.89440073
C      11.07224831     -5.17795351    -10.56489755
H     -11.62025369     -0.11940119     -2.67417010
H     -12.21916777     -1.86321599     -2.24960497
C     -21.94638825     -1.48206288     -2.24253776
H     -12.83211550     -1.00400817     -3.74919543
C      -1.96426515     -5.22513265     12.00915107
H     -22.62460498     -2.36708141     -2.24601179
H      -0.61897466     -5.29416969     10.14035556
H      -2.97969298     -4.88444476     12.48914425
C       3.51744910     -0.36356517      1.32393802
H      -2.23736449      3.85576887      3.15865420
C      -3.00613119      3.77825197      4.12054662
H       2.39733697     -0.60003112      1.03611823
H      -2.84371424      4.80956760      4.77116060
H      -2.85644299      2.85757538      4.92275580
H      -4.13983993      3.59128789      3.68191464
H      10.64283612     -4.09720691    -10.27246287
H      11.59484366     -5.34713329    -11.63082362
H      10.97906516     -6.08952032     -9.79140617
H       9.73841950      2.83065622     13.84589034
H       7.60575123      2.60943115     11.36044355
H      -0.58638143     -6.95742570     11.35878385
H      11.44165846      0.33584326     12.98921716
H      -8.70101793     -4.16259184     22.46177845
H       7.25101799      6.03724894      8.86804043
H      -2.43764841     11.04427169     15.61230457
H       9.81477410      5.06679693     10.81914078
H       9.76679612     -1.45799567     -1.19980217
H      -2.55863046      9.84599984     12.85599263
H      11.71484131     -1.29768775      1.39603798
H      22.75026404      0.04130417    -13.13509705
H       8.19959192     -2.02048872      2.89200788
H      25.95114173     -1.25922374     -0.91414507
H       8.80297145      3.82456445      9.45786660
C      17.28562260     -4.02390619     16.90142777
C      -0.62108591     -5.73240233     11.28704071
C       9.53540716      2.27995582     12.75474473
C       8.52329183      3.33427998     11.78306353
C      11.00235589      1.44516310     12.77775491
C       8.06775286      5.83048067      9.74408514
C       8.76916061      4.48929786     10.50260207
C      -1.99453290     10.92071849     13.10728210
C      -2.36171933     11.71628514     14.57355276
C       9.45994378     -1.50230094     -0.00632320
C      11.09527872     -1.03945337      0.35733558
C      12.35529702     -1.63731944     -0.40334740
C      25.65424051     -0.29178792     -1.55745191
C       7.75768402     -1.06170615      0.37434699
C       8.22646700     -1.18109410      2.01036338
H      25.20112133     -0.42093168     -2.66014451
H      -8.01529934     -2.85659933     -3.91125674
H      16.33763535     -3.74233552     17.45228738
H      -8.57271924     -3.49036836     22.83601772
H       0.45279353     -5.36925641     11.75692191
H      12.20443949      1.54030998     12.80095478
H       8.89312567      1.25248268     13.01091905
H       8.24193140      7.03290151      9.75391432
H      -1.59704905     12.60491109     14.97603992
H       7.78769271      3.97605074     12.55651214
H       9.56950368     -2.74534657      0.11837546
H      -2.21821821     11.50852447     12.03918957
H      11.42855894      0.14848559      0.28288609
H      22.64136139      0.81136653    -13.19463002
H       8.75099136     -0.43609911      2.83307527
H      25.81045846      0.80479167     -1.09806619
H      -3.43417302     12.33104550     14.66457716
   94
energy=      0.00000000
C     -10.99270541     -2.30008660     -4.65219305
C      -9.50181610     -2.67504129     -3.87962941
H     -10.78783504     -1.64168756     -5.69272207
C     -12.31591139     -1.63717284     -3.77483339
H     -11.37467209     -3.26244715     -5.34889225
H      -8.80984790     -1.75111913     -3.42612302
C       3.12477885     -2.36945085     -1.76347282
H      -9.48761279     -3.43612841     -2.90115405
H      -5.61764091     -4.84784364    -14.41808138
H      -5.60992972     -5.61723763    -14.29012270
C       4.33094064     -2.20391077     -2.75769900
H       3.55764435     -1.70690249     -3.58736985
C       5.85556518     -1.48457924     -2.40638366
H       4.25952377     -3.39418670     -3.07356518
H       5.61346692     -0.27131902     -2.56029265
H       6.35929845     -1.57973079     -3.54753859
C       7.05793805     -1.73547318     -1.13298215
H       7.85763157     -1.51572921     -2.02608678
C       6.75755220     -0.02044921      0.84226968
H       6.80481401     -2.90905042     -0.80629208
H       6.51737852      0.96602694      0.14147432
H       7.18682767      1.09287084      1.17457550
C       5.33725751     -0.48200659      1.73836448
H       5.16692657      0.01575342      2.85938353
C       3.12568889      3.71836650    -10.75803011
H       5.15952446     -1.64241909      2.12456753
H       2.47968207      4.52649394    -11.21740874
H      -0.86847612     11.85846979     11.07133504
C      11.13497355     -5.24039909    -10.72778114
H     -12.19185904     -0.52442945     -3.24167484
H     -12.79593477     -2.26744939     -2.82108959
C     -22.42595913     -1.47822930     -2.17844534
H     -13.40427902     -1.40228646     -4.32016759
C      -1.93779008     -5.32072363     12.10065812
H     -23.10417586     -2.36324783     -2.18191936
H      -0.57847042     -5.43667768     10.21108151
H      -2.93245654     -4.96201605     12.60960734
C       3.78985992     -0.37766777      1.27014136
H      -2.57259602      2.88753766      2.58030495
C      -3.36247235      2.86028566      3.52449948
H       2.63282739     -0.39299126      1.03709550
H      -3.23416474      3.90953544      4.15588777
H      -3.14281338      1.91881884      4.28699622
H      -4.50099461      2.72506345      3.07560612
H      10.70556136     -4.15965249    -10.43534646
H      11.65756889     -5.40957887    -11.79370722
H      11.04179040     -6.15196590     -9.95428976
H       9.68304168      2.89143587     13.88139045
H       7.54720167      2.65023071     11.33692368
H      -0.54976136     -7.05913241     11.40172981
H      11.28601815      0.37266688     12.79593684
H      -8.70101793     -4.16259184     22.46177845
H       7.20404097      5.84580838      9.03770748
H      -2.34780038     13.34541530     23.06331745
H      10.02984419      4.91847807     10.73407380
H       9.98031375     -1.44260314     -1.28929173
H      -2.59913393     10.94627990     10.85420583
H      11.89122284     -1.30069731      1.35250219
H      22.75026404      0.04130417    -13.13509705
H       8.36442675     -2.32301416      2.75608307
H      25.95114173     -1.25922372     -0.91414507
H       9.18755177      3.76151142      9.47423261
C      17.28562262     -4.02390620     16.90142778
C      -0.59972799     -5.83283395     11.37286053
C       9.45827902      2.31870456     12.80265321
C       8.48238453      3.33930945     11.78547071
C      10.93580868      1.53043894     12.68004755
C       8.10464385      5.72168363      9.84109138
C       8.92663173      4.40881225     10.50034165
C      -2.07164786     12.05740453     10.90420055
C      -1.88445237     14.28807137     22.56370612
C       9.67914334     -1.56015384     -0.09847557
C      11.28671620     -1.05556667      0.30321636
C      12.55746127     -1.63275545     -0.45460686
C      25.65424051     -0.29178792     -1.55745192
C       7.97435851     -1.18092107      0.30395191
C       8.40176745     -1.42269924      1.93877485
H      25.20112132     -0.42093169     -2.66014452
H      -8.58587805     -3.25290788     -4.48313555
H      16.33763551     -3.74233566     17.45228753
H      -8.57271924     -3.49036836     22.83601772
H       0.43200542     -5.42816889     11.90075879
H      12.08918187      1.87807023     12.56416705
H       8.79889797      1.32060577     13.13142717
H       8.22341457      6.92488687      9.94195242
H      -1.31532370     15.26251586     22.28183055
H       7.72280951      4.00282054     12.51773354
H       9.82571762     -2.80508536     -0.03213959
H      -2.20219485     12.70906980      9.86809545
H      11.56799143      0.14633000      0.25160959
H      22.64136139      0.81136653    -13.19463002
H       8.89494963     -0.74907910      2.83859654
H      25.81045847      0.80479166     -1.09806617
H      -2.60635955     12.70455572     11.80604972
