   94
energy=      0.00000000
C       6.90780487     -7.25427901    -13.21706537
C      -3.33980010    -13.05152339    -10.13445385
H       7.58779267     -6.52714195    -12.54862388
C      -0.95288394     -0.88108761      8.24222930
H      -5.69407940      8.55615352     -2.38910652
H       2.01008015     -2.55740147      7.63679498
C       0.38265928     -1.37450845      9.10529360
H       6.57319670     -8.32337614    -12.78928601
H      -9.00629938     -6.97077983    -19.18209263
H      -8.99858819     -7.74017383    -19.05413396
C       4.21932767      0.26753505     -3.73566767
H      16.72363584      5.80198181     13.90388378
C       8.58116346    -10.35794289      5.12291172
H       8.20041457     10.89813365     -2.21852480
H       8.78199196     -9.53579230      4.31929630
H       2.50425844    -10.90118632     17.33758517
C       7.24546396    -10.93672268      7.56512894
H       6.11821135    -10.97269067      7.07307678
C       7.45427173     11.10392998     -0.02230140
H       6.58710240    -10.94838381      8.59306511
H      11.29370050     15.61909498      8.91065878
H       6.85001616     11.71092451      0.77987945
C       8.22890101     10.27567748     -1.16083183
H      16.85665692      2.91566089     -5.08201493
C      15.75282822      2.69569544     -4.97145247
H       2.10719387      0.79902472     -3.04543184
H       7.70695062      9.17430202     -1.30786403
H      -2.55067572     10.61270638     11.84234489
C      17.12279749    -10.80109107     -8.05785180
H      -2.01266728     -0.53530191      8.74045470
H      -5.60556786      8.35050474     -0.46094616
C       3.40517604     -2.91586821     -3.56963055
H       0.03542990     -2.35828404      9.78339713
C       1.47819573    -10.71751696     17.93036419
H       3.42196205     -3.11575377     -2.37337923
H     -10.96213609    -12.27297242     15.66815272
H       1.07348491     -9.60107587     18.09678088
C       0.75271434     -1.21709601     -4.18706577
H      -2.53013503      8.61624264     -1.01314714
C      -3.22360094     10.87719984     -1.58834653
H      -0.27065853     -0.65256132     -4.40093346
H      -3.44324607     11.56484816     -0.58611472
H      -2.09365175     11.21639545     -1.94775478
H      -3.83395149     11.47087699     -2.47981010
H      17.54240420    -10.13041866     -8.96423904
H      17.17657401    -11.94365065     -8.42317532
H      16.99432910    -10.67728686     -5.54677467
H       3.00574739      0.52013417      6.99226692
H       0.35205053     -0.51864880      9.99843801
H       0.85684386    -11.65028868     18.35672652
H       4.74228343      0.22088305     -4.81397336
H      -9.42675544     -2.95204824     23.99740376
H       4.85328696     15.53096950     20.76096060
H      10.43232956     13.90921499      9.62381451
H       3.20082572     -1.28879917     10.71726286
H      26.59648769      7.39426669     -2.17327341
H      -4.58447377      9.53358198     11.50190853
H      27.28666125      7.54264242     -1.84154386
H      -1.10575632     -1.70543114      5.88851390
H       8.71281457    -12.43119437      6.07056336
H       6.56242889     -6.91231180    -14.31328610
H       4.29810864     -1.94930208      9.71934906
C      -1.02753011     -0.75926954      6.62799114
C     -10.36016020    -12.21606716     16.66242232
C       2.53710489     -0.45344231      7.45965133
C       1.93948722     -1.60029428      8.43310089
C       5.13165220      0.50288528     -2.48491125
C       9.47283100     15.96434886     10.46109677
C       3.13932599     -1.66848397      9.57764937
C      -3.56757474     10.07314418     11.67212671
C      10.46736879     15.10367970      9.60337994
C      -4.90141629      8.31869829     -1.47518943
C       2.29855748     -1.68683314     -4.05665601
C       2.69585168     -0.16426288     -3.52061705
C      16.53926581    -10.36512972     -6.61583544
C      -3.51868806      9.24904332     -1.35671539
C       8.19636257    -11.35940062      6.28484090
H       9.41155155     10.07121778     -0.90263209
H      -3.11177660    -13.81826260    -10.93541594
H      15.52495857     -9.74609469     -6.43219518
H      -9.29845674     -2.27982476     24.37164303
H      -9.75818431    -12.15916191     17.65669192
H      16.54780144      6.55543492     13.80493636
H       5.84444275      0.67522756     -1.58666108
H       5.54950501     15.73757849     21.04555355
H       8.75345210     16.60500014     11.11698476
H       1.92025370     -2.08982600     -5.15066153
H      -4.77766541      7.11447849     -1.71039967
H      -7.60795419     21.24264930      9.77839801
H       3.11497399     -4.05167170     -3.26343506
H      -0.90390974      0.24767221      5.97858365
H       8.08382945    -10.46711465      8.33252143
H       4.56053514     -3.25213564     -3.95202604
H      -7.74116572     21.25126849     10.54689030
   94
energy=      0.00000000
C       6.90947900     -7.25721585    -13.22195344
C      -3.33980010    -13.05152339    -10.13445385
H       7.58946685     -6.53008006    -12.55351048
C      -0.92143517     -0.95048244      8.21009052
H      -5.67568779      8.44356492     -3.04387304
H       2.07310683     -2.59413888      7.71970550
C       0.40604395     -1.41904355      9.10521906
H       6.57487020     -8.32631313    -12.79417524
H      -9.00629938     -6.97077983    -19.18209263
H      -8.99858819     -7.74017383    -19.05413396
C       4.29027886      0.32336067     -3.75212648
H      16.72375208      5.80181745     13.90395314
C       8.60587327    -10.39651924      5.11371226
H       8.23779155     10.89054271     -2.22622883
H       8.81967373     -9.58322006      4.30415724
H       2.50425844    -10.90118632     17.33758517
C       7.26783251    -10.96389409      7.56391559
H       6.14099129    -10.95967966      7.06976550
C       7.48868912     11.10478889     -0.02593010
H       6.62631250    -11.07047722      8.59796387
H      11.29441515     15.62092271      8.91323090
H       6.89639374     11.71107330      0.78562309
C       8.26413317     10.27624463     -1.16368529
H      16.85665692      2.91566089     -5.08201493
C      15.75282822      2.69569544     -4.97145247
H       2.16956226      0.72714435     -3.03473271
H       7.74514992      9.17441052     -1.31770983
H      -3.42522069     10.00422053     10.49962800
C      17.11427035    -10.81956279     -8.05957439
H      -1.99299770     -0.62167499      8.69371516
H      -5.63302241      8.27409564     -1.12139820
C       3.27047874     -2.95817357     -3.46877321
H       0.03859391     -2.42087392      9.74365561
C       1.47819573    -10.71751696     17.93036419
H       3.43522516     -3.03361256     -2.25132418
H     -10.96213609    -12.27297242     15.66815272
H       1.07348491     -9.60107587     18.09678088
C       0.70506877     -1.30897113     -4.16309679
H      -2.60839170      8.55806973     -1.69049857
C      -3.23215605     10.92424500     -2.23450852
H      -0.34312369     -0.79114786     -4.35875111
H      -3.45881926     11.59623164     -1.22480770
H      -2.09895202     11.24393525     -2.59317998
H      -3.85390182     11.50107943     -3.12864829
H      17.54585746    -10.11451734     -8.93366490
H      17.17684243    -11.95691851     -8.44247547
H      17.00638581    -10.65446101     -5.55018690
H       3.02855694      0.44162362      6.94129527
H       0.36145518     -0.57795086     10.01189194
H       0.85684386    -11.65028868     18.35672652
H       4.82514920      0.39116788     -4.82458991
H      -9.42675544     -2.95204824     23.99740376
H       4.85219013     15.53101275     20.76342173
H      10.43269304     13.91174969      9.62669653
H       3.28858760     -1.36384531     10.76947382
H      26.59648769      7.39426669     -2.17327341
H      -4.50224887      9.49570640     10.67170769
H      27.28666125      7.54264242     -1.84154386
H      -1.15438670     -1.75740019      5.84171482
H       8.72668950    -12.46251073      6.06365223
H       6.56410141     -6.91525145    -14.31817456
H       4.35840101     -2.09993750      9.64907503
C      -1.03470651     -0.82763641      6.59660452
C     -10.36016020    -12.21606716     16.66242232
C       2.56671350     -0.48028368      7.50866361
C       1.99166794     -1.62589474      8.49682598
C       5.20973696      0.56286666     -2.49979838
C       9.47739343     15.96690470     10.46864291
C       3.21227609     -1.72833654      9.62222631
C      -4.02495630      9.54183177      9.59456629
C      10.46969916     15.10618094      9.60837137
C      -4.97288432      8.58784684     -2.07635196
C       2.27612258     -1.69554166     -4.06885372
C       2.77488811     -0.18552004     -3.57351765
C      16.53046832    -10.37749127     -6.61960875
C      -3.51770639      9.30641014     -1.99906974
C       8.21580232    -11.38925892      6.28180260
H       9.44483818     10.07988017     -0.89073556
H      -3.11177660    -13.81826260    -10.93541594
H      15.52727852     -9.74098272     -6.43410194
H      -9.29845674     -2.27982476     24.37164303
H      -9.75818431    -12.15916191     17.65669192
H      16.54791768      6.55527056     13.80500571
H       5.87543758      0.69643943     -1.55471086
H       5.54840818     15.73762175     21.04801467
H       8.75221330     16.60707179     11.11860455
H       2.06113651     -2.05732105     -5.22756683
H      -4.12035790      9.28411271      8.42219437
H      -7.60795419     21.24264930      9.77839801
H       2.99112778     -4.15084172     -3.38373681
H      -0.93705699      0.18421906      5.95037700
H       8.08693501    -10.44595393      8.32168665
H       4.39570895     -3.18828885     -3.96037803
H      -7.74116572     21.25126849     10.54689030
