   94

C       6.81992333     -7.18460951     -7.47473365
C       5.11949856     -7.35478516     -7.09270592
H       7.03412479     -6.58565020     -6.41277828
C     -10.16968116     -0.97812121      5.78662609
H     -18.89185999     -7.18329685     -1.80818867
H       4.47155626     -6.35384387     -6.73364246
C      10.63033831     -1.58641107      9.16029664
H       4.47184664     -8.00289302     -6.26377647
H      -7.33803449     -5.79219454    -16.94280355
H      -7.33032330     -6.56158854    -16.81484488
C       9.58430033      1.59346041      5.56251541
H      10.18220367      2.49466590      6.15443273
C      11.00826181     -2.97026723      8.45349990
H      10.47544435      0.21108314      3.71614355
H      12.20438156     -2.90364764      8.58458327
H       0.32151117     -6.93136950     11.13962626
C      10.28622441     -4.21042897      7.60183598
H       9.04956380     -4.13445608      7.58071975
C       5.02665306      4.07129201     -2.97751058
H      10.14077590     -5.12849394      8.42171938
H       6.01329696      4.52139994     -3.58359641
H       4.44616046      5.11314917     -3.33725985
C       4.86729964      2.48040375     -5.40470154
H       5.45670497      3.71375141     -7.56686783
C       4.63830806      3.35690999     -6.76007269
H       5.59593409      1.53528461     -5.64796624
H       3.62416312      3.85974220     -7.16915751
H      -1.67522236     13.86417483     12.14530767
C       8.53774344     -7.39382812     -7.76483854
H     -10.56103991      0.14113743      5.63681892
H     -19.27118577     -7.16726916     -1.12682601
C      -9.30897803      4.96232714    -10.51107341
H     -10.83134575     -1.85898474      5.32335166
C      -0.70363006     -6.68637711     11.73167772
H     -10.40895073      4.90076610    -10.25089213
H      -2.93895844     -7.63587652     11.98707428
H      -0.70039908     -5.47997198     11.64754065
C       4.30733030      2.76857369     -3.85342697
H       6.04656729      5.13334218     -1.09288017
C       4.04348479      4.21408060     -0.17846584
H       3.06790022      2.70796897     -3.87022148
H       4.02753722      5.13917137      0.64406599
H       3.71564240      3.27302847      0.55569225
H       2.86766253      4.37943648     -0.51014425
H       8.80651787     -6.37176518     -8.41427036
H       8.64212876     -8.60384786     -8.02300446
H      11.27795136     -7.76705564     -7.11661086
H       8.03903313     -0.33323567      8.94374111
H      11.54674731      0.18115680      8.96832749
H      -1.57103100     -8.91443575     12.38131970
H       8.50600419     -0.41758583      6.27549171
H      -8.70101793     -4.16259184     22.46177845
H       8.20294142     13.22024190     11.17403152
H      -2.34916350     13.47718722     24.28698232
H      10.57138265      0.78544453     11.87911126
H      10.15275876      2.19787196      1.53035417
H      -3.43227189     12.93183102     11.85119647
H      11.85051600      2.35216383      2.65030945
H       1.13365399      1.57462924    -14.28149553
H      10.46286957     -5.38876414      5.27843982
H       6.56349482     -7.19758419     -8.69107044
H      10.97245035      2.14481097     10.75351649
C      -8.83793724     -1.27961620      6.56198183
C      -1.79777088     -7.70452898     12.45119702
C       8.95995545      0.35475358      8.47001833
C      10.38981291      0.01453939      9.34229012
C       9.07196006      0.53347765      6.78417430
C       9.13832469     13.77367491     11.58991044
C      10.65198159      0.97314114     10.68666884
C      -2.87735699     14.02780680     11.93502706
C      -1.82981241     14.44151727     23.89388281
C       6.47059080      2.99546329     -0.67080543
C      10.69149913      2.03208348      2.60782861
C      10.25301553      1.35216767      4.03306379
C      10.17881424     -7.37316947     -7.37112462
C       5.36499371      4.10113075     -1.27608466
C      10.96140581     -4.57864440      6.07006981
H       7.40895535      3.18873090      0.06262911
H       4.26132050     -7.90890008     -7.79631676
H      -7.84953394     -1.50338191      7.13744095
H      -8.57271924     -3.49036836     22.83601772
H      -1.92086225     -7.53968506     13.66782401
H       8.58165113      2.22011269      5.24209466
H       8.19363328      1.22953378      8.89031182
H      10.07370780     14.32710830     12.00578920
H      -1.31046131     15.40584731     23.50078330
H       4.16898232      1.66526201     -3.31196661
H       6.51860992      1.78583323     -0.61799713
H      -3.02922606     14.64641905     10.88128340
H      11.06534941     -3.66972246      5.23540441
H       1.07390796      2.34905099    -14.35291939
H      12.09405114     -5.08124370      6.04067333
H      11.29442559     -6.94271208     -7.33425159
H      -3.37270765     14.66880232     12.86232070
   94

C       6.82520278     -7.17086483     -7.47838360
C       5.13049151     -7.36116075     -7.08910402
H       7.04726600     -6.56925852     -6.41877015
C     -10.17058456     -0.97981524      5.79151045
H     -18.89351346     -7.18510565     -1.80713116
H       4.47243942     -6.36368051     -6.73791895
C      10.55471239     -1.60390089      9.08440805
H       4.51772927     -8.02534501     -6.24600777
H      -7.35019974     -5.81146702    -16.95206753
H      -7.34260366     -6.58065253    -16.82286221
C       9.59524954      1.64597665      5.62322162
H      10.22207876      2.52834613      6.21347446
C      10.83100903     -2.97364144      8.29788144
H      10.51016796      0.25891640      3.79234211
H      12.02643199     -2.97291500      8.44818521
H       0.31981243     -6.93153191     11.14043643
C      10.05089967     -4.16054002      7.41366450
H       8.81961636     -4.06124064      7.49770576
C       4.99375880      4.11590568     -3.05923221
H       9.98739830     -5.11354929      8.20207949
H       5.98581318      4.55926073     -3.66156533
H       4.41693267      5.15859910     -3.42260599
C       4.83641902      2.52319606     -5.48981704
H       5.43249920      3.75751134     -7.65070799
C       4.61195040      3.39692668     -6.84767733
H       5.55986617      1.57442431     -5.73446481
H       3.59655127      3.89109002     -7.26399666
H      -1.67527458     13.86465077     12.14592698
C       8.53656339     -7.39708645     -7.78137499
H     -10.56232842      0.13941129      5.64247177
H     -19.27271175     -7.16879105     -1.12570473
C      -7.71351517      4.21198980     -9.00523488
H     -10.83222550     -1.86071915      5.32828134
C      -0.70520239     -6.68650369     11.73266463
H      -8.83086789      4.16327883     -8.78973967
H      -2.94021631     -7.63641228     11.98798542
H      -0.70199404     -5.48010430     11.64855568
C       4.27804072      2.81322635     -3.93808864
H       6.00243874      5.18110309     -1.17017489
C       4.00119863      4.26005569     -0.25900292
H       3.03864585      2.75416104     -3.95553670
H       3.98546137      5.18187415      0.56745481
H       3.67210796      3.31761320      0.47280372
H       2.82608771      4.42910526     -0.59223826
H       8.81124426     -6.39518997     -8.45950004
H       8.62930254     -8.60778694     -8.04069350
H      11.24801774     -7.81348132     -7.08743685
H       8.01930445     -0.27459211      9.00979935
H      11.55102516      0.13911857      8.99116395
H      -1.57216304     -8.91486579     12.38216105
H       8.41821264     -0.30799513      6.32111134
H      -8.70108541     -4.16261907     22.46195639
H       8.20285088     13.22165923     11.17462797
H      -2.34919351     13.47726360     24.28712396
H      10.59789013      0.71738290     11.90447814
H      10.19017208      2.21171554      1.59833872
H      -3.43232713     12.93229832     11.85183658
H      11.88840251      2.38925510      2.69342064
H       1.14824052      1.56989536    -14.36232034
H      10.03244906     -5.41147037      5.14746421
H       6.55857915     -7.15411608     -8.69239864
H      11.00587314      2.08681066     10.81268503
C      -8.83822479     -1.28108053      6.56587684
C      -1.79903330     -7.70499174     12.45211331
C       8.94605095      0.39444276      8.51971338
C      10.38476866     -0.00190523      9.34779948
C       9.04452970      0.59956308      6.83742123
C       9.13838083     13.77488832     11.59044426
C      10.67074840      0.92106636     10.71377169
C      -2.87741061     14.02827357     11.93565175
C      -1.82984292     14.44159522     23.89402726
C       6.43168892      3.04180489     -0.75522848
C      10.72576239      2.07942373      2.68085072
C      10.28120216      1.40026215      4.10366289
C      10.16853786     -7.37474198     -7.35820890
C       5.32360446      4.14773678     -1.35598653
C      10.58149690     -4.52887910      5.82074917
H       7.37855989      3.22842549     -0.03058921
H       4.27687716     -7.91946570     -7.79538266
H      -7.84940206     -1.50452078      7.14073003
H      -8.57278352     -3.49039270     22.83618939
H      -1.92203586     -7.54017755     13.66874661
H       8.60769907      2.29647618      5.30081974
H       8.20729059      1.28530506      8.95497291
H      10.07389187     14.32814165     12.00627036
H      -1.31049182     15.40592605     23.50092927
H       4.14212491      1.70986779     -3.39612916
H       6.48803715      1.83247390     -0.70967021
H      -3.02927902     14.64690508     10.88192021
H      10.59322535     -3.61302379      4.76969910
H       1.09036818      2.34434905    -14.43495931
H      11.73203378     -4.97312745      5.69621544
H      11.27025314     -6.90576045     -7.32131106
H      -3.37276604     14.66926105     12.86294750
   94

C       6.83217254     -7.15823432     -7.48241172
C       5.14351027     -7.36957087     -7.08634861
H       7.06189478     -6.55409477     -6.42512514
C     -10.17383697     -0.98291409      5.80138191
H     -18.89549547     -7.18653484     -1.80658063
H       4.47508704     -6.37595926     -6.74286567
C      10.48386411     -1.62567400      9.00109668
H       4.56605456     -8.04917234     -6.23020899
H      -7.36425652     -5.82676261    -16.95996156
H      -7.35645482     -6.59586463    -16.83027086
C       9.61582563      1.69473316      5.68890511
H      10.26522271      2.55997806      6.28019582
C      10.65650999     -2.96729049      8.13146081
H      10.61396907      0.30911283      3.90157227
H      11.84744669     -3.03832840      8.29859823
H       0.31825765     -6.93183496     11.14170667
C       9.81392156     -4.09820869      7.22210958
H       8.59792247     -3.98846611      7.42312467
C       4.98007350      4.16317882     -3.13610050
H       9.84193035     -5.08724056      7.96582374
H       5.97768714      4.60136570     -3.73306491
H       4.40596982      5.20576077     -3.50397658
C       4.83352081      2.56811144     -5.57227021
H       5.44269711      3.80003517     -7.73310700
C       4.61900303      3.43960127     -6.93310494
H       5.54663268      1.61205419     -5.81911141
H       3.60570632      3.92975568     -7.35886313
H      -1.67530021     13.86524220     12.14669057
C       8.53664722     -7.40173690     -7.79831403
H     -10.56637761      0.13622620      5.65372032
H     -19.27450609     -7.17001174     -1.12505513
C      -6.32947869      3.45094696     -7.56057274
H     -10.83528647     -1.86383255      5.33788727
C      -0.70668875     -6.68674484     11.73399650
H      -7.45488783      3.42053017     -7.35108590
H      -2.94140115     -7.63706062     11.98916828
H      -0.70344801     -5.48034871     11.64996873
C       4.27666270      2.85735464     -4.01973406
H       5.97183506      5.23057654     -1.24037802
C       3.97237646      4.30757476     -0.33428384
H       3.03752686      2.79863258     -4.03833707
H       3.95569316      5.22597541      0.49625802
H       3.64047653      3.36378204      0.39453681
H       2.79866625      4.48088197     -0.67071930
H       8.81689901     -6.42102896     -8.50486248
H       8.61760677     -8.61306818     -8.05853270
H      11.21676935     -7.85994727     -7.05863990
H       8.00946776     -0.22804823      9.07445032
H      11.56084728      0.08174544      9.01317708
H      -1.57323641     -8.91542560     12.38326847
H       8.34920203     -0.20309432      6.36666653
H      -8.70115146     -4.16265091     22.46217267
H       8.20282434     13.22298376     11.17535370
H      -2.34921741     13.47733837     24.28726725
H      10.62744718      0.63764848     11.92697801
H      10.23004817      2.22062373      1.67647871
H      -3.43235964     12.93288996     11.85263792
H      11.93077599      2.43534173      2.73778294
H       1.16451497      1.56793269    -14.45755070
H       9.62667020     -5.42916953      5.03844894
H       6.55559946     -7.11120782     -8.69328522
H      11.04408001      2.01572766     10.86923545
C      -8.84028526     -1.28378355      6.57388394
C      -1.80022958     -7.70558437     12.45331224
C       8.94109793      0.42365770      8.56978180
C      10.38572398     -0.03097957      9.35224550
C       9.02930547      0.65851046      6.89223298
C       9.13849216     13.77603818     11.59108798
C      10.69571710      0.85651397     10.73829954
C      -2.87743742     14.02886330     11.93642613
C      -1.82986755     14.44167164     23.89417326
C       6.40465759      3.08872529     -0.83277301
C      10.76838329      2.12395595      2.76031659
C      10.32224770      1.44445843      4.18110844
C      10.15961115     -7.37692258     -7.34745461
C       5.29595691      4.19622858     -1.43017947
C      10.16667572     -4.44807403      5.57031913
H       7.35985313      3.26780464     -0.11676221
H       4.29494827     -7.93193404     -7.79591400
H      -7.85054911     -1.50663589      7.14739188
H      -8.57284546     -3.49042013     22.83639635
H      -1.92314841     -7.54080591     13.66995142
H       8.64189403      2.36461707      5.36243540
H       8.22960430      1.32850698      9.02108039
H      10.07412385     14.32913615     12.00684469
H      -1.31051682     15.40600341     23.50107673
H       4.14331522      1.75368438     -3.47761319
H       6.46822941      1.87968103     -0.79447047
H      -3.02931053     14.64751804     10.88271000
H       9.94353424     -3.58295294      4.30264150
H       1.10663711      2.34233923    -14.53073123
H      11.33346858     -4.78106097      5.31968523
H      11.24564014     -6.86897865     -7.30910217
H      -3.37279964     14.66984302     12.86372267
   94

C       6.84106213     -7.14681172     -7.48727582
C       5.15876055     -7.38024220     -7.08531530
H       7.07804701     -6.54045448     -6.43213450
C     -10.18201514     -0.98748209      5.81853490
H     -18.89772458     -7.18766392     -1.80643493
H       4.47966205     -6.39088736     -6.74954436
C      10.41546325     -1.65230351      8.91537017
H       4.61690250     -8.07460667     -6.21730890
H      -7.37830515     -5.83852140    -16.96485120
H      -7.37039320     -6.60767485    -16.83546742
C       9.64700050      1.72713642      5.75451119
H      10.31664220      2.57731793      6.34525527
C      10.48296251     -2.95658742      7.96786066
H      10.74136911      0.32548544      4.02728267
H      11.66603194     -3.10059899      8.14386635
H       0.31704654     -6.93231802     11.14343197
C       9.57857667     -4.01858914      7.02340775
H       8.38938526     -3.91575771      7.34794312
C       5.00784737      4.22357966     -3.20988612
H       9.70169680     -5.05175813      7.69210084
H       6.01071283      4.66086777     -3.79844460
H       4.43300841      5.26345459     -3.58367661
C       4.88620796      2.62943122     -5.66069940
H       5.49617100      3.85109631     -7.82459952
C       4.67029037      3.49671713     -7.02390628
H       5.57697598      1.65908427     -5.91564719
H       3.66099264      3.98651876     -7.45929348
H      -1.67531845     13.86588067     12.14738739
C       8.53827554     -7.40784666     -7.81581057
H     -10.57563849      0.13152392      5.67246843
H     -19.27652299     -7.17100729     -1.12479496
C      -5.32752526      2.54211996     -6.20264881
H     -10.84285993     -1.86833745      5.35397876
C      -0.70791106     -6.68716710     11.73564636
H      -6.43935246      2.64171005     -5.92440062
H      -2.94237985     -7.63784385     11.99062036
H      -0.70459205     -5.48076815     11.65179189
C       4.33623528      2.90919331     -4.10428797
H       5.97163350      5.28840814     -1.30174292
C       3.97355361      4.36492299     -0.40465250
H       3.09777207      2.84692295     -4.12383975
H       3.95458898      5.27871627      0.43136142
H       3.63409015      3.41985590      0.31910366
H       2.80319706      4.54592294     -0.74816743
H       8.82369632     -6.44923253     -8.55033860
H       8.60736217     -8.61975967     -8.07667090
H      11.18438553     -7.90630388     -7.02984080
H       8.00742897     -0.19344658      9.14034285
H      11.57341085      0.00764220      9.03697891
H      -1.57411502     -8.91614091     12.38461693
H       8.29133739     -0.10591512      6.41713390
H      -8.70121329     -4.16268508     22.46242636
H       8.20287330     13.22405404     11.17609507
H      -2.34923478     13.47740662     24.28738852
H      10.65829256      0.54913399     11.94779292
H      10.27391248      2.21244536      1.76610769
H      -3.43238855     12.93353988     11.85338476
H      11.97662042      2.46449056      2.79035761
H       1.15581533      1.57414523    -14.54086355
H       9.22751783     -5.35976474      4.88821640
H       6.55502498     -7.06894791     -8.69420443
H      11.08516741      1.93331069     10.92246729
C      -8.84676218     -1.28785910      6.58848602
C      -1.80121969     -7.70633208     12.45477573
C       8.94323001      0.44182379      8.62190471
C      10.38996418     -0.07350526      9.35788319
C       9.02184382      0.70783936      6.95000594
C       9.13864946     13.77698628     11.59174464
C      10.72391757      0.78132985     10.76110511
C      -2.87745602     14.02950976     11.93713637
C      -1.82988577     14.44174085     23.89429555
C       6.40238051      3.14128550     -0.90268711
C      10.82108512      2.13163324      2.84549739
C      10.37380268      1.44956977      4.26285573
C      10.15237378     -7.37987859     -7.33890569
C       5.29817935      4.25427137     -1.49949629
C       9.73017709     -4.31253250      5.32301228
H       7.36440091      3.31032059     -0.19305886
H       4.31587369     -7.94652483     -7.79892938
H      -7.85543407     -1.50993674      7.15957926
H      -8.57290247     -3.49044782     22.83663676
H      -1.92406894     -7.54160233     13.67142131
H       8.68810981      2.41570244      5.42013868
H       8.25861895      1.35951609      9.08836924
H      10.07437648     14.32997429     12.00742943
H      -1.31053565     15.40607308     23.50119912
H       4.20859568      1.80365864     -3.56434272
H       6.46938148      1.93232940     -0.87060917
H      -3.02933726     14.64817783     10.88343030
H       9.21446812     -3.48687304      3.91527473
H       1.09545091      2.34859366    -14.61155546
H      10.88362221     -4.53391288      4.93161954
H      11.22066587     -6.83228548     -7.29761248
H      -3.37282220     14.67048427     12.86443366
   94

C       6.85190010     -7.13497332     -7.49306795
C       5.17632393     -7.39202549     -7.08679346
H       7.09544703     -6.52683950     -6.43972276
C     -10.20167409     -0.99328326      5.85030684
H     -18.90089214     -7.18887440     -1.80657284
H       4.48620051     -6.40722214     -6.75926419
C      10.34615833     -1.68290737      8.82397727
H       4.67025827     -8.10040000     -6.20805834
H      -7.39152762     -5.84872933    -16.96777290
H      -7.38367956     -6.61799073    -16.83902300
C       9.68214730      1.74490598      5.81808228
H      10.37449041      2.57827287      6.40671611
C      10.30733135     -2.94253358      7.80680069
H      10.83098542      0.31192498      4.13708418
H      11.47879328     -3.15930812      7.98604468
H       0.31642963     -6.93307469     11.14579678
C       9.34395218     -3.92251878      6.82048603
H       8.19184148     -3.84305742      7.26277793
C       5.07566238      4.31618990     -3.29650019
H       9.55515569     -5.00187668      7.38339467
H       6.08209509      4.75623209     -3.87632507
H       4.49651623      5.35209495     -3.67426528
C       4.98037986      2.73211632     -5.77428135
H       5.51426352      3.93677462     -7.95213662
C       4.70219865      3.57901962     -7.13880461
H       5.63412016      1.74197026     -6.05013501
H       3.68122856      4.04988746     -7.56794360
H      -1.67533962     13.86646514     12.14778104
C       8.54139857     -7.41422030     -7.83355087
H     -10.59587827      0.12564784      5.70435898
H     -19.27940877     -7.17210337     -1.12477935
C      -4.67091050      1.10558731     -4.64128686
H     -10.86123878     -1.87385861      5.38314431
C      -0.70860318     -6.68790435     11.73784937
H      -5.56080263      1.83834226     -4.51782617
H      -2.94294613     -7.63887679     11.99265029
H      -0.70513191     -5.48148758     11.65435535
C       4.44322731      2.99748809     -4.21171106
H       6.01345671      5.36508722     -1.37151040
C       4.01432409      4.45487702     -0.48353027
H       3.20527463      2.93020128     -4.23142207
H       3.99901502      5.36070267      0.36183957
H       3.65861277      3.50965870      0.23216984
H       2.85028585      4.65600140     -0.83608535
H       8.83166260     -6.47838760     -8.59531600
H       8.59842289     -8.62667053     -8.09483961
H      11.15054777     -7.95153556     -7.00035244
H       8.01026327     -0.17243838      9.20412732
H      11.58497991     -0.08369914      9.05789322
H      -1.57457879     -8.91711565     12.38643956
H       8.24026090     -0.01753336      6.46900400
H      -8.70127185     -4.16272373     22.46277980
H       8.20297213     13.22479954     11.17679657
H      -2.34923980     13.47746369     24.28746940
H      10.68876698      0.45253312     11.96370403
H      10.32280828      2.19872853      1.85870974
H      -3.43242273     12.93414691     11.85383113
H      12.02668444      2.46851380      2.85067452
H       1.12666491      1.58212573    -14.59435179
H       8.79785610     -5.20150458      4.70203413
H       6.55721987     -7.02602777     -8.69534171
H      11.12739632      1.83968293     10.96847824
C      -8.86456356     -1.29337644      6.61790711
C      -1.80177027     -7.70733633     12.45675101
C       8.94927401      0.44767099      8.67258379
C      10.39434657     -0.12965457      9.36117590
C       9.01830918      0.74631968      7.00726832
C       9.13882607     13.77765809     11.59236688
C      10.75306251      0.69560562     10.77868690
C      -2.87747594     14.03011195     11.93754073
C      -1.82989190     14.44179739     23.89437371
C       6.42827257      3.20997214     -0.98231655
C      10.87830835      2.11655732      2.93232452
C      10.42658263      1.42992427      4.34440483
C      10.14669691     -7.38270524     -7.33191641
C       5.33662584      4.33570202     -1.58108766
C       9.29693900     -4.13677319      5.09513779
H       7.39315046      3.36171739     -0.27209955
H       4.34005487     -7.96231397     -7.80537633
H      -7.87060203     -1.51472530      7.18487839
H      -8.57295427     -3.49047499     22.83696726
H      -1.92456682     -7.54267373     13.67340558
H       8.74019036      2.45428957      5.47668884
H       8.29119303      1.37679209      9.15422121
H      10.07462071     14.33058157     12.00798293
H      -1.31054279     15.40612902     23.50127447
H       4.32569600      1.88787211     -3.67840142
H       6.48873240      2.00057809     -0.95358914
H      -3.02936656     14.64876927     10.88383053
H       8.52804038     -3.29056602      3.61162490
H       1.06488510      2.35666676    -14.66272510
H      10.41163919     -4.29252591      4.58213438
H      11.19495446     -6.79467597     -7.28632284
H      -3.37284024     14.67108625     12.86483872
   94

C       6.86567616     -7.12149528     -7.50196306
C       5.19734726     -7.40579139     -7.09494114
H       7.11407423     -6.51242220     -6.44957882
C     -10.24770176     -0.99262942      5.89834078
H     -18.90334318     -7.18867421     -1.80761648
H       4.49533164     -6.42588672     -6.77748331
C      10.27351597     -1.71378035      8.72372793
H       4.72719327     -8.12743479     -6.20669465
H      -7.40395835     -5.85778871    -16.96787500
H      -7.39625795     -6.62717844    -16.83988380
C       9.71409213      1.75161989      5.87441695
H      10.43158148      2.56568123      6.45994711
C      10.12850098     -2.92168701      7.64516742
H      10.88660471      0.27953342      4.22679271
H      11.28317903     -3.21304913      7.82762310
H       0.31699817     -6.93519828     11.15182676
C       9.10988753     -3.80907080      6.61519119
H       8.00319617     -3.77067363      7.16513340
C       5.11754567      4.44379397     -3.41663829
H       9.40082417     -4.92761192      7.04744829
H       6.12734689      4.87299005     -3.99852861
H       4.54370259      5.48325894     -3.79315672
C       5.01540503      2.86267019     -5.91641108
H       5.43861407      4.04348841     -8.11539091
C       4.65065775      3.66363316     -7.28861543
H       5.63470476      1.85361886     -6.20370850
H       3.60653430      4.09786424     -7.70058346
H      -1.67546933     13.86696532     12.14779841
C       8.54704376     -7.41976666     -7.85246554
H     -10.63632095      0.12706758      5.74168502
H     -19.28173338     -7.17203756     -1.12574906
C      -3.66534168     -0.51730566     -2.61843264
H     -10.90484551     -1.87210706      5.42508847
C      -0.70833144     -6.69012035     11.74339660
H      -4.30797434      0.40598785     -2.93883498
H      -2.94300757     -7.64121355     11.99781658
H      -0.70433260     -5.48362401     11.66111998
C       4.48554917      3.14095219     -4.35395442
H       6.07995822      5.46309786     -1.49073552
C       4.07370483      4.61524258     -0.58855261
H       3.24701155      3.08644045     -4.37079986
H       4.08653072      5.51644080      0.26249834
H       3.69818552      3.68027287      0.12986920
H       2.91600452      4.85422905     -0.93785186
H       8.84201965     -6.50689882     -8.64010340
H       8.59199725     -8.63271725     -8.11389219
H      11.11565814     -7.99428172     -6.96997692
H       8.01466321     -0.16429333      9.26026670
H      11.59168462     -0.18897356      9.07064976
H      -1.57452959     -8.91945705     12.39102699
H       8.19334657      0.06151244      6.51555532
H      -8.70141111     -4.16276901     22.46345476
H       8.20312335     13.22516650     11.17735357
H      -2.34923313     13.47752409     24.28752389
H      10.71683487      0.34951710     11.97077436
H      10.36082955      2.18410248      1.94458694
H      -3.43257247     12.93467369     11.85387572
H      12.06779646      2.45705565      2.90676295
H       1.09768454      1.58431073    -14.64019045
H       8.34929212     -4.98566532      4.51449428
H       6.56399524     -6.98160484     -8.69914389
H      11.16819113      1.73671248     11.00331362
C      -8.91557532     -1.29446209      6.67614856
C      -1.80174006     -7.70970586     12.46166289
C       8.95567010      0.44227069      8.71604181
C      10.39542391     -0.19637522      9.35731221
C       9.01495186      0.77426664      7.05811235
C       9.13902737     13.77798878     11.59285726
C      10.77980054      0.60136166     10.78700482
C      -2.87760162     14.03062871     11.93755045
C      -1.82988583     14.44185414     23.89441873
C       6.45022603      3.30061627     -1.10377204
C      10.92595195      2.08970485      3.01085085
C      10.46977896      1.39696796      4.41725666
C      10.14313963     -7.38420578     -7.32617129
C       5.37968901      4.44938571     -1.70077323
C       8.87359966     -3.92766833      4.88936325
H       7.41533855      3.42024170     -0.38636697
H       4.36936646     -7.98057977     -7.81987891
H      -7.92125060     -1.51682573      7.24276392
H      -8.57307542     -3.49049579     22.83759203
H      -1.92455422     -7.54517353     13.67833067
H       8.78964446      2.48300039      5.52899880
H       8.32380282      1.38112294      9.21357950
H      10.07486094     14.33088794     12.00841597
H      -1.31053736     15.40618263     23.50131121
H       4.36781035      2.03166265     -3.82158232
H       6.48942667      2.09029015     -1.08065084
H      -3.02950316     14.64924540     10.88381845
H       7.89488948     -3.01468828      3.35777557
H       1.03625248      2.35879623    -14.70946463
H       9.93838795     -4.04169595      4.27222641
H      11.16864871     -6.75468336     -7.27483495
H      -3.37295836     14.67160827     12.86484870
   94

C       6.88105249     -7.10897192     -7.51918872
C       5.21916947     -7.42287556     -7.11951738
H       7.13114873     -6.50019861     -6.46636331
C     -10.27680002     -0.97437971      5.87718359
H     -18.89971935     -7.18579795     -1.80884732
H       4.50363218     -6.44817575     -6.81617371
C      10.19913940     -1.74063249      8.61773637
H       4.78426865     -8.15752227     -6.22374880
H      -7.41594409     -5.86764521    -16.96653286
H      -7.40831272     -6.63708389    -16.83883609
C       9.74072305      1.74964189      5.92190289
H      10.48485509      2.54275372      6.50284063
C       9.95104609     -2.89065882      7.48640059
H      10.91955066      0.23501152      4.30005354
H      11.08201841     -3.25995288      7.67585960
H       0.31948056     -6.94237537     11.17433171
C       8.88311498     -3.67834610      6.41398080
H       7.82772468     -3.70013115      7.05716537
C       5.04415622      4.55006118     -3.56194968
H       9.24687536     -4.82109750      6.69702430
H       6.05740970      4.94356972     -4.16364749
H       4.48796553      5.59670646     -3.94645438
C       4.88378882      2.93908366     -6.04325918
H       5.31530256      4.11025386     -8.24577973
C       4.52410736      3.71625817     -7.42900967
H       5.51862419      1.93489050     -6.31266187
H       3.47383118      4.13034357     -7.84551102
H      -1.67581085     13.86714673     12.14744793
C       8.55494941     -7.42566193     -7.87503822
H     -10.65386192      0.14701296      5.70617126
H     -19.27858597     -7.16958675     -1.12723340
C      -1.59117309     -2.05936653     -0.41821524
H     -10.93089084     -1.85379933      5.39990673
C      -0.70791508     -6.69746134     11.76235941
H      -2.40626164     -1.33644915     -0.86333415
H      -2.94483553     -7.64786432     12.01324173
H      -0.70187920     -5.49068011     11.68475356
C       4.35538668      3.26965570     -4.49009007
H       6.08102174      5.58011385     -1.67585896
C       4.06689099      4.83061936     -0.73197558
H       3.11617823      3.23292469     -4.49632843
H       4.10818074      5.76228651      0.08503327
H       3.70673562      3.93190825      0.03741475
H       2.90259097      5.06546392     -1.06406791
H       8.85480389     -6.53540657     -8.68661330
H       8.58843990     -8.63903756     -8.13640583
H      11.07923179     -8.03505099     -6.94036298
H       8.02024171     -0.16626323      9.30865552
H      11.59310241     -0.30288673      9.07526770
H      -1.57650842     -8.92673499     12.40522000
H       8.15015214      0.13183654      6.55644381
H      -8.70183826     -4.16273454     22.46431454
H       8.20326971     13.22511101     11.17749095
H      -2.34924325     13.47758752     24.28754823
H      10.74242039      0.24344179     11.96955256
H      10.37741523      2.17111883      2.02078664
H      -3.43292913     12.93485283     11.85346772
H      12.09070872      2.43851706      2.95185516
H       1.07717747      1.58269977    -14.69578062
H       7.92316350     -4.73800212      4.34244414
H       6.57591945     -6.93736932     -8.71123353
H      11.20681972      1.62826013     11.02753602
C      -8.96623006     -1.27766743      6.68985467
C      -1.80358680     -7.71705263     12.47693001
C       8.96174866      0.42858189      8.75176260
C      10.39304130     -0.26890698      9.34627184
C       9.01095202      0.79363629      7.10184002
C       9.13919055     13.77792121     11.59297030
C      10.80334097      0.50243142     10.78663943
C      -2.87793863     14.03079638     11.93716324
C      -1.82989284     14.44191048     23.89443009
C       6.41719191      3.42943467     -1.24740358
C      10.95633686      2.05405882      3.07625239
C      10.50002703      1.35443265      4.47850506
C      10.14132143     -7.38518036     -7.32332824
C       5.35211872      4.57967695     -1.85302677
C       8.47369819     -3.69254209      4.71043599
H       7.38622107      3.52852527     -0.52981729
H       4.40145875     -8.00216116     -7.85298181
H      -7.98870208     -1.50152530      7.28448281
H      -8.57345323     -3.49043098     22.83838030
H      -1.92696164     -7.55292443     13.69357879
H       8.83342492      2.50304343      5.57557444
H       8.35562733      1.37545179      9.26579415
H      10.07502743     14.33082688     12.00851081
H      -1.31054153     15.40623280     23.50131155
H       4.23694483      2.17017577     -3.94047556
H       6.46492143      2.21975222     -1.24883350
H      -3.02984113     14.64937996     10.88341178
H       7.33201455     -2.68306656      3.13513295
H       1.01633409      2.35703362    -14.76723166
H       9.48366536     -3.75607216      4.00219425
H      11.14081771     -6.71273462     -7.26464630
H      -3.37329307     14.67177124     12.86446613
   94

C       6.88160764     -7.09649370     -7.52669287
C       5.22239330     -7.42285525     -7.13125088
H       7.13685046     -6.48463947     -6.47621875
C     -10.23055948     -0.97075702      5.81194551
H     -18.89493234     -7.18397457     -1.80876300
H       4.49583341     -6.45238793     -6.83892744
C      10.13726160     -1.75779921      8.52963264
H       4.82021499     -8.16901710     -6.22896748
H      -7.42832793     -5.87952717    -16.96775291
H      -7.42064412     -6.64894324    -16.83992529
C       9.77287650      1.74154705      5.97299160
H      10.54140902      2.51514746      6.54842518
C       9.80108821     -2.85039403      7.35934762
H      10.95479240      0.18571648      4.37604831
H      10.90216662     -3.29519822      7.56166871
H       0.31844457     -6.95138478     11.20698175
C       8.69874496     -3.54884452      6.25313697
H       7.68758386     -3.63647738      6.95692296
C       4.88364401      4.56397220     -3.67665337
H       9.12438132     -4.69440912      6.39646632
H       5.90199468      4.93023489     -4.28768726
H       4.33867147      5.60923464     -4.08261867
C       4.67748726      2.91317231     -6.11313136
H       5.20960775      4.10527568     -8.29783151
C       4.39482065      3.71161712     -7.50429375
H       5.34995450      1.92823593     -6.36036493
H       3.35552561      4.12908966     -7.94418769
H      -1.67601025     13.86671081     12.14688736
C       8.54915521     -7.42996903     -7.89044095
H     -10.61258585      0.15023584      5.65213646
H     -19.27415811     -7.16792872     -1.12734488
C       0.72820335     -2.76869445      1.20187100
H     -10.88681016     -1.85207458      5.34210721
C      -0.71398351     -6.70596201     11.78567699
H      -0.26546585     -2.21105708      0.88916727
H      -2.95324429     -7.65536689     12.02731885
H      -0.70568736     -5.49891482     11.71442185
C       4.15057415      3.27870291     -4.56559669
H       5.92362022      5.66786226     -1.82246622
C       3.91457460      4.91150623     -0.87438141
H       2.91093110      3.24390938     -4.56834155
H       3.93856277      5.86053791     -0.07715694
H       3.58122764      4.02273632     -0.08273849
H       2.74115048      5.10834904     -1.20352272
H       8.85203987     -6.56378458     -8.72691012
H       8.56993800     -8.64341529     -8.15341921
H      11.03075474     -8.07562747     -6.91398633
H       8.03367389     -0.17526312      9.35970494
H      11.59890851     -0.41348975      9.08651027
H      -1.58565773     -8.93571333     12.41958766
H       8.12425997      0.18921118      6.60165701
H      -8.70223154     -4.16260924     22.46433710
H       8.20319927     13.22453861     11.17678708
H      -2.34927247     13.47758866     24.28748576
H      10.76971871      0.14174768     11.97355441
H      10.39621035      2.16068353      2.10159470
H      -3.43312313     12.93439086     11.85283396
H      12.11518515      2.41906924      3.00025986
H       1.06487358      1.58197652    -14.75885096
H       7.62775766     -4.50658815      4.20102839
H       6.57287223     -6.89171557     -8.71233362
H      11.24684113      1.52323900     11.05508904
C      -8.91615291     -1.27297544      6.61539013
C      -1.81303716     -7.72628326     12.49300003
C       8.97410214      0.41067976      8.79112491
C      10.39654318     -0.33654160      9.34089414
C       9.01610274      0.80563305      7.14941484
C       9.13905106     13.77739429     11.59236463
C      10.82860024      0.40734915     10.79154160
C      -2.87813951     14.03033429     11.93658685
C      -1.82991650     14.44190670     23.89436302
C       6.32152427      3.54565419     -1.34836835
C      10.98961523      2.01526964      3.14448718
C      10.53582390      1.30810189      4.54356287
C      10.13014220     -7.38657969     -7.32278619
C       5.21686898      4.64707491     -1.97268127
C       8.18457373     -3.46943749      4.57740007
H       7.29913526      3.67280109     -0.64488746
H       4.41198333     -8.00314290     -7.87270980
H      -7.94327484     -1.49650697      7.21661524
H      -8.57380604     -3.49030879     22.83839451
H      -1.93754839     -7.56284033     13.70954342
H       8.88091941      2.51422550      5.62648534
H       8.39064163      1.36357578      9.31984443
H      10.07482513     14.33034890     12.00798493
H      -1.31055992     15.40622450     23.50124050
H       4.03288504      2.18932660     -3.99658148
H       6.46574889      2.34629226     -1.41789393
H      -3.03003563     14.64892881     10.88284000
H       7.02871134     -2.32250045      2.90778149
H       1.00440303      2.35625159    -14.83125812
H       9.15995046     -3.47181666      3.81975981
H      11.10118011     -6.67095994     -7.25865874
H      -3.37349311     14.67129805     12.86389839
   94

C       6.87578474     -7.07801163     -7.50824091
C       5.22062172     -7.40984761     -7.10377619
H       7.14279514     -6.46225802     -6.46218025
C     -10.19972764     -0.97444596      5.79375733
H     -18.89328517     -7.18359003     -1.80851064
H       4.48760339     -6.44207788     -6.81622158
C      10.08268621     -1.76952104      8.46481820
H       4.85207389     -8.16390851     -6.19262100
H      -7.44110095     -5.89209798    -16.97077967
H      -7.43336764     -6.66149566    -16.84284466
C       9.80779784      1.72211073      6.03233440
H      10.59037236      2.48283906      6.60638422
C       9.66218845     -2.81483826      7.27560696
H      11.01037660      0.13093667      4.47149280
H      10.73002777     -3.32878565      7.49303532
H       0.31480959     -6.94901377     11.19490510
C       8.54381486     -3.43422032      6.13204725
H       7.54893756     -3.55359911      6.85129371
C       4.76110064      4.53200673     -3.73368691
H       8.99744247     -4.57513606      6.19116239
H       5.78410768      4.90404062     -4.33332239
H       4.21360708      5.57618405     -4.13968224
C       4.56156327      2.88627017     -6.16667200
H       5.14476420      4.10678889     -8.33093190
C       4.31790043      3.70866787     -7.55196939
H       5.24900010      1.91137429     -6.41264462
H       3.28462918      4.12589921     -8.00632029
H      -1.67579841     13.86595214     12.14629773
C       8.53444240     -7.43052158     -7.88993184
H     -10.58679023      0.14572022      5.64041764
H     -19.27257938     -7.16755869     -1.12713037
C       2.26387470     -2.69177179      1.91007683
H     -10.85849714     -1.85584432      5.32763319
C      -0.71692906     -6.70326017     11.77455430
H       1.22241771     -2.13012223      2.00769901
H      -2.95464454     -7.65265321     12.01712388
H      -0.70990997     -5.49636649     11.70155639
C       4.03204129      3.23839813     -4.61592083
H       5.75398238      5.65837197     -1.85980815
C       3.75605982      4.82555954     -0.94438881
H       2.79226124      3.19640672     -4.62619759
H       3.76331907      5.73909501     -0.10679277
H       3.41839330      3.90078458     -0.19726351
H       2.58424498      5.02722085     -1.27945481
H       8.83654228     -6.58971629     -8.75258569
H       8.53973411     -8.64365670     -8.15604609
H      10.97485319     -8.11489974     -6.88426027
H       8.04549667     -0.19279249      9.41045511
H      11.60304704     -0.52031285      9.10972594
H      -1.58699252     -8.93285112     12.41048090
H       8.11077780      0.22001854      6.64068858
H      -8.70202686     -4.16258708     22.46356306
H       8.20300343     13.22340906     11.17571697
H      -2.34926394     13.47750047     24.28734545
H      10.79320623      0.04658193     11.98551137
H      10.44794154      2.15875521      2.20448306
H      -3.43290870     12.93364155     11.85223981
H      12.16690284      2.40164256      3.07559475
H       1.05583021      1.58288558    -14.82304557
H       7.46316812     -4.30639528      4.07171901
H       6.55804057     -6.84281523     -8.68560458
H      11.28088109      1.42435283     11.08899599
C      -8.87624535     -1.27662476      6.58194456
C      -1.81475998     -7.72349578     12.48356415
C       8.98462197      0.38568099      8.83199484
C      10.39959306     -0.39842432      9.34409061
C       9.02100357      0.80006877      7.19689388
C       9.13869332     13.77642884     11.59144944
C      10.84669753      0.31933516     10.80449914
C      -2.87792969     14.02958677     11.93601267
C      -1.82990655     14.44181894     23.89422566
C       6.22011922      3.54301819     -1.41495444
C      11.05062302      1.97749875      3.23559691
C      10.59059563      1.25605179      4.62516388
C      10.11412828     -7.38668974     -7.31622993
C       5.08199642      4.61758351     -2.02666686
C       8.02748469     -3.27777103      4.45603966
H       7.21584721      3.68300012     -0.73903043
H       4.41342589     -7.98909515     -7.85007697
H      -7.89627511     -1.50099424      7.17109575
H      -8.57362974     -3.49031417     22.83767973
H      -1.93884375     -7.55978079     13.70008924
H       8.92712890      2.50604967      5.67969946
H       8.41976163      1.34371868      9.37115029
H      10.07434042     14.32951346     12.00719126
H      -1.31054865     15.40613706     23.50110571
H       3.91781635      2.14543577     -4.05177025
H       6.39912136      2.34985341     -1.50599937
H      -3.02981614     14.64818479     10.88226552
H       7.12518891     -2.02554762      2.49528736
H       0.99558282      2.35718389    -14.89539229
H       9.02837181     -3.28228098      3.72991005
H      11.05470341     -6.62839410     -7.25051148
H      -3.37327493     14.67056178     12.86332157
   94

C       6.88063853     -7.05365943     -7.46560791
C       5.23138986     -7.39852908     -7.05743758
H       7.16432281     -6.43568354     -6.42329732
C     -10.16968116     -0.97812121      5.78662609
H     -18.89185999     -7.18329685     -1.80818867
H       4.49003798     -6.43091152     -6.78677309
C       9.97073992     -1.78066506      8.25928607
H       4.92246220     -8.16333820     -6.13145740
H      -7.45354005     -5.90431306    -16.97368978
H      -7.44582886     -6.67370706    -16.84573111
C       9.78027164      1.63843228      6.05917425
H      10.60934702      2.37299673      6.60052329
C       9.36866089     -2.69832379      7.02035018
H      10.86172278     -0.09058241      4.50641500
H      10.35959962     -3.34720662      7.23691003
H       0.32150499     -6.93137036     11.13961580
C       8.18766080     -3.13500157      5.82730885
H       7.30584844     -3.45183144      6.63009540
C       4.66763997      4.46702933     -3.73412969
H       8.78402120     -4.17718344      5.58544276
H       5.70213989      4.84534472     -4.30991685
H       4.12527092      5.52044672     -4.12217976
C       4.48346021      2.87418408     -6.20197147
H       5.09350514      4.12557278     -8.34788138
C       4.26139952      3.72094880     -7.57734568
H       5.17629218      1.90610633     -6.46097031
H       3.22961204      4.12596706     -8.04631998
H      -1.67522236     13.86417483     12.14530767
C       8.52435126     -7.43352847     -7.87627815
H     -10.56103991      0.14113743      5.63681892
H     -19.27118577     -7.16726916     -1.12682601
C       6.08980567     -2.11611294      3.41015217
H     -10.83134575     -1.85898474      5.32335166
C      -0.70363004     -6.68637719     11.73167768
H       4.94001063     -1.96175442      3.08176474
H      -2.93895700     -7.63588011     11.98707011
H      -0.70039288     -5.47997139     11.64755050
C       3.95287465      3.18179555     -4.64123255
H       5.61013137      5.54783913     -1.81312251
C       3.62170185      4.62301110     -0.92644720
H       2.71314149      3.14080475     -4.65957345
H       3.61593665      5.51388220     -0.06440712
H       3.28448645      3.66926224     -0.21342278
H       2.45089334      4.82823594     -1.26500075
H       8.81708694     -6.63530271     -8.78265140
H       8.50389924     -8.64463711     -8.15301632
H      10.88345432     -8.18759356     -6.83451068
H       8.03952776     -0.25831348      9.46036078
H      11.56814518     -0.70388249      9.08202718
H      -1.57102641     -8.91443516     12.38132549
H       8.00030433      0.25964865      6.68847808
H      -8.70101793     -4.16259184     22.46177845
H       8.20294144     13.22024184     11.17403155
H      -2.34916350     13.47718722     24.28698232
H      10.79906173     -0.06815473     11.93531502
H      10.41723170      1.98516296      2.29934328
H      -3.43227189     12.93183102     11.85119647
H      12.12684044      2.27806671      3.12997559
H       1.04808503      1.58576540    -14.88371638
H       6.92917388     -3.92344541      3.85720095
H       6.55204912     -6.76691427     -8.62851920
H      11.28156030      1.29200715     11.05856057
C      -8.83793724     -1.27961619      6.56198183
C      -1.79777092     -7.70452892     12.45119708
C       8.96184011      0.31907213      8.85411225
C      10.36606196     -0.52373240      9.28904584
C       8.96238610      0.76280325      7.23077494
C       9.13832464     13.77367503     11.58991039
C      10.84363711      0.19325461     10.74972864
C      -2.87735699     14.02780680     11.93502706
C      -1.82981241     14.44151727     23.89388281
C       6.09594578      3.41006219     -1.45434753
C      11.03695601      1.79960080      3.31650332
C      10.53899837      1.06450483      4.68272440
C      10.10143740     -7.38068069     -7.28853879
C       4.95245377      4.50602248     -2.01902746
C       7.35511322     -2.84771666      4.28634538
H       7.11541533      3.52366261     -0.80987912
H       4.43275796     -7.97142447     -7.81876812
H      -7.84953394     -1.50338191      7.13744095
H      -8.57271924     -3.49036836     22.83601772
H      -1.92086828     -7.53968177     13.66782299
H       8.91632529      2.44408441      5.70894621
H       8.41730886      1.28205978      9.40561969
H      10.07370782     14.32710824     12.00578923
H      -1.31046131     15.40584731     23.50078330
H       3.84070758      2.07710940     -4.09742350
H       6.21397147      2.20630643     -1.48875274
H      -3.02922606     14.64641905     10.88128340
H       5.71214987     -1.56096251      2.40523202
H       0.98833870      2.36018705    -14.95514105
H       8.20127889     -2.52383979      3.45078272
H      10.97545856     -6.53844144     -7.24226848
H      -3.37270765     14.66880232     12.86232070
