   94

C       7.02278670     -6.87830109     -7.61629629
C       5.47081488     -7.49700031     -7.17385161
H       7.31511195     -6.14198421     -6.65762861
C     -10.29702606     -0.92717073      5.83905519
H     -18.89185999     -7.18329685     -1.80818867
H       4.57170350     -6.70400251     -6.83562562
C       9.93203306     -1.54790073      7.85243187
H       5.34617271     -8.29527846     -6.23365875
H      -7.50398437     -5.95364196    -16.98469800
H      -7.49627318     -6.72303595    -16.85673933
C      10.49483730      2.26660791      6.43819763
H      11.39639391      2.82169924      7.07303894
C       9.57722355     -2.44373761      6.49000892
H      11.74776616      0.48304020      5.07958536
H      10.69725492     -2.13551522      6.16851934
H      -0.06724683     -7.29849723     12.23401591
C       8.80452349     -3.83564334      6.52073572
H       7.75785783     -4.06340335      7.12961934
C       4.74899170      4.86385192     -4.08691921
H       9.39061351     -4.90485332      6.70615563
H       5.80085925      5.21112724     -4.65106499
H       4.23922760      5.92897390     -4.48603221
C       4.53314223      3.26713828     -6.56495249
H       5.15112301      4.56337159     -8.67872970
C       4.31276260      4.09405561     -7.95240191
H       5.20869142      2.28744245     -6.82635328
H       3.27359849      4.40210614     -8.47590562
H      -1.67522236     13.86417483     12.14530767
C       8.54104016     -7.54282567     -8.11764734
H     -10.68838481      0.19208792      5.68924802
H     -19.27118577     -7.16726916     -1.12682601
C       0.67074550     -5.42855728      1.94462523
H     -10.95869065     -1.80803426      5.37578076
C      -1.09237436     -7.05350319     12.82609041
H      -0.36479431     -5.76079256      2.34582492
H      -3.32769924     -8.00301048     13.08147711
H      -1.08912997     -5.84709657     12.74197535
C       4.01795825      3.59297540     -5.00208799
H       5.63931133      5.95744482     -2.13729989
C       3.67059885      5.00572342     -1.27962286
H       2.77781944      3.57991517     -5.02111756
H       3.66709808      5.85225543     -0.37376045
H       3.31298084      4.02959452     -0.60774709
H       2.51122608      5.26298379     -1.62367183
H       8.89052071     -7.16409822     -9.24842782
H       8.43768735     -8.74595485     -8.39771938
H      10.72313612     -8.23793991     -6.76716605
H       8.36585888      0.32033867      9.56595581
H      11.59469187     -0.99463144      8.78438234
H      -1.95976601     -9.28156069     13.47574579
H       8.24990135      1.51452503      7.00552419
H      -8.70101793     -4.16259184     22.46177845
H       8.20294145     13.22024184     11.17403155
H      -2.34916350     13.47718722     24.28698232
H      11.32545601     -0.49204255     11.61936090
H      11.12547993      2.26162018      2.68436883
H      -3.43227189     12.93183102     11.85119647
H      12.86639671      2.64691226      3.44586917
H       1.01165366      1.58308530    -15.15073293
H       8.14622031     -3.55216599      4.27396818
H       6.71995499     -6.10304354     -8.54232904
H      12.03142369      0.81506175     10.83835368
C      -8.96528214     -1.22866571      6.61441093
C      -2.18651523     -8.07165490     13.54560988
C       9.35542057      0.75193502      8.95049683
C      10.50467788     -0.50071759      9.03600991
C       9.38270137      1.52684127      7.46031277
C       9.13832463     13.77367504     11.58991039
C      11.30140485     -0.09505355     10.47326539
C      -2.87735699     14.02780680     11.93502706
C      -1.82981241     14.44151727     23.89388281
C       6.16364520      3.81184296     -1.81982111
C      11.77914409      2.18824385      3.69342775
C      11.29654642      1.60156104      5.13212159
C      10.02574309     -7.43069308     -7.34215035
C       5.00790435      4.90427967     -2.36693186
C       8.92812288     -3.09538705      5.11496785
H       7.20745622      3.92428447     -1.21534755
H       4.76924775     -8.14644185     -7.96513008
H      -7.97687884     -1.45243143      7.18987005
H      -8.57271924     -3.49036836     22.83601772
H      -2.30961911     -7.90680378     14.76223457
H       9.89926792      3.25977314      6.02536571
H       9.13263188      1.70505982      9.71718512
H      10.07370782     14.32710824     12.00578923
H      -1.31046131     15.40584731     23.50078330
H       3.89890876      2.48889817     -4.45842981
H       6.27745960      2.60745317     -1.84848240
H      -3.02922606     14.64641905     10.88128340
H       1.15960888     -4.87566759      1.05075176
H       0.95190685      2.35750676    -15.22215893
H       9.32274562     -2.94445170      3.95621918
H      10.82276280     -6.52577072     -7.20329984
H      -3.37270765     14.66880232     12.86232070
   94

C       7.02793440     -6.87431121     -7.62140023
C       5.47887684     -7.49995753     -7.17950515
H       7.31963326     -6.13509778     -6.66477039
C     -10.30286987     -0.92466032      5.84148555
H     -18.89189388     -7.18329563     -1.80820139
H       4.57556620     -6.71279191     -6.83948299
C       9.90638065     -1.57204373      7.85654864
H       5.35900826     -8.29923337     -6.23951763
H      -7.50399422     -5.95365172    -16.98468459
H      -7.49628688     -6.72304655    -16.85673072
C      10.50106739      2.25553318      6.38007873
H      11.40832026      2.77099115      7.04348828
C       9.50319478     -2.50787753      6.53562728
H      11.88284847     -0.01976291      3.83976438
H      10.64245510     -2.27445306      6.21311369
H      -0.07182517     -7.30175957     12.25064497
C       8.73997169     -3.90509634      6.62373924
H       7.70521160     -4.11937461      7.25652887
C       4.75372880      4.88506612     -4.05573087
H       9.31549208     -4.97876309      6.81716656
H       5.79398613      5.26811789     -4.62000014
H       4.23135850      5.93969287     -4.46787602
C       4.66313867      3.19978857     -6.45270728
H       5.21972548      4.52051921     -8.58945872
C       4.42702502      4.00900870     -7.84476553
H       5.33827850      2.22020515     -6.71239411
H       3.40143840      4.32902445     -8.38443481
H      -1.67533560     13.86423309     12.14542730
C       8.54192595     -7.54607634     -8.12509713
H     -10.69419922      0.19460586      5.69166468
H     -19.27122018     -7.16726856     -1.12683900
C       0.64224308     -5.45077989      1.93301530
H     -10.96452819     -1.80552394      5.37820447
C      -1.09695165     -7.05657550     12.84259333
H      -0.38418935     -5.79101513      2.35143387
H      -3.33195592     -8.00638502     13.09769236
H      -1.09368586     -5.85018305     12.75849213
C       4.05070868      3.57792508     -4.93861697
H       5.63899278      5.97956301     -2.11207809
C       3.66343524      5.01838394     -1.26238498
H       2.81111234      3.56980701     -4.98610395
H       3.65763557      5.86414632     -0.35669562
H       3.30363845      4.03860246     -0.59709578
H       2.50557283      5.27372761     -1.61333846
H       8.89007565     -7.17742207     -9.25958414
H       8.43698714     -8.74931309     -8.40391730
H      10.71962095     -8.23957822     -6.76785487
H       8.36205248      0.33226905      9.52704424
H      11.58663622     -0.99949974      8.73815647
H      -1.96396227     -9.28492310     13.49198927
H       8.26430550      1.48641262      6.94921981
H      -8.70110826     -4.16255815     22.46188793
H       8.20246215     13.22136759     11.17527173
H      -2.34915620     13.47717423     24.28698563
H      11.31581049     -0.50898959     11.58679402
H      11.15676521      2.93278083      2.71563823
H      -3.43237513     12.93187897     11.85130462
H      12.92847921      3.02442283      3.49504947
H       1.01155725      1.58296366    -15.15090789
H       7.97154995     -3.62332220      4.40340256
H       6.72755554     -6.08942896     -8.54019834
H      12.03620925      0.79819526     10.80286110
C      -8.97116144     -1.22615689      6.61689298
C      -2.19082758     -8.07505155     13.56192590
C       9.35640627      0.74937819      8.90893275
C      10.50190869     -0.50442945      9.00472905
C       9.39929271      1.48707251      7.39963738
C       9.13797754     13.77468564     11.59100943
C      11.30244249     -0.10996515     10.44100143
C      -2.87746965     14.02785907     11.93513925
C      -1.82980666     14.44150613     23.89388890
C       6.16203525      3.83204615     -1.78508073
C      11.78404517      2.71040445      3.72207419
C      11.28419056      1.75728864      4.98243515
C      10.02482695     -7.43302289     -7.34683438
C       5.00941360      4.92466794     -2.33763117
C       8.81369369     -3.19122083      5.19865772
H       7.21596908      3.94892409     -1.20022434
H       4.78080352     -8.15043788     -7.97295242
H      -7.98279295     -1.44991985      7.19240974
H      -8.57279497     -3.49033129     22.83611614
H      -2.31382664     -7.91017692     14.77854578
H       9.88979770      3.28041064      6.06894732
H       9.14530043      1.70908835      9.66993495
H      10.07349846     14.32799571     12.00674446
H      -1.31045780     15.40583875     23.50079304
H       3.86898178      2.48075875     -4.39704094
H       6.26991514      2.62638364     -1.79279298
H      -3.02934654     14.64647939     10.88140158
H       1.14909816     -4.90028555      1.04730084
H       0.95184604      2.35739522    -15.22225572
H       9.21090908     -3.18737005      4.03115525
H      10.82078000     -6.52731240     -7.20771661
H      -3.37282205     14.66885020     12.86243488
   94

C       7.03208085     -6.87307726     -7.62982610
C       5.48595502     -7.50510589     -7.18767044
H       7.32326306     -6.13091888     -6.67534154
C     -10.30862433     -0.92222521      5.84399712
H     -18.89193194     -7.18330663     -1.80820147
H       4.57850002     -6.72370112     -6.84599950
C       9.94974212     -1.55263756      7.83145727
H       5.37084931     -8.30522961     -6.24777789
H      -7.50408747     -5.95369722    -16.98474954
H      -7.49638187     -6.72309229    -16.85679704
C      10.48529876      2.27347389      6.40332790
H      11.39842774      2.76887878      7.07255922
C       9.57096175     -2.51232220      6.52996848
H      10.49060755      0.19285537      2.06433131
H      10.65838464     -2.17627061      6.12458233
H      -0.07468165     -7.30462187     12.26619957
C       8.79863002     -3.89816295      6.70250764
H       7.75699200     -4.11046237      7.32642483
C       4.74590114      4.91865517     -4.03772832
H       9.36675473     -4.96998918      6.92776273
H       5.77346611      5.33776931     -4.60170486
H       4.20979716      5.96063069     -4.46497663
C       4.79348927      3.14096721     -6.33670179
H       5.28560608      4.47620877     -8.50174589
C       4.54136930      3.92488395     -7.73922027
H       5.46114751      2.15680066     -6.59638919
H       3.52902017      4.25371911     -8.29590104
H      -1.67537997     13.86427079     12.14549937
C       8.54223063     -7.55161042     -8.13523591
H     -10.69994768      0.19704208      5.69416508
H     -19.27125642     -7.16727911     -1.12683809
C       0.61415068     -5.47471368      1.92404266
H     -10.97028473     -1.80308022      5.38070128
C      -1.09984682     -7.05943604     12.85808184
H      -0.40240863     -5.82302541      2.36043262
H      -3.33485641     -8.00925061     13.11313852
H      -1.09656020     -5.85304342     12.77397321
C       4.07589679      3.57118548     -4.88372630
H       5.61964925      6.02710065     -2.10005250
C       3.64344982      5.04389492     -1.25227383
H       2.83761397      3.56684619     -4.96228300
H       3.63613454      5.88641269     -0.34457433
H       3.28359456      4.05868091     -0.59512739
H       2.48683459      5.29556072     -1.60943757
H       8.88895182     -7.19292081     -9.27331880
H       8.43571258     -8.75497091     -8.41269029
H      10.71576922     -8.24395991     -6.77148773
H       8.35695956      0.32409469      9.51741564
H      11.59997670     -0.98306051      8.73010441
H      -1.96688010     -9.28779600     13.50745806
H       8.24888147      1.48886452      6.94563191
H      -8.70113920     -4.16254413     22.46193186
H       8.20225163     13.22195581     11.17582375
H      -2.34916699     13.47718014     24.28699883
H      11.30941304     -0.52796910     11.58654329
H      11.52117593      3.39459082      3.00310732
H      -3.43241655     12.93191210     11.85137422
H      13.16799327      2.65228199      3.67810207
H       1.01131867      1.58293115    -15.15141086
H       8.00007427     -3.71483420      4.47703961
H       6.73420503     -6.07859232     -8.54126162
H      12.04071300      0.78789260     10.80926383
C      -8.97693309     -1.22373355      6.61943518
C      -2.19373489     -8.07792144     13.57738881
C       9.35406165      0.74648005      8.90849079
C      10.51186340     -0.49768075      9.00271653
C       9.37974129      1.49373210      7.40450469
C       9.13779087     13.77526167     11.59152699
C      11.30416209     -0.11683875     10.44520748
C      -2.87751407     14.02789353     11.93520996
C      -1.82981835     14.44151319     23.89390369
C       6.14358710      3.88191203     -1.76520103
C      11.96949420      2.62254494      3.81669232
C      11.22091405      1.76299927      4.99496859
C      10.02355594     -7.43814566     -7.35449958
C       4.99232917      4.97036303     -2.32158182
C       8.84028183     -3.23842656      5.24758901
H       7.21251906      4.00908816     -1.21346540
H       4.79126685     -8.15665428     -7.98312572
H      -7.98858081     -1.44751350      7.19497533
H      -8.57282031     -3.49031571     22.83615531
H      -2.31675620     -7.91305346     14.79400792
H       9.88791154      3.30287670      6.08729311
H       9.14088728      1.70159643      9.67456420
H      10.07335291     14.32853888     12.00721559
H      -1.31047043     15.40584704     23.50080952
H       3.83111535      2.48233594     -4.34840182
H       6.24663044      2.67635094     -1.76427939
H      -3.02939279     14.64651861     10.88147547
H       1.13866269     -4.92804154      1.04584943
H       0.95165077      2.35737339    -15.22268104
H       9.29093939     -3.41265610      4.11314248
H      10.81908617     -6.53202137     -7.21637039
H      -3.37286692     14.66888331     12.86250619
   94

C       7.03618785     -6.87200177     -7.63809352
C       5.49300539     -7.51018047     -7.19542798
H       7.32690691     -6.12690550     -6.68578371
C     -10.31419235     -0.91986019      5.84646791
H     -18.89194790     -7.18332095     -1.80819436
H       4.58153456     -6.73442068     -6.85218554
C       9.95710944     -1.55672028      7.86099545
H       5.38266783     -8.31096993     -6.25550175
H      -7.50418990     -5.95376379    -16.98482295
H      -7.49648113     -6.72315806    -16.85686580
C      10.48023930      2.29576423      6.45942546
H      11.39272852      2.79748107      7.12131000
C       9.61280596     -2.49602159      6.54112352
H      10.16353059      0.14667869      1.02261946
H      10.70575715     -2.15667660      6.14905128
H      -0.07674708     -7.30727616     12.28059649
C       8.82081820     -3.87539238      6.66785413
H       7.77371995     -4.09839739      7.27853213
C       4.72268262      4.96333635     -4.03014062
H       9.37353576     -4.95816373      6.87574658
H       5.73595932      5.41818543     -4.59449283
H       4.17108756      5.98916945     -4.47696758
C       4.92003564      3.09226633     -6.21518744
H       5.34783561      4.42922311     -8.41523823
C       4.65383808      3.84362973     -7.63402829
H       5.57483512      2.09975163     -6.47592916
H       3.65492892      4.17589433     -8.21091168
H      -1.67539657     13.86433206     12.14556946
C       8.54248686     -7.55729831     -8.14513177
H     -10.70553666      0.19940175      5.69664524
H     -19.27127084     -7.16729260     -1.12683014
C       0.58901028     -5.49577021      1.91507437
H     -10.97584951     -1.80071080      5.38315732
C      -1.10189272     -7.06216248     12.87256090
H      -0.41661747     -5.85318543      2.36989485
H      -3.33702965     -8.01182972     13.12777551
H      -1.09863253     -5.85576585     12.78842402
C       4.09286413      3.57236435     -4.83605969
H       5.57619561      6.09858025     -2.10096061
C       3.60773804      5.08042039     -1.24876620
H       2.85680055      3.56798474     -4.94775161
H       3.59737805      5.91806046     -0.33756952
H       3.25234738      4.08798280     -0.59997961
H       2.45152744      5.32439493     -1.61141653
H       8.88771837     -7.20851130     -9.28670979
H       8.43437055     -8.76076988     -8.42124618
H      10.71179492     -8.24865176     -6.77478849
H       8.34080101      0.31818613      9.52540342
H      11.59524175     -0.98068337      8.75494605
H      -1.96907779     -9.29038525     13.52208347
H       8.24261572      1.48980526      6.95388165
H      -8.70114543     -4.16255044     22.46193223
H       8.20244135     13.22166529     11.17535522
H      -2.34918737     13.47720462     24.28702407
H      11.30077378     -0.54688035     11.60774295
H      11.51258658      3.15883823      3.01943846
H      -3.43244106     12.93197938     11.85145297
H      13.18654862      2.52712134      3.73390906
H       1.01098326      1.58282768    -15.15224914
H       8.06412837     -3.63767652      4.43519345
H       6.74084325     -6.06808664     -8.54216234
H      12.04210946      0.77646182     10.83229749
C      -8.98249239     -1.22137151      6.62189683
C      -2.19588262     -8.08049606     13.59197666
C       9.34378985      0.74376208      8.92917671
C      10.50701835     -0.49570630      9.02840618
C       9.36417055      1.50665121      7.43417267
C       9.13793963     13.77500331     11.59110630
C      11.29653357     -0.12183215     10.47202771
C      -2.87753129     14.02795725     11.93528591
C      -1.82983764     14.44153683     23.89392811
C       6.11198728      3.96172549     -1.74833520
C      11.99077138      2.39253332      3.81896794
C      11.23732177      1.73465661      5.09673649
C      10.02225130     -7.44360667     -7.36193937
C       4.95650041      5.03643885     -2.31594425
C       8.87428276     -3.16470921      5.23770896
H       7.19373325      4.10122550     -1.22888353
H       4.80163730     -8.16283073     -7.99277837
H      -7.99413047     -1.44516501      7.19741784
H      -8.57282799     -3.49032235     22.83615678
H      -2.31893607     -7.91562763     14.80859720
H       9.89428465      3.31399343      6.09785762
H       9.12816721      1.69441217      9.69977887
H      10.07345582     14.32831607     12.00684972
H      -1.31048811     15.40586928     23.50083243
H       3.78843982      2.49313427     -4.30975535
H       6.20886645      2.75659529     -1.73706853
H      -3.02941166     14.64658730     10.88155468
H       1.13308309     -4.95317164      1.04588904
H       0.95133300      2.35727230    -15.22351060
H       9.34412202     -3.23838023      4.10187914
H      10.81757158     -6.53721034     -7.22514233
H      -3.37288195     14.66894787     12.86258265
   94

C       7.04024548     -6.87099918     -7.64606701
C       5.50000514     -7.51486265     -7.20237176
H       7.33081374     -6.12332355     -6.69578288
C     -10.31982102     -0.91744527      5.84895880
H     -18.89194115     -7.18332886     -1.80818948
H       4.58477399     -6.74458937     -6.85739589
C       9.96027578     -1.56326907      7.87265978
H       5.39445767     -8.31629500     -6.26241736
H      -7.50421973     -5.95379327    -16.98482498
H      -7.49651188     -6.72318742    -16.85686705
C      10.47614674      2.31832347      6.49600820
H      11.38826311      2.82288950      7.15382642
C       9.63588816     -2.48750808      6.54014075
H      10.12012121      0.05236732      0.07585699
H      10.73589562     -2.15387027      6.15799110
H      -0.07921081     -7.31002271     12.29555476
C       8.82709261     -3.86005706      6.63160309
H       7.78006625     -4.08778175      7.24059590
C       4.70658088      4.99889425     -4.01053260
H       9.36623570     -4.95063860      6.83132317
H       5.70499438      5.48684495     -4.57553999
H       4.14095424      6.00752229     -4.47995203
C       5.05133016      3.04710432     -6.07538245
H       5.41365069      4.37478428     -8.31639283
C       4.77203297      3.76330973     -7.51298071
H       5.69100840      2.04487499     -6.33867849
H       3.78625110      4.09035725     -8.11381990
H      -1.67544219     13.86440961     12.14567973
C       8.54245257     -7.56327423     -8.15499453
H     -10.71119181      0.20181036      5.69915404
H     -19.27126471     -7.16730047     -1.12682561
C       0.56476472     -5.51429092      1.90393037
H     -10.98147380     -1.79829399      5.38563708
C      -1.10433670     -7.06495927     12.88758661
H      -0.42829566     -5.88218231      2.37831300
H      -3.33954468     -8.01455097     13.14291097
H      -1.10110362     -5.85856068     12.80342470
C       4.11776158      3.56880046     -4.77863509
H       5.53879322      6.15624596     -2.09157655
C       3.57253739      5.11213719     -1.24171181
H       2.88489660      3.56163992     -4.92494808
H       3.55577591      5.94778417     -0.32958207
H       3.21875653      4.11467778     -0.59944097
H       2.41762612      5.34813551     -1.61330608
H       8.88599718     -7.22425568     -9.29998664
H       8.43244552     -8.76679919     -8.42986795
H      10.70761191     -8.25464837     -6.77841542
H       8.32804379      0.31355623      9.52191489
H      11.58907525     -0.98160960      8.75940991
H      -1.97159845     -9.29310375     13.53720687
H       8.23929729      1.49252123      6.95325412
H      -8.70116342     -4.16254851     22.46195209
H       8.20259551     13.22140754     11.17502562
H      -2.34919778     13.47721993     24.28704593
H      11.29233434     -0.56807202     11.61272142
H      11.38736425      2.85850693      2.95649663
H      -3.43249409     12.93206043     11.85157050
H      13.13997619      2.58602877      3.72945709
H       1.01108316      1.58285553    -15.15212239
H       8.08000327     -3.54411374      4.40064925
H       6.74749706     -6.05750371     -8.54248355
H      12.04496975      0.76087272     10.83832815
C      -8.98810539     -1.21895905      6.62436485
C      -2.19837913     -8.08320673     13.60707675
C       9.33644782      0.74021087      8.93612001
C      10.50142443     -0.49817533      9.03757677
C       9.35418792      1.51616172      7.44838359
C       9.13807786     13.77475701     11.59079490
C      11.29185348     -0.13211960     10.48144189
C      -2.87757738     14.02803497     11.93539961
C      -1.82984727     14.44155169     23.89394971
C       6.09063668      4.02906728     -1.71209065
C      11.98023464      2.27517317      3.82647447
C      11.26557452      1.73970809      5.16971916
C      10.02088897     -7.45025949     -7.36968918
C       4.92901457      5.08700028     -2.29798416
C       8.89686986     -3.11737911      5.22043537
H       7.16746453      4.17425044     -1.18575257
H       4.81175512     -8.16842340     -8.00156313
H      -7.99972829     -1.44276374      7.19985741
H      -8.57284410     -3.49032013     22.83617548
H      -2.32144737     -7.91833954     14.82369897
H       9.89916851      3.32830748      6.10307108
H       9.12134633      1.68680607      9.71163593
H      10.07356783     14.32809003     12.00656828
H      -1.31049668     15.40588333     23.50085331
H       3.75778439      2.49930387     -4.26578254
H       6.16797644      2.82396681     -1.65429575
H      -3.02946268     14.64667252     10.88167360
H       1.13195060     -4.97555943      1.04682905
H       0.95146222      2.35730508    -15.22335420
H       9.34286159     -3.06891771      4.07514157
H      10.81659293     -6.54401514     -7.23500391
H      -3.37292404     14.66902460     12.86269898
   94

C       7.04460883     -6.86958414     -7.65274761
C       5.50721222     -7.51890074     -7.20814617
H       7.33518362     -6.11966474     -6.70427773
C     -10.32547677     -0.91505432      5.85142726
H     -18.89193119     -7.18333473     -1.80819011
H       4.58844701     -6.75394534     -6.86136712
C       9.96513557     -1.56884889      7.87157994
H       5.40640920     -8.32088723     -6.26812700
H      -7.50418624     -5.95378395    -16.98477319
H      -7.49648412     -6.72317881    -16.85681922
C      10.46657032      2.33646958      6.50684897
H      11.38936319      2.83205338      7.15440483
C       9.65182952     -2.48444743      6.53115741
H      10.08629755      0.17699254     -0.80534932
H      10.75643062     -2.15558952      6.15279759
H      -0.08179114     -7.31277931     12.31061212
C       8.83096319     -3.85136241      6.60490175
H       7.78555903     -4.07841625      7.21715553
C       4.70418358      5.02250593     -3.98044153
H       9.35809001     -4.94647953      6.81107774
H       5.68909976      5.53908898     -4.54518849
H       4.12903650      6.01501805     -4.47385010
C       5.18625694      3.00295205     -5.92008709
H       5.48180083      4.31503900     -8.20543017
C       4.89497629      3.68676583     -7.37565827
H       5.81157009      1.99192749     -6.18806951
H       3.92125286      4.00113701     -8.00170169
H      -1.67552375     13.86451618     12.14583468
C       8.54241626     -7.56912528     -8.16391975
H     -10.71686950      0.20419625      5.70163925
H     -19.27125638     -7.16730684     -1.12682713
C       0.53971612     -5.53187286      1.89070068
H     -10.98711898     -1.79590173      5.38808710
C      -1.10690936     -7.06775284     12.90268161
H      -0.43881878     -5.91110168      2.38653005
H      -3.34216681     -8.01730223     13.15807350
H      -1.10368876     -5.86135228     12.81851058
C       4.15359908      3.55788913     -4.71114310
H       5.51459933      6.19563411     -2.07122693
C       3.54042491      5.13977058     -1.23297413
H       2.92475079      3.54711093     -4.89146867
H       3.51501324      5.97709743     -0.32328157
H       3.18081263      4.14080147     -0.59592788
H       2.38930641      5.37089371     -1.61933726
H       8.88416178     -7.23978655     -9.31224079
H       8.43028320     -8.77263266     -8.43775786
H      10.70318037     -8.26104591     -6.78087252
H       8.32061304      0.31410186      9.50924326
H      11.58588345     -0.97916664      8.74877698
H      -1.97422261     -9.29584982     13.55235987
H       8.23434571      1.49442908      6.94466863
H      -8.70117799     -4.16254373     22.46197917
H       8.20273338     13.22118110     11.17489029
H      -2.34919710     13.47722481     24.28706362
H      11.28506111     -0.58549696     11.60543134
H      11.25721356      2.58848237      2.88276517
H      -3.43258381     12.93217023     11.85173246
H      13.04680216      2.62623080      3.65378870
H       1.01162427      1.58304000    -15.15102068
H       8.08567063     -3.47964131      4.37625093
H       6.75453977     -6.04660568     -8.54144959
H      12.04937378      0.74825034     10.83158204
C      -8.99375741     -1.21657779      6.62682651
C      -2.20098817     -8.08594766     13.62221477
C       9.33337126      0.73947009      8.93038135
C      10.49880180     -0.49873648      9.03329487
C       9.34598658      1.52279702      7.44696515
C       9.13822449     13.77452639     11.59064203
C      11.29046041     -0.14077578     10.47774410
C      -2.87765916     14.02814103     11.93555615
C      -1.82984631     14.44155668     23.89396793
C       6.07530079      4.07357725     -1.66575527
C      11.92711064      2.21698760      3.80724374
C      11.26111055      1.75846319      5.19275908
C      10.01947958     -7.45725184     -7.37637451
C       4.91203160      5.12085070     -2.26894891
C       8.91915963     -3.09781154      5.20049749
H       7.12687984      4.22809731     -1.09367212
H       4.82194852     -8.17321251     -8.00917649
H      -8.00537643     -1.44040277      7.20230588
H      -8.57285535     -3.49031473     22.83620031
H      -2.32406590     -7.92108331     14.83883859
H       9.89902148      3.34492149      6.09972855
H       9.12146706      1.68418929      9.70885296
H      10.07370711     14.32786997     12.00641490
H      -1.31049537     15.40588827     23.50087178
H       3.74144714      2.49737696     -4.21754030
H       6.12367425      2.87225345     -1.53393083
H      -3.02955197     14.64678774     10.88183674
H       1.13261086     -4.99770826      1.04789006
H       0.95204035      2.35749677    -15.22220216
H       9.34112715     -2.96759936      4.05224542
H      10.81589715     -6.55144577     -7.24389790
H      -3.37300008     14.66912875     12.86285974
   94

C       7.04922472     -6.86920573     -7.65910365
C       5.51444976     -7.52364526     -7.21390516
H       7.33989843     -6.11722686     -6.71230519
C     -10.33122968     -0.91267191      5.85391668
H     -18.89192729     -7.18333877     -1.80819593
H       4.59235723     -6.76378480     -6.86538872
C       9.97256940     -1.57297194      7.86358367
H       5.41825943     -8.32600369     -6.27371111
H      -7.50411250     -5.95372971    -16.98468540
H      -7.49642262     -6.72312646    -16.85674197
C      10.45775037      2.34614229      6.49145288
H      11.39875477      2.82389801      7.12407088
C       9.66672921     -2.48495877      6.51975942
H       9.92126559      0.50031868     -1.72996727
H      10.77330890     -2.15884987      6.13949016
H      -0.08437259     -7.31554737     12.32576766
C       8.83533141     -3.84640755      6.58761373
H       7.79147727     -4.07147889      7.20351137
C       4.72015477      5.03552214     -3.93525910
H       9.35081826     -4.94535291      6.80255318
H       5.69482948      5.57442380     -4.49810391
H       4.14245001      6.01413687     -4.45491883
C       5.32351978      2.95987388     -5.74767732
H       5.55183926      4.25214220     -8.07984877
C       5.02202531      3.61717803     -7.21931787
H       5.93311061      1.94034205     -6.02462027
H       4.05905447      3.91246206     -7.87041897
H      -1.67563490     13.86466473     12.14606462
C       8.54259459     -7.57605652     -8.17252160
H     -10.72263766      0.20657534      5.70414203
H     -19.27125444     -7.16731201     -1.12683401
C       0.51245943     -5.54961359      1.87598967
H     -10.99285368     -1.79351693      5.39054541
C      -1.10949161     -7.07054912     12.91785466
H      -0.44937128     -5.94085019      2.39530079
H      -3.34479695     -8.02006413     13.17329365
H      -1.10626718     -5.86414593     12.83368811
C       4.20200214      3.54137136     -4.62871732
H       5.50850498      6.21893013     -2.03480908
C       3.51044534      5.17221250     -1.22170668
H       2.97790900      3.52815128     -4.84255266
H       3.47446243      6.01636827     -0.31931720
H       3.13170868      4.17746694     -0.58877125
H       2.36798797      5.40524456     -1.63266451
H       8.88252994     -7.25637554     -9.32407809
H       8.42818164     -8.77949045     -8.44551117
H      10.69833925     -8.26842776     -6.78207279
H       8.31763081      0.31996925      9.48771772
H      11.58569349     -0.97387814      8.72940946
H      -1.97685709     -9.29860926     13.56757023
H       8.23224417      1.49576323      6.92672202
H      -8.70118623     -4.16253882     22.46201169
H       8.20292712     13.22090467     11.17490618
H      -2.34918737     13.47722246     24.28708378
H      11.27754372     -0.60041097     11.59054642
H      11.16373974      2.33779862      2.78143948
H      -3.43270429     12.93232309     11.85196878
H      12.95228332      2.61236929      3.54886359
H       1.01258092      1.58346919    -15.14887192
H       8.08450157     -3.43624898      4.36249588
H       6.76194215     -6.03702492     -8.54021071
H      12.05410004      0.73791343     10.81736977
C      -8.99952393     -1.21421314      6.62933482
C      -2.20360657     -8.08870201     13.63741227
C       9.33436979      0.74198402      8.91347555
C      10.49927551     -0.49647023      9.02013540
C       9.34298115      1.52742302      7.43137643
C       9.13843435     13.77425457     11.59061084
C      11.29025111     -0.14766936     10.46622651
C      -2.87777003     14.02828945     11.93578509
C      -1.82983662     14.44155493     23.89398950
C       6.06216538      4.09841906     -1.59570305
C      11.84939952      2.18674662      3.75178797
C      11.23092985      1.78328550      5.16687890
C      10.01808645     -7.46527703     -7.38231470
C       4.90698725      5.14201629     -2.22396666
C       8.93393972     -3.08878607      5.18517754
H       7.06880008      4.26648960     -0.95049273
H       4.83202713     -8.17862028     -8.01671206
H      -8.01115440     -1.43807052      7.20482235
H      -8.57285946     -3.49030901     22.83622994
H      -2.32668910     -7.92383897     14.85403763
H       9.90017216      3.35860819      6.08256234
H       9.12735626      1.68675615      9.69285844
H      10.07391244     14.32761977     12.00636102
H      -1.31048583     15.40588711     23.50089454
H       3.73944773      2.48959616     -4.16022875
H       6.06714848      2.90805305     -1.37493871
H      -3.02967241     14.64694725     10.88207370
H       1.13285570     -5.02113997      1.04913723
H       0.95305202      2.35793796    -15.21996348
H       9.34275450     -2.91591842      4.03739668
H      10.81543460     -6.56013382     -7.25171160
H      -3.37310579     14.66927557     12.86309239
   94

C       7.05453411     -6.87152577     -7.66459633
C       5.52205499     -7.53079050     -7.21944532
H       7.34471189     -6.11732187     -6.71938037
C     -10.33689221     -0.91026960      5.85635413
H     -18.89191921     -7.18333488     -1.80819950
H       4.59653102     -6.77597510     -6.86964167
C       9.98110954     -1.57703430      7.85660515
H       5.43025967     -8.33318607     -6.27884966
H      -7.50411148     -5.95370196    -16.98464183
H      -7.49642992     -6.72310036    -16.85670782
C      10.45470912      2.35221579      6.47651234
H      11.40996812      2.81133734      7.10005949
C       9.68211458     -2.48732659      6.51159775
H       9.41920280      0.98576490     -2.88352653
H      10.78858715     -2.16110649      6.12589873
H      -0.08700898     -7.31836001     12.34089227
C       8.84086493     -3.84355458      6.57938162
H       7.79804623     -4.06710456      7.19789856
C       4.75535107      5.03284018     -3.87755507
H       9.34467935     -4.94633151      6.80216443
H       5.71889790      5.59077353     -4.44178421
H       4.17858783      6.00498506     -4.41311070
C       5.44010847      2.91963283     -5.58713495
H       5.59667740      4.20910049     -7.95963208
C       5.12504594      3.58339729     -7.06135685
H       5.98196526      1.87372127     -5.91122125
H       4.17060737      3.85665391     -7.73380318
H      -1.67571326     13.86477147     12.14621846
C       8.54443362     -7.58438026     -8.17934214
H     -10.72829832      0.20897863      5.70658131
H     -19.27124808     -7.16730947     -1.12683851
C       0.48373085     -5.56727729      1.86019046
H     -10.99850862     -1.79110969      5.39296226
C      -1.11212970     -7.07337938     12.93298859
H      -0.45934869     -5.97096518      2.40451041
H      -3.34747475     -8.02286197     13.18845453
H      -1.10889653     -5.86697391     12.84883188
C       4.25332570      3.52025308     -4.54108236
H       5.53690245      6.21014530     -1.98356727
C       3.50874879      5.18567697     -1.19898815
H       3.03274500      3.51223376     -4.77915123
H       3.46745442      6.03665248     -0.30393347
H       3.10696359      4.19622934     -0.57190700
H       2.37581804      5.42712712     -1.63220237
H       8.88282911     -7.27450275     -9.33399980
H       8.42840900     -8.78783145     -8.45129473
H      10.69419921     -8.27431772     -6.77928286
H       8.31466040      0.32390929      9.46687948
H      11.58588118     -0.97021031      8.71235540
H      -1.97954154     -9.30140939     13.58272552
H       8.23428602      1.49553931      6.90828305
H      -8.70120307     -4.16253638     22.46205104
H       8.20306385     13.22087459     11.17511345
H      -2.34918553     13.47722656     24.28710952
H      11.26975914     -0.61733077     11.57799623
H      11.13073588      2.20942834      2.70594292
H      -3.43278566     12.93242875     11.85211973
H      12.90482156      2.58031391      3.48694251
H       1.01285978      1.58395819    -15.14759210
H       8.08106424     -3.40372572      4.35832180
H       6.77007605     -6.03088564     -8.53866530
H      12.05871075      0.72555589     10.80604329
C      -9.00520557     -1.21183257      6.63179810
C      -2.20627712     -8.09149813     13.65255904
C       9.33562316      0.74285231      8.89792863
C      10.50020194     -0.49570267      9.00927881
C       9.34368941      1.52931560      7.41628978
C       9.13859921     13.77421757     11.59076035
C      11.28999150     -0.15644783     10.45719994
C      -2.87784695     14.02839337     11.93592863
C      -1.82983498     14.44155955     23.89401623
C       6.06483421      4.08985045     -1.50526000
C      11.79737455      2.17405124      3.69949017
C      11.20460015      1.81733248      5.13368550
C      10.01779128     -7.47251496     -7.38559949
C       4.92956021      5.13519674     -2.16677301
C       8.94354809     -3.08296470      5.17781968
H       7.06469737      4.26799920     -0.85072266
H       4.84266783     -8.18657007     -8.02405331
H      -8.01685506     -1.43572655      7.20730472
H      -8.57287238     -3.49030576     22.83626649
H      -2.32936405     -7.92663583     14.86918532
H       9.90514542      3.37150098      6.07466469
H       9.13279797      1.68721209      9.67852699
H      10.07409039     14.32758677     12.00647252
H      -1.31048444     15.40589216     23.50092197
H       3.74077040      2.47783808     -4.10351564
H       6.03791785      2.91458542     -1.21141825
H      -3.02974877     14.64705047     10.88221683
H       1.13312402     -5.04566770      1.05096217
H       0.95338643      2.35844024    -15.21858182
H       9.34749940     -2.88826529      4.03171443
H      10.81462656     -6.56707935     -7.25433040
H      -3.37318530     14.66938257     12.86323235
   94

C       7.06221651     -6.86163647     -7.66351443
C       5.53290342     -7.52971781     -7.22144152
H       7.35043770     -6.10376665     -6.72055553
C     -10.34231266     -0.90774687      5.85868665
H     -18.89190541     -7.18332607     -1.80819461
H       4.60272699     -6.78146417     -6.87049811
C       9.98844210     -1.58162966      7.85678520
H       5.44574361     -8.33293511     -6.28108451
H      -7.50421907     -5.95379841    -16.98470681
H      -7.49652280     -6.72319494    -16.85676243
C      10.45088501      2.36292272      6.48001030
H      11.41397536      2.80738326      7.10090766
C       9.69719128     -2.49320512      6.51334872
H       8.69947857      1.49229072     -3.69112640
H      10.80202206     -2.16497785      6.11962970
H      -0.08981353     -7.32118764     12.35611256
C       8.84649154     -3.84428220      6.58513420
H       7.80413042     -4.06696260      7.20502949
C       4.78384153      5.02445449     -3.85334416
H       9.33839836     -4.95114213      6.81397541
H       5.72849649      5.60362634     -4.42857293
H       4.20251281      5.99810039     -4.38398524
C       5.51208105      2.86643316     -5.48257523
H       5.61314569      4.18958632     -7.87645070
C       5.19318938      3.58001360     -6.94388418
H       5.92314289      1.78329153     -5.88310252
H       4.24854398      3.85005285     -7.63134595
H      -1.67559127     13.86461881     12.14598930
C       8.54802903     -7.58086340     -8.18052014
H     -10.73370003      0.21150616      5.70890045
H     -19.27123443     -7.16730068     -1.12683370
C       0.45358930     -5.58444010      1.84324857
H     -11.00395806     -1.78858345      5.39532930
C      -1.11493132     -7.07620485     12.94821416
H      -0.46870327     -6.00100531      2.41373225
H      -3.35028159     -8.02567838     13.20369154
H      -1.11169943     -5.86980004     12.86404204
C       4.28389191      3.50113167     -4.49381891
H       5.58768673      6.18121364     -1.96530171
C       3.55296380      5.15785802     -1.18053082
H       3.06398811      3.51158424     -4.74216880
H       3.51842509      6.00548105     -0.28283910
H       3.15339099      4.16275705     -0.56128163
H       2.41801360      5.40193849     -1.60813572
H       8.88485326     -7.28091983     -9.33823346
H       8.43176485     -8.78454310     -8.45121939
H      10.69294397     -8.26454641     -6.77263910
H       8.30841128      0.32459502      9.45220133
H      11.58468185     -0.96763440      8.70221844
H      -1.98235230     -9.30422748     13.59796936
H       8.23435698      1.49329675      6.89431895
H      -8.70122403     -4.16252050     22.46207292
H       8.20304629     13.22079713     11.17496120
H      -2.34918226     13.47722105     24.28708421
H      11.26191043     -0.63548432     11.57150533
H      11.13058109      2.18249630      2.69677626
H      -3.43265593     12.93227294     11.85188292
H      12.90371979      2.56486854      3.48513707
H       1.01177890      1.58388124    -15.14957509
H       8.07492191     -3.38032271      4.36847247
H       6.78024374     -6.01343297     -8.53118912
H      12.06287092      0.71216935     10.80101041
C      -9.01061118     -1.20931212      6.63410464
C      -2.20908297     -8.09431453     13.66779451
C       9.33381321      0.74140359      8.88997718
C      10.49981287     -0.49580493      9.00541695
C       9.34045078      1.52954386      7.40942492
C       9.13855712     13.77415378     11.59064688
C      11.28881152     -0.16583878     10.45463376
C      -2.87772440     14.02824111     11.93569548
C      -1.82983148     14.44155306     23.89398892
C       6.10570662      4.05859454     -1.48402467
C      11.79249044      2.16898513      3.69330261
C      11.19186475      1.85168243      5.12946705
C      10.01882655     -7.46416272     -7.38323121
C       4.97545511      5.10840644     -2.14529444
C       8.94782701     -3.08053390      5.18427414
H       7.13752728      4.22883606     -0.87852797
H       4.85777829     -8.18677693     -8.02858485
H      -8.02225313     -1.43320939      7.20959715
H      -8.57288858     -3.49028871     22.83628462
H      -2.33217005     -7.92944792     14.88442046
H       9.90777880      3.38657347      6.08169347
H       9.13381542      1.68450628      9.67249218
H      10.07403217     14.32753181     12.00638520
H      -1.31048072     15.40588482     23.50089292
H       3.71682820      2.47356371     -4.08712873
H       6.08841868      2.88305898     -1.18866284
H      -3.02961342     14.64688174     10.88197195
H       1.13281041     -5.07062624      1.05315638
H       0.95225162      2.35835191    -15.22064693
H       9.35259616     -2.87694582      4.04023501
H      10.81075968     -6.55534651     -7.24617355
H      -3.37306944     14.66923466     12.86299284
   94

C       7.07126072     -6.83363391     -7.65969533
C       5.54850658     -7.51906518     -7.22299182
H       7.35629731     -6.06772291     -6.72208345
C     -10.34787391     -0.90496126      5.86078370
H     -18.89185999     -7.18329685     -1.80818867
H       4.61016015     -6.78273221     -6.86978955
C       9.99892601     -1.59059400      7.86036884
H       5.46984387     -8.32379654     -6.28309476
H      -7.50422152     -5.95387426    -16.98474648
H      -7.49651033     -6.72326826    -16.85678781
C      10.44054780      2.38157865      6.48552333
H      11.41708749      2.80004344      7.10120388
C       9.72115639     -2.50176585      6.51834462
H       6.62611468      2.50300074     -4.46378067
H      10.82352152     -2.17104097      6.10959412
H      -0.09294653     -7.32426029     12.37203585
C       8.85599588     -3.84534580      6.59844138
H       7.81372367     -4.06841489      7.21888546
C       4.80789270      5.02998710     -3.85789953
H       9.32592282     -4.95908835      6.83951528
H       5.70835996      5.65876975     -4.45547418
H       4.20765972      5.99179031     -4.38963675
C       5.69547213      2.79877776     -5.23349175
H       5.69499076      4.06096414     -7.70488701
C       5.39779963      3.45047917     -6.72919952
H       6.31102467      1.79484772     -5.57865491
H       4.46364827      3.70410772     -7.43550942
H      -1.67522236     13.86417483     12.14530767
C       8.54749530     -7.56788432     -8.18166272
H     -10.73923267      0.21429739      5.71097653
H     -19.27118577     -7.16726916     -1.12682601
C       0.41427487     -5.60138904      1.81970346
H     -11.00953850     -1.78582478      5.39750927
C      -1.11807135     -7.07926595     12.96411492
H      -0.47881857     -6.03435734      2.42618759
H      -3.35339545     -8.02877481     13.21949950
H      -1.11482435     -5.87285902     12.88000423
C       4.34202606      3.46904245     -4.44113143
H       5.68108595      6.12942332     -1.97788019
C       3.63883497      5.09912024     -1.18566385
H       3.13078423      3.47752205     -4.72695125
H       3.62259778      5.93537269     -0.27887064
H       3.25632820      4.08772348     -0.58343891
H       2.49579677      5.34403558     -1.59296122
H       8.88111750     -7.28634981     -9.34490640
H       8.42990378     -8.77165266     -8.45131153
H      10.68649035     -8.24565868     -6.76598979
H       8.29547777      0.32871475      9.42549818
H      11.57899426     -0.96439551      8.68452389
H      -1.98546133     -9.30732329     13.61377305
H       8.23157854      1.48866441      6.86696397
H      -8.70101793     -4.16259184     22.46177845
H       8.20294145     13.22024184     11.17403155
H      -2.34916350     13.47718722     24.28698232
H      11.24918184     -0.66293137     11.55976911
H      11.12561340      2.16118873      2.69805943
H      -3.43227189     12.93183102     11.85119647
H      12.90457516      2.54700025      3.49194606
H       1.01189080      1.58331759    -15.15068447
H       8.06655039     -3.34463832      4.38788750
H       6.79471659     -5.96973017     -8.51388877
H      12.07187514      0.69219590     10.78705814
C      -9.01612999     -1.20645624      6.63613944
C      -2.21221220     -8.09741766     13.68363440
C       9.32915753      0.73994163      8.87500078
C      10.49678378     -0.49579401      9.00026069
C       9.33132185      1.52912455      7.39536568
C       9.13832463     13.77367504     11.58991039
C      11.28805547     -0.17995608     10.44919917
C      -2.87735699     14.02780680     11.93502706
C      -1.82981241     14.44151727     23.89388281
C       6.18350653      3.98616834     -1.53554661
C      11.79004644      2.16070378      3.69111724
C      11.16904505      1.91411032      5.12465058
C      10.01375699     -7.44541959     -7.37801671
C       5.05417489      5.06595859     -2.15645608
C       8.95214865     -3.07442919      5.19908509
H       7.29462208      4.10461214     -1.07663295
H       4.88091994     -8.17829602     -8.03465699
H      -8.02772670     -1.43022196      7.21159855
H      -8.57271924     -3.49036836     22.83601772
H      -2.33531840     -7.93256510     14.90025866
H       9.90853859      3.41158415      6.09083703
H       9.13572598      1.68186521      9.65996142
H      10.07370782     14.32710824     12.00578923
H      -1.31046131     15.40584731     23.50078330
H       3.70487061      2.44679147     -4.12847965
H       6.22076010      2.78547616     -1.36120285
H      -3.02922606     14.64641905     10.88128340
H       1.13344198     -5.09821908      1.05647408
H       0.95214398      2.35773904    -15.22211050
H       9.36508814     -2.85993322      4.06044811
H      10.79936257     -6.53207750     -7.23581169
H      -3.37270765     14.66880232     12.86232070
