   94
energy=      0.00000000
C       7.14629554     -6.79675131     -7.70693128
C       5.72352124     -7.64048050     -7.23360044
H       7.40966990     -5.93531256     -6.84749767
C       2.14599678     -2.73681426      5.82859250
H     -18.89185999     -7.18329685     -1.80818867
H       4.72283046     -7.05677061     -6.79179943
C       3.31263893     -3.16982535      6.98825072
H       5.79828469     -8.46948378     -6.31418064
H      -7.96289402     -6.52827924    -17.27785125
H      -7.95518284     -7.29767323    -17.14989258
C      13.70362908      2.04743089      1.35473271
H      15.83251165      6.65765200     13.29592656
C       6.01785412     -4.50184983      4.68138856
H       8.74196411     10.58844753      1.86021162
H       6.42892590     -4.05154666      3.67479807
H       2.69025793     -9.81327524     15.56566361
C       4.03532347     -4.74419292      6.80365516
H       3.21076031     -5.58177941      6.39943340
C       7.95288058     11.52068700      4.48660746
H       4.01495247     -5.36196969      7.88432693
H       7.70605749     13.09878046      5.83302035
H       7.15362070     12.22267138      3.92258107
C       8.35393469     10.76969349      2.99225450
H      12.46188946      1.50482382     -1.59470434
C      11.79760310      1.88446053     -0.66958700
H      15.63456328      3.47654313      1.53398668
H       7.49862966     10.09976871      2.40523797
H      -1.89885065     10.00506001     11.47761351
C       8.54776524     -7.62473029     -8.27722315
H       1.17685287     -2.12816316      6.26905820
H     -19.27118577     -7.16726916     -1.12682601
C      -2.92948981    -10.06668835     -0.65568032
H       2.53367444     -3.35110798      7.94059892
C       1.66419523     -9.62960592     16.15844264
H      -3.74049201    -10.53758477      0.03331693
H     -10.65591191    -12.22067050     15.67743537
H       1.25948445     -8.51316480     16.32485930
C      -4.11283015     -0.51440436     -7.82060225
H      -0.00855971     10.90396720     -2.37565125
C      -2.25494698      9.83576359     -1.70203627
H      -4.61699753      0.39217379     -8.34796981
H      -2.45855221     10.30185731     -0.57919273
H      -2.77648612      8.72417576     -1.61102174
H      -3.02887250     10.39183367     -2.48355423
H       8.84487389     -7.41463741     -9.46388905
H       8.45045924     -8.81054182     -8.62554103
H      10.30987295     -8.23594705     -6.42078313
H       5.25019140     -0.09241604      5.59350369
H       3.60424338     -0.86965609      8.02769739
H       1.04284337    -10.56237766     16.58480497
H      10.76169058      2.29156766     -1.11836714
H      -9.42675544     -2.95204824     23.99740376
H       6.97683994     12.24407770      8.76816896
H       7.75838032     10.73966420      6.46053997
H       5.27375523     -2.07568514      9.95887520
H      23.68739798      6.18932909     -2.70616817
H      -3.93264863      8.92593565     11.13717716
H      24.37757154      6.33770482     -2.37443862
H       2.43833176     -3.63668430      3.43906091
H       5.73208510     -6.36494996      5.74064455
H       6.86957689     -5.83800057     -8.45343501
H       6.58424613     -2.01339751      8.75667125
C       1.83195583     -2.87321516      4.18613068
C     -10.05393498    -12.16376545     16.67170436
C       4.86111842     -0.86508349      6.39356436
C       4.23872795     -1.81827891      7.54454865
C      12.22280249      1.86530851      0.88118445
C       7.78872848     12.45736917      7.86278673
C       5.37595226     -1.97054527      8.75643023
C      -2.91588689      9.46576497     11.30736850
C       7.84709781     11.93282413      6.17755354
C       0.30527180      8.70036732     -2.40758288
C      16.11680760      1.27876733      2.18383480
C      15.18763249      2.38785192      1.67529793
C       9.94112314     -7.56301978     -7.35771521
C      -0.67053621      9.91672385     -2.16109834
C       5.52094784     -5.18577964      6.05729864
H       9.40221822     10.74187810      2.37294758
H       5.09430126     -8.29266294     -8.08049554
H       0.71515995     -3.30669324      3.88255547
H      -9.29845674     -2.27982476     24.37164303
H      -9.45196013    -12.10686000     17.66597458
H      15.65667725      7.41110511     13.19697914
H      11.49949550      1.74323946      1.82812470
H       8.62267140     12.35029857      8.76998905
H       7.60766790     13.53545849      8.43825859
H      -3.60866278     -1.42098250     -7.29323469
H       0.97782256      7.76066896     -2.56948479
H      -7.32753058     20.54354438      9.86115128
H      -2.11848761     -9.59579193     -1.34467757
H       2.00900885     -1.84488197      3.52548942
H       6.56726566     -5.12892107      6.71197985
H      10.89559271     -6.81832454     -7.40855694
H      -7.46074211     20.55216357     10.62964357
   94
energy=      0.00000000
C       7.14506337     -6.79450824     -7.71260393
C       5.72785767     -7.64204039     -7.22952696
H       7.40822799     -5.92544419     -6.86077388
C       2.07767789     -2.95075183      6.00963811
H     -18.89185999     -7.18329685     -1.80818867
H       4.72864743     -7.06090539     -6.78107708
C       3.25073916     -3.37230414      7.16705093
H       5.80993293     -8.47021222     -6.31004532
H      -7.96315051     -6.52870594    -17.27847764
H      -7.95543932     -7.29809993    -17.15051897
C       8.84442283      3.41019458     -1.04597781
H      16.06704060      6.49113540     13.51510939
C       5.95559309     -4.67647133      4.84731069
H       8.75592682     12.36866764      3.21586243
H       6.36659221     -4.21886188      3.84364682
H       2.67471672     -9.94455986     15.77928948
C       3.97483973     -4.94430495      6.97560618
H       3.15297694     -5.78490939      6.57137641
C       7.93089400     13.04098120      5.68246572
H       3.95673250     -5.56848962      8.05268183
H       8.59003927     14.41618198      7.00893215
H       6.99885603     13.69675493      5.23442191
C       8.60933452     12.14898125      4.42002179
H      12.10503021      1.11389683     -2.25679912
C      10.99479487      1.55502189     -2.03529744
H       8.58320300      5.34349456     -1.05589821
H       7.93163334     11.13910025      4.19742450
H      -1.89889429     10.00514505     11.47760497
C       8.54820666     -7.62054677     -8.28146754
H       1.08716232     -2.38148748      6.45524227
H     -19.27118577     -7.16726916     -1.12682601
C      -2.94967841    -10.08659109     -0.67608296
H       2.48231580     -3.54989635      8.12902564
C       1.64865402     -9.76089049     16.37206851
H      -3.76068061    -10.55748750      0.01291430
H     -10.70354378    -12.23068499     15.67904545
H       1.24394319     -8.64444940     16.53848520
C      -4.11268997     -0.51387115     -7.82037122
H       3.79962440      7.95652457     -2.59408426
C       1.66826372      7.37424937     -2.24262489
H      -4.61685735      0.39270700     -8.34773878
H       1.08089034      8.09942002     -1.42683159
H       0.72444832      6.59113478     -2.37871836
H       1.11924183      8.02286543     -3.14808321
H       8.85227395     -7.40248204     -9.46488788
H       8.45091861     -8.80341171     -8.63981816
H      10.29214353     -8.23890697     -6.41038664
H       5.29812764     -0.37481715      5.74692226
H       3.54132672     -1.06492109      8.17095127
H       1.02730214    -10.69366222     16.79843084
H      10.45579921      1.12672638     -3.01123324
H      -9.42675544     -2.95204824     23.99740376
H       7.11214866     13.31115409      9.70869513
H       8.18599134     12.08345680      7.53915350
H       5.22810677     -2.27019381     10.12692966
H      23.68739798      6.18932909     -2.70616817
H      -3.93269234      8.92602065     11.13716862
H      24.37757154      6.33770482     -2.37443862
H       2.40508112     -3.81130198      3.60778807
H       5.68057685     -6.54130380      5.89616514
H       6.86099705     -5.84172877     -8.46392900
H       6.53108747     -2.15447043      8.92892749
C       1.78585261     -3.06466704      4.36124694
C     -10.10156785    -12.17377975     16.67331502
C       4.84150353     -1.10415444      6.55138190
C       4.18335796     -2.02056713      7.71144216
C      10.12197913      2.39293416     -0.93845726
C       8.05228119     13.72736098      9.01185422
C       5.32167378     -2.15134944      8.92551797
C      -2.91579953      9.46559494     11.30738558
C       8.16857582     13.30554944      7.34089355
C       4.73398229      5.98087293     -1.91342372
C       6.20669644      5.30054055     -1.46463900
C       7.69153868      4.57590277     -1.20729893
C       9.93606412     -7.56740111     -7.35319868
C       3.33856136      6.95269433     -2.11957862
C       5.46202191     -5.36634196      6.22182333
H       9.83543546     12.01728860      4.48585859
H       5.09579362     -8.29677916     -8.07234197
H       0.68077783     -3.50794614      4.03070789
H      -9.29845674     -2.27982476     24.37164303
H      -9.49959200    -12.11687449     17.66758465
H      15.89120620      7.24458851     13.41616196
H      10.60251275      2.05144329      0.11858623
H       9.04097127     13.49177677      9.73390250
H       7.87798148     14.87996005      9.43787988
H      -3.60852260     -1.42044929     -7.29300365
H       4.66488464      5.31432096     -2.88791663
H      -7.32753058     20.54354438      9.86115128
H      -2.13867621     -9.61569467     -1.36508022
H       1.96213014     -2.02113055      3.72484620
H       6.50637923     -5.29809977      6.87833931
H      10.89804022     -6.83229621     -7.40159150
H      -7.46074211     20.55216357     10.62964357
