   94
energy=      0.00000000
C      10.83148750     -8.23601126     -9.00267670
C      -0.01655938    -10.70209306     -9.72690632
H      10.93892436     -7.33953351     -8.15631233
C      -0.23664293     -0.97244553      8.27747989
H      -4.94895465      6.04397474     -1.74247483
H      -0.25046518     -9.91399499     -8.90327125
C       0.93735986     -1.05525131      9.41824082
H      10.01527430     -8.94448834     -8.39661844
H      -8.82389101     -7.11496087    -18.93572149
H      -8.81617982     -7.88435486    -18.80776282
C       6.50598000     -0.37760911     -2.73110779
H      16.07331130      6.48611777     13.52058838
C       8.31757268     -9.93532585      5.43549179
H       8.39791908     12.86147721      3.40416414
H       8.55207890     -9.32426740      4.46039122
H       2.50425844    -10.90118632     17.33758517
C       6.58249631    -10.70434127      7.47492304
H       5.47618552    -10.77352732      6.99576621
C       7.92033879     13.03324709      5.85610152
H       6.28841461    -10.55367527      8.63721186
H       9.57610839     13.93411951      7.14731375
H       6.83779598     13.57632281      5.68198581
C       8.45111577     12.24296788      4.47107722
H      16.85711207      2.91586041     -5.08188573
C      15.75328332      2.69589495     -4.97132326
H       4.37195220      0.38555743     -2.32678203
H       7.89681562     11.15753004      4.26619084
H      -2.21947149     10.71285114     11.84582056
C      12.21297949     -8.99330512     -9.67018020
H      -1.27776364     -0.61064764      8.79372715
H      -4.95527648      6.07625749     -1.62412858
C       2.91739175     -2.85411682     -1.93334435
H       0.87897959     -2.15122604      9.93833506
C       1.47819573    -10.71751696     17.93036419
H       2.17641751     -2.68393295     -1.01090509
H     -10.96213609    -12.27297242     15.66815272
H       1.07348491     -9.60107587     18.09678088
C      -6.58073908     -0.67092922     -9.27227797
H      -1.83650292      7.40780694     -1.72146008
C      -1.96943378      9.44270854     -1.90072804
H      -7.08490647      0.23564898     -9.79964541
H      -1.81637873     10.38346484     -1.12724460
H      -0.76176749      9.38978530     -2.15409492
H      -1.92366786     10.48626108     -2.53628902
H      12.48195669     -8.66803795    -10.83738336
H      12.04729159    -10.16319614    -10.05223683
H      14.01648898     -9.63643020     -7.87355941
H       3.40940040      1.24439208      7.83177091
H       1.44403326      1.02218569     10.41091004
H       0.85684386    -11.65028868     18.35672652
H       8.18659056      0.47343475     -4.22951999
H      -9.42675544     -2.95204824     23.99740376
H       6.85090182     13.27708507      9.28857956
H       9.03581165     12.10177810      7.65004507
H       3.07799992     -0.54638094     12.29172128
H      26.59603254      7.39406717     -2.17340260
H      -4.25326953      9.63372674     11.50538421
H      27.28620609      7.54244290     -1.84167305
H       0.56574980     -2.03131752      6.15797246
H       8.33851350    -11.97852200      6.44949904
H      10.06362218     -7.60566932     -9.74227481
H       4.37226476     -0.55440417     11.03949461
C      -0.26112939     -1.25253678      6.63586113
C     -10.36016020    -12.21606716     16.66242232
C       2.83240058      0.72739586      8.71496893
C       2.05612044      0.05418611      9.95485426
C       7.77566288      0.46237251     -3.10840246
C       7.89763469     13.78826647      8.86473215
C       3.18165275     -0.35773812     11.10255615
C      -3.23637051     10.17328894     11.67560239
C       8.58287432     13.22859851      7.39375473
C      -3.88627404      6.61352749     -1.78350181
C       4.14213205     -1.90640497     -2.18170217
C       4.99877773     -0.62111106     -2.40549283
C      13.62380280     -8.93887257     -8.78169094
C      -2.86196928      7.98236004     -1.81951431
C       8.06801863    -10.81825271      6.75772750
H       9.63087401     11.90710417      4.33208083
H       0.21718049    -11.49019735    -10.55058255
H      -1.28088695     -1.77106989      6.17505445
H      -9.29845674     -2.27982476     24.37164303
H      -9.75818431    -12.15916191     17.65669192
H      15.89747689      7.23957088     13.42164096
H       8.29098057      1.17898848     -2.30219176
H       8.56317563     13.71275016      9.91116573
H       7.56179277     14.97525898      8.98706487
H      -6.07657169     -1.57750739     -8.74491046
H      -3.27881515      5.54877101     -1.90096939
H      -7.59898053     21.21843440      9.78166394
H       2.65279516     -3.74217560     -2.68488085
H      -0.10887564     -0.23669162      5.95205608
H       9.00745792    -10.50324290      7.48638127
H      14.56213712     -8.17521496     -8.82872724
H      -7.73219206     21.22705360     10.55015623
   94
energy=      0.00000000
C      10.83132741     -8.23543351     -9.00302644
C      -0.18035251    -11.28947732    -10.07205865
H      10.94030737     -7.32500753     -8.17180638
C      -0.25011942     -0.95624498      8.29000297
H      -5.32206830      7.27030552     -2.15774216
H      -0.41418313    -10.50137643     -9.24840493
C       0.94837498     -1.04384692      9.40262608
H      10.02611857     -8.94191848     -8.38011585
H      -8.82389101     -7.11496087    -18.93572149
H      -8.81617982     -7.88435486    -18.80776282
C       4.58883108     -0.68097581     -4.21032383
H      16.07331130      6.48611777     13.52058838
C       8.30923951     -9.94038416      5.44566911
H       8.35347933     12.89162935      3.42243090
H       8.49346853     -9.30304428      4.47704613
H       2.50425844    -10.90118632     17.33758517
C       6.58863443    -10.69863645      7.46244627
H       5.48853563    -10.76312034      6.96818211
C       7.94552105     13.02731259      5.88064758
H       6.28140376    -10.52272980      8.61740572
H       9.64991925     13.89388581      7.18069174
H       6.86069456     13.56951637      5.72313737
C       8.43060311     12.24960946      4.47414538
H      16.85665692      2.91566089     -5.08201493
C      15.75282822      2.69569544     -4.97145247
H       2.95976039      0.01401798     -3.39801743
H       7.85786107     11.17302787      4.27343746
H      -2.21976954     10.71351786     11.84628660
C      12.21373542     -8.99046733     -9.67116541
H      -1.28710458     -0.59363167      8.81541405
H      -5.19210758      7.40755282     -0.87687116
C       1.62541216     -2.74187036     -3.46779282
H       0.94302912     -2.16652527      9.86553750
C       1.47819573    -10.71751696     17.93036419
H       1.32119785     -2.75112353     -2.29930609
H     -10.96213609    -12.27297242     15.66815272
H       1.07348491     -9.60107587     18.09678088
C       0.22422630     -1.01676872     -5.43814585
H      -1.96802182      7.86915052     -1.29232048
C      -2.46421647     10.09127456     -1.73162109
H      -0.81372898     -0.92936451     -6.03705123
H      -2.61538489     10.80311925     -0.73300890
H      -1.27493466     10.23896645     -2.03614471
H      -2.90900009     10.86182770     -2.58366344
H      12.48576102     -8.65857888    -10.83581180
H      12.04697613    -10.15833494    -10.05898157
H      14.01515923     -9.64676129     -7.87688577
H       3.42660631      1.24804624      7.83084159
H       1.44126646      1.04414457     10.40445585
H       0.85684386    -11.65028868     18.35672652
H       7.13381958     -0.41261160     -4.36091387
H      -9.42675544     -2.95204824     23.99740376
H       6.83253468     13.25442099      9.23338347
H       9.13703203     12.11423333      7.67354748
H       3.05104766     -0.53156724     12.29275860
H      26.59648769      7.39426669     -2.17327341
H      -4.25356759      9.63439347     11.50585025
H      27.28666125      7.54264242     -1.84154386
H       0.58212464     -2.03093847      6.19854357
H       8.36113600    -11.99501456      6.46942541
H      10.05017885     -7.62388446     -9.74453031
H       4.33993765     -0.62567171     11.02587637
C      -0.26244028     -1.25664215      6.65255239
C     -10.36016020    -12.21606716     16.66242232
C       2.83602612      0.75325412      8.71775910
C       2.05195799      0.07415814      9.94979971
C       6.09826743     -0.37265946     -3.77173269
C       7.88128925     13.78721397      8.84192388
C       3.16238653     -0.36518227     11.10091759
C      -3.23666856     10.17395567     11.67606843
C       8.63234258     13.21712306      7.40795692
C      -4.23049025      7.39541908     -1.63025913
C       1.52947454     -1.55162946     -4.60883032
C       2.98334217     -0.78509371     -4.28173581
C      13.62310681     -8.94232372     -8.77994140
C      -2.96562204      8.49756995     -1.57893782
C       8.08143770    -10.83345029      6.76469708
H       9.60080657     11.89988484      4.29860475
H       0.05346254    -12.07757879    -10.89571623
H      -1.26943871     -1.79743624      6.19016657
H      -9.29845674     -2.27982476     24.37164303
H      -9.75818431    -12.15916191     17.65669192
H      15.89747689      7.23957088     13.42164096
H       6.65196790      0.01089449     -2.77892645
H       8.49065691     13.74486894      9.92257091
H       7.53041810     14.97377943      8.92177837
H       0.82513468     -2.20485664     -5.31222314
H      -3.75348832      6.27816381     -1.86101028
H      -7.59941691     21.21952303      9.78151518
H       2.09628112     -3.85202869     -3.55957045
H      -0.12122476     -0.24764337      5.95665081
H       9.02688252    -10.53477485      7.49252008
H      14.56129420     -8.17804925     -8.81939534
H      -7.73262844     21.22814222     10.55000747
