   94

C      10.83135352     -8.23513031     -9.00318205
C      -0.18156192    -11.29342002    -10.07441688
H      10.94107660     -7.31657652     -8.18100274
C      -0.25194816     -0.95220184      8.29289944
H      -5.18085303      7.47373867     -2.41887230
H      -0.41538673    -10.50531891     -9.25076172
C       0.95447188     -1.04109611      9.39615600
H      10.03289479     -8.94039538     -8.37025524
H      -8.82389101     -7.11496087    -18.93572149
H      -8.81617982     -7.88435486    -18.80776282
C       4.77427223     -0.68558963     -4.34953087
H      16.26525229      6.32974144     13.57266113
C       8.30692347     -9.94104540      5.44988916
H       8.57026653     12.65488111      2.14916280
H       8.47368069     -9.29530390      4.48378980
H       2.50425844    -10.90118632     17.33758517
C       6.59080939    -10.69662826      7.45817895
H       5.49284760    -10.76417039      6.95943310
C       8.17823914     12.76826617      4.58420518
H       6.27929603    -10.50762564      8.60979559
H       9.97178560     13.62426279      5.97326507
H       7.08027206     13.29740902      4.49775846
C       8.65855574     11.99225825      3.18604984
H      16.85665692      2.91566089     -5.08201493
C      15.75282822      2.69569544     -4.97145247
H       2.87771987      0.18614593     -3.57997297
H       8.07593698     10.91905385      3.00257853
H      -2.53866815     10.59090038     11.83149567
C      12.21418433     -8.98883612     -9.67191811
H      -1.28639037     -0.58812453      8.82262462
H      -5.01998879      7.48839792     -0.66927614
C       1.65481985     -2.78026822     -3.41583666
H       0.96521151     -2.17080157      9.84151000
C       1.47819573    -10.71751696     17.93036419
H       1.22126628     -2.75586022     -2.28849727
H     -10.96213609    -12.27297242     15.66815272
H       1.07348491     -9.60107587     18.09678088
C       0.39555825     -0.96028505     -5.23395889
H      -1.91448385      7.81720619     -1.22009491
C      -2.50231721     10.05541030     -1.73232336
H      -0.60692941     -0.68757615     -5.81161283
H      -2.68655683     10.74979728     -0.72754148
H      -1.33502469     10.29818882     -2.05566828
H      -3.03863355     10.73604694     -2.60800370
H      12.48794127     -8.65313743    -10.83507722
H      12.04687630    -10.15543163    -10.06336050
H      14.01386586     -9.65249796     -7.87845783
H       3.43409245      1.25507844      7.83371755
H       1.44138697      1.05100899     10.39990120
H       0.85684386    -11.65028868     18.35672652
H       5.80688753     -0.75074515     -4.93629232
H      -9.42675544     -2.95204824     23.99740376
H       6.31478886     15.06785132     16.37366327
H       9.29457240     11.90553913      6.57417439
H       3.04099722     -0.51732774     12.29580393
H      26.59648769      7.39426669     -2.17327341
H      -4.57246620      9.51177598     11.49105931
H      27.28666125      7.54264242     -1.84154386
H       0.58495782     -2.02856776      6.20468951
H       8.36751516    -12.00052679      6.47481168
H      10.04246873     -7.63458910     -9.74550906
H       4.32569821     -0.65851718     11.02388296
C      -0.26479539     -1.25882780      6.65682435
C     -10.36016020    -12.21606716     16.66242232
C       2.84007461      0.76279200      8.71971398
C       2.05232299      0.08006129      9.94747459
C       6.00466551     -0.31214766     -3.43883716
C       8.17977809     13.77083288      7.22319769
C       3.15536723     -0.36802206     11.10194819
C      -3.55556718     10.05133818     11.66127749
C       8.93684900     12.96424227      6.05339516
C      -4.24215401      7.43414134     -1.62473083
C       1.73933038     -1.63405136     -4.60628406
C       3.13460915     -0.75757310     -4.28221716
C      13.62255751     -8.94432529     -8.77889797
C      -2.90926404      8.44413608     -1.54219402
C       8.08589784    -10.83861360      6.76691800
H       9.82923753     11.64260832      3.02229717
H       0.05225894    -12.08152127    -10.89807302
H      -1.26830313     -1.80993143      6.19920568
H      -9.29845674     -2.27982476     24.37164303
H      -9.75818431    -12.15916191     17.65669192
H      16.08941789      7.08319455     13.47371370
H       6.66998024      0.05100800     -2.54989982
H       7.01100691     15.27446031     16.65825623
H       7.67625530     14.59135583      7.89703805
H       1.50246185     -2.32299186     -5.58236026
H      -3.90082550      6.27297218     -1.86887874
H      -7.60020280     21.22156798      9.78123602
H       2.08772819     -3.90899399     -3.45619333
H      -0.13071415     -0.25124992      5.95755078
H       9.03376789    -10.54724074      7.49457565
H      14.56074608     -8.17983963     -8.81399954
H      -7.73341433     21.23018717     10.54972831
   94

C      10.83135700     -8.23512044     -9.00318948
C      -0.18156818    -11.29343963    -10.07442864
H      10.94110919     -7.31622116     -8.18139856
C      -0.25185945     -0.94305658      8.29578796
H      -5.17664923      7.48002271     -2.42286560
H      -0.41539318    -10.50533864     -9.25077347
C       0.94583536     -1.00868164      9.41175863
H      10.03319140     -8.94033087     -8.36983133
H      -8.82389097     -7.11496081    -18.93572139
H      -8.81617978     -7.88435481    -18.80776273
C       4.77192907     -0.68571927     -4.34694045
H      16.26525351      6.32974256     13.57266145
C       8.30686883     -9.94105728      5.45003666
H       8.56989722     12.65473254      2.14863726
H       8.47305389     -9.29503189      4.48403181
H       2.50425819    -10.90118963     17.33758709
C       6.59088065    -10.69657420      7.45804091
H       5.49298396    -10.76431797      6.95917330
C       8.17897443     12.76826588      4.58377849
H       6.27923801    -10.50702686      8.60952920
H       9.97419061     13.62288951      5.97299721
H       7.08039015     13.29615758      4.49790852
C       8.65855944     11.99203377      3.18547010
H      16.85665696      2.91566084     -5.08201532
C      15.75282828      2.69569538     -4.97145293
H       2.87544979      0.19308236     -3.58374601
H       8.07578214     10.91890378      3.00195897
H      -2.53867323     10.59091236     11.83149733
C      12.21420555     -8.98876739     -9.67195333
H      -1.29322746     -0.58954152      8.81947723
H      -5.01666686      7.48907820     -0.66683986
C       1.65512531     -2.78177447     -3.41530088
H       0.96150694     -2.14578570      9.84414500
C       1.47819549    -10.71751984     17.93036593
H       1.21828840     -2.75475318     -2.28927158
H     -10.96213641    -12.27297290     15.66815297
H       1.07348433     -9.60107906     18.09678356
C       0.39971011     -0.96165467     -5.22980317
H      -1.91274222      7.81564541     -1.21836444
C      -2.50324690     10.05452373     -1.73237470
H      -0.60246484     -0.68226898     -5.80372726
H      -2.68833533     10.74871402     -0.72761986
H      -1.33670581     10.29969087     -2.05641583
H      -3.04184091     10.73268935     -2.60860640
H      12.48803423     -8.65290669    -10.83504915
H      12.04687555    -10.15530722    -10.06355397
H      14.01380361     -9.65273934     -7.87851959
H       3.44164587      1.26315910      7.82388575
H       1.35294910      0.99456064     10.38013455
H       0.85684317    -11.65029136     18.35672793
H       5.78980963     -0.76022834     -4.95888412
H      -9.42675606     -2.95204852     23.99740472
H       6.31478275     15.06785868     16.37370002
H       9.29256130     11.90712893      6.57592551
H       3.04402923     -0.51524625     12.30368364
H      26.59648779      7.39426673     -2.17327348
H      -4.57247392      9.51179213     11.49106154
H      27.28666134      7.54264245     -1.84154392
H       0.58495293     -2.02780021      6.20800987
H       8.36769225    -12.00071226      6.47494494
H      10.04214343     -7.63504973     -9.74554795
H       4.33986051     -0.66239112     11.02856321
C      -0.26386587     -1.25726262      6.66061076
C     -10.36016052    -12.21606765     16.66242258
C       2.85670314      0.76951872      8.71299346
C       2.09862830      0.05773423      9.93350278
C       5.99554099     -0.31108148     -3.42763756
C       8.18025906     13.77448092      7.22097299
C       3.17236831     -0.36954329     11.11147326
C      -3.55557389     10.05135285     11.66127950
C       8.93747942     12.96557672      6.05286115
C      -4.24154101      7.43491729     -1.62461994
C       1.74387908     -1.63756089     -4.60711675
C       3.13328589     -0.75483879     -4.28006387
C      13.62253369     -8.94441115     -8.77885365
C      -2.90728169      8.44275735     -1.54115747
C       8.08603970    -10.83879073      6.76698366
H       9.82908882     11.64197475      3.02157757
H       0.05225296    -12.08154079    -10.89808476
H      -1.26628086     -1.80961046      6.20164762
H      -9.29845736     -2.27982503     24.37164398
H      -9.75818462    -12.15916239     17.65669218
H      16.08941882      7.08319559     13.47371395
H       6.67178078      0.05107329     -2.54644000
H       7.01100085     15.27446769     16.65829283
H       7.67458260     14.58856461      7.90095873
H       1.52343093     -2.32246386     -5.59056742
H      -3.90527883      6.27230458     -1.86867023
H      -7.60020292     21.22156838      9.78123604
H       2.08679538     -3.91096719     -3.45208650
H      -0.13080676     -0.25180137      5.95831174
H       9.03398957    -10.54767560      7.49464091
H      14.56072482     -8.17992031     -8.81377133
H      -7.73341446     21.23018757     10.54972833
   94

C      10.83136037     -8.23511016     -9.00319662
C      -0.18157442    -11.29345899    -10.07444022
H      10.94114136     -7.31586554     -8.18179420
C      -0.25123879     -0.93422649      8.29897591
H      -5.17240920      7.48628278     -2.42684443
H      -0.41539954    -10.50535805     -9.25078505
C       0.93829968     -0.97482067      9.42735853
H      10.03348794     -8.94026579     -8.36940736
H      -8.82389090     -7.11496075    -18.93572126
H      -8.81617972     -7.88435474    -18.80776261
C       4.76977513     -0.68582253     -4.34448725
H      16.26525471      6.32974362     13.57266177
C       8.30681346     -9.94106786      5.45018469
H       8.56952765     12.65458399      2.14811368
H       8.47242645     -9.29475884      4.48427462
H       2.50425798    -10.90119188     17.33758814
C       6.59095119    -10.69651820      7.45790353
H       5.49311958    -10.76446332      6.95891426
C       8.17970961     12.76826495      4.58335497
H       6.27917915    -10.50642560      8.60926309
H       9.97658759     13.62150966      5.97273402
H       7.08050974     13.29490475      4.49805955
C       8.65856288     11.99180982      3.18489261
H      16.85665648      2.91566063     -5.08201561
C      15.75282781      2.69569512     -4.97145331
H       2.87327386      0.19993688     -3.58760178
H       8.07562728     10.91875412      3.00134106
H      -2.53867520     10.59091919     11.83149850
C      12.21422656     -8.98869844     -9.67198837
H      -1.29968441     -0.59147787      8.81619055
H      -5.01333483      7.48975655     -0.66440497
C       1.65544365     -2.78325605     -3.41479005
H       0.95835476     -2.11943289      9.84640804
C       1.47819530    -10.71752185     17.93036690
H       1.21532785     -2.75363325     -2.29008450
H     -10.96213665    -12.27297335     15.66815318
H       1.07348390     -9.60108129     18.09678520
C       0.40390544     -0.96305215     -5.22566979
H      -1.91100787      7.81408561     -1.21663625
C      -2.50417802     10.05363537     -1.73242682
H      -0.59793104     -0.67697496     -5.79580733
H      -2.69011314     10.74762703     -0.72769764
H      -1.33839328     10.30118970     -2.05716289
H      -3.04504030     10.72932779     -2.60920462
H      12.48812701     -8.65267579    -10.83502087
H      12.04687467    -10.15518258    -10.06374721
H      14.01374123     -9.65298047     -7.87858125
H       3.44856369      1.27080790      7.81483702
H       1.26884177      0.93242377     10.35794793
H       0.85684270    -11.65029321     18.35672873
H       5.77219034     -0.76972349     -4.98133111
H      -9.42675662     -2.95204876     23.99740561
H       6.31477651     15.06786575     16.37373660
H       9.29054387     11.90873247      6.57767763
H       3.04656511     -0.51285335     12.31100202
H      26.59648787      7.39426675     -2.17327354
H      -4.57247857      9.51180346     11.49106331
H      27.28666142      7.54264247     -1.84154397
H       0.58501815     -2.02703323      6.21142796
H       8.36786855    -12.00089644      6.47507864
H      10.04181818     -7.63551002     -9.74558632
H       4.35319497     -0.66614059     11.03288941
C      -0.26284657     -1.25571646      6.66457419
C     -10.36016076    -12.21606810     16.66242279
C       2.87234436      0.77642947      8.70719874
C       2.14159595      0.03876893      9.92136335
C       5.98636128     -0.30998684     -3.41632291
C       8.18073927     13.77815690      7.21874536
C       3.18847578     -0.37079693     11.12045902
C      -3.55557737     10.05136224     11.66128100
C       8.93810366     12.96691662      6.05233401
C      -4.24093668      7.43569866     -1.62451395
C       1.74850680     -1.64107434     -4.60800644
C       3.13207282     -0.75217197     -4.27793517
C      13.62250968     -8.94449678     -8.77880919
C      -2.90530508      8.44138115     -1.54012444
C       8.08618068    -10.83896659      6.76704980
H       9.82893966     11.64134176      3.02086006
H       0.05224696    -12.08156009    -10.89809630
H      -1.26416215     -1.80929596      6.20421805
H      -9.29845790     -2.27982526     24.37164485
H      -9.75818486    -12.15916283     17.65669239
H      16.08941975      7.08319658     13.47371420
H       6.67355134      0.05111017     -2.54305290
H       7.01099464     15.27447484     16.65832929
H       7.67292866     14.58573046      7.90485885
H       1.54441938     -2.32182087     -5.59856347
H      -3.90975442      6.27166137     -1.86846496
H      -7.60020298     21.22156864      9.78123606
H       2.08585391     -3.91291226     -3.44801239
H      -0.13087531     -0.25240104      5.95919820
H       9.03421032    -10.54810908      7.49470656
H      14.56070336     -8.18000079     -8.81354300
H      -7.73341452     21.23018782     10.54972835
   94

C      10.83136365     -8.23509945     -9.00320349
C      -0.18158066    -11.29347812    -10.07445165
H      10.94117312     -7.31550955     -8.18218974
C      -0.25015852     -0.92569858      8.30241490
H      -5.16813268      7.49251953     -2.43080885
H      -0.41540584    -10.50537718     -9.25079653
C       0.93213137     -0.94041422      9.44229186
H      10.03378449     -8.94020012     -8.36898323
H      -8.82389083     -7.11496067    -18.93572110
H      -8.81617965     -7.88435467    -18.80776246
C       4.76781737     -0.68589973     -4.34219275
H      16.26525581      6.32974452     13.57266203
C       8.30675772     -9.94107731      5.45033319
H       8.56915781     12.65443536      2.14759194
H       8.47179848     -9.29448478      4.48451822
H       2.50425784    -10.90119318     17.33758856
C       6.59102148    -10.69646083      7.45776670
H       5.49325502    -10.76460742      6.95865576
C       8.18044496     12.76826351      4.58293450
H       6.27911997    -10.50582243      8.60899712
H       9.97897673     13.62012328      5.97247556
H       7.08063096     13.29365036      4.49821153
C       8.65856607     11.99158630      3.18431727
H      16.85665543      2.91566026     -5.08201578
C      15.75282677      2.69569465     -4.97145354
H       2.87119730      0.20670678     -3.59154172
H       8.07547237     10.91860480      3.00072468
H      -2.53867522     10.59092201     11.83149921
C      12.21424737     -8.98862923     -9.67202321
H      -1.30563431     -0.59377227      8.81293813
H      -5.00999222      7.49043282     -0.66197118
C       1.65577649     -2.78471236     -3.41430455
H       0.95563207     -2.09231826      9.84841746
C       1.47819521    -10.71752304     17.93036732
H       1.21238452     -2.75249947     -2.29093700
H     -10.96213684    -12.27297375     15.66815335
H       1.07348366     -9.60108262     18.09678604
C       0.40814575     -0.96447405     -5.22155645
H      -1.90928031      7.81252646     -1.21490987
C      -2.50511067     10.05274499     -1.73247967
H      -0.59332652     -0.67169309     -5.78785061
H      -2.69189062     10.74653613     -0.72777484
H      -1.34008738     10.30268553     -2.05790961
H      -3.04823227     10.72596167     -2.60979836
H      12.48821963     -8.65244465    -10.83499237
H      12.04687364    -10.15505767    -10.06394029
H      14.01367868     -9.65322142     -7.87864282
H       3.45477898      1.27790906      7.80677918
H       1.18979723      0.86693525     10.33417674
H       0.85684246    -11.65029430     18.35672909
H       5.75403919     -0.77922748     -5.00363064
H      -9.42675705     -2.95204894     23.99740633
H       6.31477024     15.06787285     16.37377315
H       9.28851992     11.91035007      6.57943074
H       3.04861987     -0.51017928     12.31762714
H      26.59648790      7.39426675     -2.17327360
H      -4.57248074      9.51181003     11.49106452
H      27.28666145      7.54264248     -1.84154403
H       0.58510856     -2.02626959      6.21487021
H       8.36804449    -12.00107960      6.47521271
H      10.04149290     -7.63597004     -9.74562418
H       4.36556507     -0.66968154     11.03666846
C      -0.26177268     -1.25418955      6.66866502
C     -10.36016094    -12.21606849     16.66242296
C       2.88703019      0.78310681      8.70244208
C       2.18074561      0.02263879      9.91099184
C       5.97710393     -0.30886181     -3.40487806
C       8.18121870     13.78186060      7.21651525
C       3.20353562     -0.37183577     11.12873019
C      -3.55557850     10.05136702     11.66128196
C       8.93872175     12.96826243      6.05181373
C      -4.24034079      7.43648558     -1.62441264
C       1.75321481     -1.64459004     -4.60895233
C       3.13097568     -0.74957574     -4.27583080
C      13.62248549     -8.94458220     -8.77876458
C      -2.90333366      8.44000710     -1.53909466
C       8.08632125    -10.83914143      6.76711629
H       9.82879005     11.64070916      3.02014446
H       0.05224094    -12.08157919    -10.89810769
H      -1.26199111     -1.80897869      6.20688618
H      -9.29845832     -2.27982543     24.37164554
H      -9.75818504    -12.15916320     17.65669256
H      16.08942063      7.08319742     13.47371440
H       6.67528282      0.05111708     -2.53973798
H       7.01098840     15.27448203     16.65836571
H       7.67129402     14.58285357      7.90873756
H       1.56542496     -2.32106754     -5.60635003
H      -3.91425263      6.27104269     -1.86826302
H      -7.60020300     21.22156878      9.78123609
H       2.08490485     -3.91482893     -3.44396969
H      -0.13093781     -0.25303105      5.96019416
H       9.03443052    -10.54854139      7.49477260
H      14.56068169     -8.18008108     -8.81331450
H      -7.73341454     21.23018795     10.54972837
   94

C      10.83136682     -8.23508829     -9.00321008
C      -0.18158689    -11.29349704    -10.07446297
H      10.94120446     -7.31515310     -8.18258529
C      -0.24868968     -0.91738438      8.30606806
H      -5.16381957      7.49873330     -2.43475895
H      -0.41541207    -10.50539602     -9.25080791
C       0.92728140     -0.90591336      9.45634740
H      10.03408111     -8.94013383     -8.36855883
H      -8.82389074     -7.11496058    -18.93572091
H      -8.81617957     -7.88435459    -18.80776229
C       4.76606362     -0.68595141     -4.34007749
H      16.26525670      6.32974520     13.57266220
C       8.30670184     -9.94108584      5.45048209
H       8.56878766     12.65428657      2.14707200
H       8.47117006     -9.29420982      4.48476257
H       2.50425782    -10.90119365     17.33758854
C       6.59109181    -10.69640255      7.45763028
H       5.49339061    -10.76475096      6.95839761
C       8.18118069     12.76826163      4.58251703
H       6.27906079    -10.50521784      8.60873118
H       9.98135803     13.61873045      5.97222197
H       7.08075389     13.29239429      4.49836450
C       8.65856901     11.99136315      3.18374405
H      16.85665380      2.91565972     -5.08201580
C      15.75282515      2.69569398     -4.97145361
H       2.86922493      0.21338901     -3.59556688
H       8.07531741     10.91845576      3.00010981
H      -2.53867423     10.59092198     11.83149953
C      12.21426799     -8.98855974     -9.67205786
H      -1.31101213     -0.59623569      8.80985828
H      -5.00663861      7.49110687     -0.65953830
C       1.65612518     -2.78614286     -3.41384462
H       0.95322112     -2.06479646      9.85024408
C       1.47819522    -10.71752350     17.93036736
H       1.20945840     -2.75135110     -2.29182978
H     -10.96213699    -12.27297406     15.66815349
H       1.07348362     -9.60108314     18.09678627
C       0.41243198     -0.96591671     -5.21746088
H      -1.90755922      7.81096774     -1.21318502
C      -2.50604496     10.05185246     -1.73253324
H      -0.58865026     -0.66642280     -5.77985526
H      -2.69366806     10.74544119     -0.72785152
H      -1.34178834     10.30417855     -2.05865610
H      -3.05141723     10.72259064     -2.61038768
H      12.48831210     -8.65221322    -10.83496365
H      12.04687249    -10.15493246    -10.06413323
H      14.01361595     -9.65346222     -7.87870434
H       3.46033256      1.28445370      7.79974959
H       1.11567220      0.79940179     10.30923961
H       0.85684243    -11.65029472     18.35672913
H       5.73536725     -0.78873684     -5.02577995
H      -9.42675731     -2.95204905     23.99740679
H       6.31476401     15.06788014     16.37380974
H       9.28648934     11.91198193      6.58118479
H       3.05024718     -0.50725856     12.32354606
H      26.59648789      7.39426674     -2.17327364
H      -4.57248109      9.51181242     11.49106517
H      27.28666144      7.54264247     -1.84154407
H       0.58519180     -2.02550531      6.21830758
H       8.36822032    -12.00126198      6.47534705
H      10.04116752     -7.63642988     -9.74566155
H       4.37698127     -0.67298115     11.03982164
C      -0.26066991     -1.25267275      6.67286298
C     -10.36016108    -12.21606879     16.66242310
C       2.90089544      0.78930939      8.69867683
C       2.21623619      0.00882215      9.90220133
C       5.96774791     -0.30770417     -3.39328882
C       8.18169719     13.78559142      7.21428335
C       3.21756477     -0.37270566     11.13626290
C      -3.55557813     10.05136813     11.66128244
C       8.93933364     12.96961450      6.05130036
C      -4.23975320      7.43727819     -1.62431587
C       1.75800370     -1.64810626     -4.60995342
C       3.13000023     -0.74705292     -4.27375084
C      13.62246109     -8.94466741     -8.77871980
C      -2.90136705      8.43863497     -1.53806799
C       8.08646171    -10.83931550      6.76718305
H       9.82863996     11.64007683      3.01943070
H       0.05223491    -12.08159811    -10.89811894
H      -1.25979834     -1.80864511      6.20964295
H      -9.29845856     -2.27982552     24.37164598
H      -9.75818516    -12.15916349     17.65669269
H      16.08942137      7.08319807     13.47371453
H       6.67696537      0.05109228     -2.53649510
H       7.01098220     15.27448938     16.65840218
H       7.66967925     14.57993430      7.91259382
H       1.58644441     -2.32020860     -5.61392842
H      -3.91877371      6.27044876     -1.86806456
H      -7.60020299     21.22156883      9.78123611
H       2.08394921     -3.91671691     -3.43995718
H      -0.13100549     -0.25367701      5.96129074
H       9.03465042    -10.54897273      7.49483897
H      14.56065981     -8.18016120     -8.81308578
H      -7.73341453     21.23018800     10.54972840
   94

C      10.83136988     -8.23507667     -9.00321641
C      -0.18159311    -11.29351576    -10.07447417
H      10.94123536     -7.31479616     -8.18298086
C      -0.24689386     -0.90916473      8.30991157
H      -5.15947008      7.50492385     -2.43869480
H      -0.41541825    -10.50541460     -9.25081922
C       0.92346573     -0.87139325      9.46965895
H      10.03437781     -8.94006689     -8.36813416
H      -8.82389064     -7.11496049    -18.93572070
H      -8.81617948     -7.88435449    -18.80776209
C       4.76452244     -0.68597856     -4.33816086
H      16.26525731      6.32974563     13.57266225
C       8.30664592     -9.94109361      5.45063132
H       8.56841722     12.65413761      2.14655388
H       8.47054124     -9.29393409      4.48500761
H       2.50425789    -10.90119339     17.33758820
C       6.59116229    -10.69634362      7.45749417
H       5.49352647    -10.76489428      6.95813972
C       8.18191689     12.76825938      4.58210261
H       6.27900172    -10.50461218      8.60846518
H       9.98373127     13.61733132      5.97197345
H       7.08087858     13.29113649      4.49851856
C       8.65857170     11.99114035      3.18317298
H      16.85665161      2.91565902     -5.08201565
C      15.75282296      2.69569312     -4.97145350
H       2.86736115      0.21997988     -3.59967776
H       8.07516237     10.91830699      2.99949645
H      -2.53867277     10.59091993     11.83149955
C      12.21428840     -8.98848995     -9.67209235
H      -1.31581622     -0.59870367      8.80702897
H      -5.00327373      7.49177848     -0.65710622
C       1.65649083     -2.78754701     -3.41341036
H       0.95102169     -2.03699445      9.85191304
C       1.47819533    -10.71752330     17.93036710
H       1.20654971     -2.75018769     -2.29276319
H     -10.96213709    -12.27297427     15.66815360
H       1.07348376     -9.60108293     18.09678599
C       0.41676424     -0.96737613     -5.21338081
H      -1.90584448      7.80940948     -1.21146167
C      -2.50698090     10.05095775     -1.73258756
H      -0.58390196     -0.66116422     -5.77182041
H      -2.69544556     10.74434223     -0.72792774
H      -1.34349623     10.30566886     -2.05940246
H      -3.05459532     10.71921464     -2.61097262
H      12.48840442     -8.65198148    -10.83493471
H      12.04687118    -10.15480691    -10.06432607
H      14.01355304     -9.65370289     -7.87876580
H       3.46532221      1.29049690      7.79367682
H       1.04598022      0.73026813     10.28321799
H       0.85684257    -11.65029453     18.35672893
H       5.71618785     -0.79824725     -5.04777499
H      -9.42675739     -2.95204908     23.99740699
H       6.31475785     15.06788765     16.37384638
H       9.28445217     11.91362805      6.58293965
H       3.05151074     -0.50412250     12.32881468
H      26.59648783      7.39426671     -2.17327367
H      -4.57248011      9.51181131     11.49106533
H      27.28666138      7.54264244     -1.84154410
H       0.58525102     -2.02473282      6.22174899
H       8.36839617    -12.00144376      6.47548162
H      10.04084199     -7.63688955     -9.74569842
H       4.38753803     -0.67604059     11.04236320
C      -0.25955191     -1.25115238      6.67717251
C     -10.36016117    -12.21606899     16.66242320
C       2.91409974      0.79495116      8.69577176
C       2.24852423     -0.00315766      9.89474352
C       5.95827461     -0.30651157     -3.38154290
C       8.18217440     13.78934813      7.21205075
C       3.23067372     -0.37343660     11.14312045
C      -3.55557681     10.05136637     11.66128250
C       8.93993919     12.97097298      6.05079409
C      -4.23917393      7.43807664     -1.62422361
C       1.76287312     -1.65162102     -4.61100853
C       3.12915202     -0.74460614     -4.27169597
C      13.62243649     -8.94475243     -8.77867487
C      -2.89940516      8.43726471     -1.53704444
C       8.08660218    -10.83948896      6.76725000
H       9.82848938     11.63944476      3.01871877
H       0.05222885    -12.08161687    -10.89813008
H      -1.25759945     -1.80828178      6.21249918
H      -9.29845864     -2.27982555     24.37164616
H      -9.75818523    -12.15916367     17.65669278
H      16.08942191      7.08319847     13.47371456
H       6.67858819      0.05103395     -2.53332447
H       7.01097608     15.27449692     16.65843869
H       7.66808499     14.57697332      7.91642624
H       1.60747280     -2.31924898     -5.62129946
H      -3.92331768      6.26987989     -1.86786973
H      -7.60020297     21.22156881      9.78123612
H       2.08298801     -3.91857577     -3.43597385
H      -0.13108307     -0.25432968      5.96248745
H       9.03487014    -10.54940331      7.49490560
H      14.56063772     -8.18024114     -8.81285682
H      -7.73341451     21.23018798     10.54972841
   94

C      10.83137281     -8.23506459     -9.00322248
C      -0.18159932    -11.29353427    -10.07448527
H      10.94126582     -7.31443874     -8.18337648
C      -0.24482339     -0.90092398      8.31392684
H      -5.15508463      7.51109062     -2.44261642
H      -0.41542436    -10.50543292     -9.25083044
C       0.92030345     -0.83675951      9.48249711
H      10.03467458     -8.93999931     -8.36770922
H      -8.82389052     -7.11496038    -18.93572046
H      -8.81617938     -7.88435439    -18.80776187
C       4.76320249     -0.68598276     -4.33646067
H      16.26525758      6.32974579     13.57266219
C       8.30658995     -9.94110074      5.45078082
H       8.56804647     12.65398849      2.14603764
H       8.46991201     -9.29365775      4.48525328
H       2.50425803    -10.90119247     17.33758757
C       6.59123288    -10.69628416      7.45735831
H       5.49366253    -10.76503741      6.95788202
C       8.18265355     12.76825677      4.58169135
H       6.27894272    -10.50400558      8.60819905
H       9.98609602     13.61592612      5.97173026
H       7.08100506     13.28987702      4.49867380
C       8.65857415     11.99091795      3.18260413
H      16.85664888      2.91565818     -5.08201536
C      15.75282024      2.69569207     -4.97145322
H       2.86560964      0.22647545     -3.60387417
H       8.07500726     10.91815854      2.99888464
H      -2.53867110     10.59091630     11.83149932
C      12.21430860     -8.98841987     -9.67212665
H      -1.32008719     -0.60106408      8.80447452
H      -4.99989741      7.49244737     -0.65467486
C       1.65687426     -2.78892431     -3.41300174
H       0.94895627     -2.00891051      9.85342652
C       1.47819549    -10.71752251     17.93036656
H       1.20365882     -2.74900904     -2.29373728
H     -10.96213712    -12.27297436     15.66815367
H       1.07348404     -9.60108205     18.09678523
C       0.42114193     -0.96884807     -5.20931400
H      -1.90413615      7.80785180     -1.20973992
C      -2.50791847     10.05006096     -1.73264269
H      -0.57908195     -0.65591796     -5.76374595
H      -2.69722309     10.74323932     -0.72800352
H      -1.34521100     10.30715651     -2.06014870
H      -3.05776647     10.71583385     -2.61155322
H      12.48849659     -8.65174943    -10.83490554
H      12.04686974    -10.15468105    -10.06451879
H      14.01348995     -9.65394344     -7.87882722
H       3.46985618      1.29611585      7.78844780
H       0.98024699      0.65957030     10.25605608
H       0.85684287    -11.65029378     18.35672849
H       5.69651691     -0.80775328     -5.06960925
H      -9.42675731     -2.95204905     23.99740692
H       6.31475174     15.06789532     16.37388304
H       9.28240863     11.91528832      6.58469508
H       3.05246667     -0.50079471     12.33350760
H      26.59648773      7.39426666     -2.17327368
H      -4.57247810      9.51180727     11.49106506
H      27.28666127      7.54264239     -1.84154411
H       0.58528340     -2.02394468      6.22522451
H       8.36857204    -12.00162504      6.47561636
H      10.04051631     -7.63734905     -9.74573479
H       4.39735513     -0.67887666     11.04436437
C      -0.25842182     -1.24961511      6.68160926
C     -10.36016119    -12.21606906     16.66242325
C       2.92677564      0.80004495      8.69357840
C       2.27809507     -0.01373103      9.88835371
C       5.94866868     -0.30528169     -3.36963133
C       8.18264985     13.79312909      7.20981877
C       3.24299657     -0.37404376     11.14938888
C      -3.55557484     10.05136230     11.66128223
C       8.94053818     12.97233792      6.05029511
C      -4.23860313      7.43888107     -1.62413589
C       1.76782184     -1.65513232     -4.61211628
C       3.12843604     -0.74223750     -4.26966727
C      13.62241168     -8.94483724     -8.77862978
C      -2.89744808      8.43589642     -1.53602415
C       8.08674266    -10.83966192      6.76731711
H       9.82833831     11.63881297      3.01800874
H       0.05222278    -12.08163545    -10.89814109
H      -1.25539782     -1.80787885      6.21547591
H      -9.29845854     -2.27982551     24.37164608
H      -9.75818524    -12.15916373     17.65669283
H      16.08942217      7.08319863     13.47371449
H       6.68013923      0.05093999     -2.53022681
H       7.01097003     15.27450460     16.65847523
H       7.66651198     14.57397159      7.92023317
H       1.62850395     -2.31819381     -5.62846376
H      -3.92788432      6.26933642     -1.86767866
H      -7.60020293     21.22156873      9.78123613
H       2.08202221     -3.92040503     -3.43201886
H      -0.13116969     -0.25498369      5.96378963
H       9.03508969    -10.54983324      7.49497245
H      14.56061540     -8.18032092     -8.81262764
H      -7.73341447     21.23018790     10.54972842
   94

C      10.83137560     -8.23505205     -9.00322831
C      -0.18160553    -11.29355257    -10.07449623
H      10.94129582     -7.31408084     -8.18377213
C      -0.24251698     -0.89256624      8.31809739
H      -5.15066370      7.51723294     -2.44652380
H      -0.41543041    -10.50545097     -9.25084156
C       0.91744260     -0.80190265      9.49511331
H      10.03497138     -8.93993109     -8.36728403
H      -8.82389040     -7.11496026    -18.93572020
H      -8.81617926     -7.88435427    -18.80776162
C       4.76211167     -0.68596632     -4.33499285
H      16.26525749      6.32974571     13.57266202
C       8.30653386     -9.94110732      5.45093056
H       8.56767541     12.65383926      2.14552334
H       8.46928236     -9.29338089      4.48549953
H       2.50425821    -10.90119093     17.33758661
C       6.59130346    -10.69622418      7.45722266
H       5.49379866    -10.76518024      6.95762453
C       8.18339066     12.76825385      4.58128335
H       6.27888367    -10.50339810      8.60793276
H       9.98845185     13.61451511      5.97149264
H       7.08113331     13.28861596      4.49883033
C       8.65857633     11.99069601      3.18203757
H      16.85664567      2.91565719     -5.08201494
C      15.75281702      2.69569085     -4.97145280
H       2.86397298      0.23287208     -3.60815535
H       8.07485209     10.91801046      2.99827442
H      -2.53866927     10.59091135     11.83149888
C      12.21432858     -8.98834949     -9.67216079
H      -1.32387706     -0.60326045      8.80218847
H      -4.99650951      7.49311323     -0.65224420
C       1.65727602     -2.79027445     -3.41261861
H       0.94697494     -1.98051199      9.85477921
C       1.47819569    -10.71752113     17.93036572
H       1.20078610     -2.74781512     -2.29475193
H     -10.96213709    -12.27297434     15.66815367
H       1.07348443     -9.60108052     18.09678398
C       0.42556399     -0.97032844     -5.20525823
H      -1.90243432      7.80629488     -1.20801992
C      -2.50885762     10.04916219     -1.73269865
H      -0.57419100     -0.65068484     -5.75563218
H      -2.69900060     10.74213253     -0.72807888
H      -1.34693259     10.30864151     -2.06089484
H      -3.06093059     10.71244848     -2.61212951
H      12.48858859     -8.65151708    -10.83487616
H      12.04686813    -10.15455486    -10.06471140
H      14.01342667     -9.65418387     -7.87888860
H       3.47402580      1.30138255      7.78395252
H       0.91811205      0.58730981     10.22772028
H       0.85684327    -11.65029250     18.35672781
H       5.67637314     -0.81724806     -5.09127259
H      -9.42675707     -2.95204896     23.99740661
H       6.31474567     15.06790305     16.37391968
H       9.28035898     11.91696260      6.58645082
H       3.05315687     -0.49729196     12.33768587
H      26.59648758      7.39426659     -2.17327367
H      -4.57247528      9.51180077     11.49106444
H      27.28666113      7.54264233     -1.84154412
H       0.58529671     -2.02313538      6.22876983
H       8.36874783    -12.00180588      6.47575125
H      10.04019047     -7.63780835     -9.74577068
H       4.40654198     -0.68151019     11.04591980
C      -0.25727484     -1.24805074      6.68619003
C     -10.36016115    -12.21606903     16.66242325
C       2.93901046      0.80464192      8.69196656
C       2.30533454     -0.02329423      9.88277570
C       5.93891884     -0.30401275     -3.35754994
C       8.18312304     13.79693250      7.20758881
C       3.25464893     -0.37453710     11.15513651
C      -3.55557237     10.05135630     11.66128166
C       8.94113042     12.97370935      6.04980367
C      -4.23804093      7.43969162     -1.62405274
C       1.77284788     -1.65863830     -4.61327517
C       3.12785618     -0.73994830     -4.26766612
C      13.62238666     -8.94492187     -8.77858455
C      -2.89549595      8.43453020     -1.53500727
C       8.08688303    -10.83983443      6.76738435
H       9.82818674     11.63818152      3.01730067
H       0.05221669    -12.08165385    -10.89815196
H      -1.25318774     -1.80743117      6.21859471
H      -9.29845830     -2.27982542     24.37164577
H      -9.75818518    -12.15916367     17.65669281
H      16.08942212      7.08319856     13.47371432
H       6.68160488      0.05080792     -2.52720357
H       7.01096400     15.27451232     16.65851176
H       7.66496092     14.57093022      7.92401290
H       1.64953122     -2.31704828     -5.63542202
H      -3.93247340      6.26881873     -1.86749151
H      -7.60020288     21.22156861      9.78123614
H       2.08105274     -3.92220430     -3.42809137
H      -0.13125987     -0.25563542      5.96520631
H       9.03530899    -10.55026262      7.49503948
H      14.56059286     -8.18040055     -8.81239825
H      -7.73341443     21.23018778     10.54972843
   94

C      10.83137824     -8.23503905     -9.00323392
C      -0.18161173    -11.29357066    -10.07450707
H      10.94132536     -7.31372249     -8.18416782
C      -0.23998901     -0.88401333      8.32241594
H      -5.14620775      7.52335020     -2.45041695
H      -0.41543639    -10.50546876     -9.25085256
C       0.91460159     -0.76671424      9.50772152
H      10.03526820     -8.93986222     -8.36685862
H      -8.82389027     -7.11496013    -18.93571990
H      -8.81617914     -7.88435414    -18.80776134
C       4.76125628     -0.68593240     -4.33377105
H      16.26525703      6.32974542     13.57266175
C       8.30647761     -9.94111343      5.45108051
H       8.56730403     12.65368998      2.14501104
H       8.46865226     -9.29310364      4.48574633
H       2.50425839    -10.90118875     17.33758527
C       6.59137392    -10.69616367      7.45708721
H       5.49393472    -10.76532264      6.95736724
C       8.18412821     12.76825064      4.58087872
H       6.27882444    -10.50278970      8.60766631
H       9.99079832     13.61309855      5.97126085
H       7.08126335     13.28735338      4.49898826
C       8.65857825     11.99047459      3.18147337
H      16.85664203      2.91565608     -5.08201441
C      15.75281338      2.69568949     -4.97145226
H       2.86245240      0.23916677     -3.61251994
H       8.07469687     10.91786281      2.99766583
H      -2.53866727     10.59090520     11.83149825
C      12.21434834     -8.98827883     -9.67219476
H      -1.32722572     -0.60528087      8.80015278
H      -4.99310989      7.49377576     -0.64981419
C       1.65769645     -2.79159734     -3.41226080
H       0.94505856     -1.95176415      9.85595430
C       1.47819589    -10.71751917     17.93036452
H       1.19793177     -2.74660606     -2.29580689
H     -10.96213698    -12.27297420     15.66815362
H       1.07348487     -9.60107835     18.09678216
C       0.43002900     -0.97181342     -5.20121144
H      -1.90073904      7.80473886     -1.20630179
C      -2.50979833     10.04826152     -1.73275549
H      -0.56923016     -0.64546566     -5.74747956
H      -2.70077805     10.74102193     -0.72815386
H      -1.34866096     10.31012389     -2.06164086
H      -3.06408758     10.70905874     -2.61270152
H      12.48868042     -8.65128444    -10.83484658
H      12.04686636    -10.15442836    -10.06490390
H      14.01336320     -9.65442418     -7.87894996
H       3.47789844      1.30635297      7.78009928
H       0.85927358      0.51358559     10.19823938
H       0.85684377    -11.65029067     18.35672685
H       5.65577852     -0.82672302     -5.11275033
H      -9.42675670     -2.95204883     23.99740610
H       6.31473961     15.06791077     16.37395627
H       9.27830349     11.91865075      6.58820659
H       3.05361063     -0.49362817     12.34138520
H      26.59648739      7.39426651     -2.17327365
H      -4.57247180      9.51179224     11.49106352
H      27.28666095      7.54264226     -1.84154411
H       0.58530557     -2.02230036      6.23241920
H       8.36892343    -12.00198631      6.47588629
H      10.03986447     -7.63826744     -9.74580609
H       4.41518872     -0.68396294     11.04712640
C      -0.25610028     -1.24645171      6.69093247
C     -10.36016102    -12.21606887     16.66242318
C       2.95085548      0.80878660      8.69082873
C       2.33052829     -0.03224564      9.87775626
C       5.92901846     -0.30270376     -3.34530061
C       8.18359345     13.80075656      7.20536227
C       3.26571724     -0.37493313     11.16040055
C      -3.55556947     10.05134865     11.66128085
C       8.94171572     12.97508731      6.04931994
C      -4.23748746      7.44050843     -1.62397420
C       1.77794868     -1.66213748     -4.61448362
C       3.12741482     -0.73773884     -4.26569401
C      13.62236142     -8.94500630     -8.77853919
C      -2.89354888      8.43316615     -1.53399395
C       8.08702320    -10.84000653      6.76745173
H       9.82803467     11.63755048      3.01659461
H       0.05221058    -12.08167207    -10.89816269
H      -1.25095548     -1.80693651      6.22187298
H      -9.29845794     -2.27982530     24.37164526
H      -9.75818503    -12.15916350     17.65669273
H      16.08942175      7.08319829     13.47371406
H       6.68296975      0.05063477     -2.52425692
H       7.01095799     15.27452003     16.65854824
H       7.66343245     14.56785038      7.92776382
H       1.67054792     -2.31581760     -5.64217527
H      -3.93708467      6.26832716     -1.86730838
H      -7.60020282     21.22156844      9.78123615
H       2.08008046     -3.92397329     -3.42419053
H      -0.13134400     -0.25628161      5.96675037
H       9.03552799    -10.55069152      7.49510666
H      14.56057011     -8.18048002     -8.81216868
H      -7.73341437     21.23018761     10.54972843
   94

C      10.83137502     -8.23501779     -9.00323688
C      -0.18161430    -11.29358944    -10.07451831
H      10.94136101     -7.31332995     -8.18458836
C      -0.23145847     -0.86890614      8.33303276
H      -5.13933323      7.53145952     -2.45749103
H      -0.41543830    -10.50548830     -9.25086295
C       0.90446384     -0.69356395      9.54231601
H      10.03556687     -8.93978898     -8.36642379
H      -8.82389101     -7.11496087    -18.93572149
H      -8.81617982     -7.88435486    -18.80776282
C       4.76300345     -0.68612216     -4.33251630
H      16.26525229      6.32974144     13.57266113
C       8.30629707     -9.94107598      5.45125321
H       8.56671304     12.65359943      2.14429891
H       8.46795029     -9.29280713      4.48601329
H       2.50425844    -10.90118632     17.33758517
C       6.59145210    -10.69603856      7.45691483
H       5.49409825    -10.76545339      6.95703955
C       8.18496480     12.76807324      4.58040285
H       6.27875348    -10.50215027      8.60736186
H       9.99391875     13.61118483      5.97097702
H       7.08148711     13.28581424      4.49919567
C       8.65857741     11.99024230      3.18066299
H      16.85665692      2.91566089     -5.08201493
C      15.75282822      2.69569544     -4.97145247
H       2.86211024      0.24577505     -3.61890984
H       8.07455588     10.91768953      2.99675404
H      -2.53866815     10.59090038     11.83149567
C      12.21436013     -8.98820373     -9.67222791
H      -1.32854958     -0.60537700      8.79838357
H      -4.98711061      7.49414587     -0.64500872
C       1.65820519     -2.79306342     -3.41152804
H       0.94367918     -1.89412880      9.85619495
C       1.47819573    -10.71751696     17.93036419
H       1.19457813     -2.74504070     -2.29678679
H     -10.96213609    -12.27297242     15.66815272
H       1.07348491     -9.60107587     18.09678088
C       0.43503654     -0.97067809     -5.19297435
H      -1.89884331      7.80278247     -1.20409542
C      -2.51111140     10.04713827     -1.73287184
H      -0.56281182     -0.63932470     -5.73720332
H      -2.70293785     10.73932914     -0.72804049
H      -1.35093691     10.31211896     -2.06247655
H      -3.06834164     10.70433887     -2.61366143
H      12.48877929     -8.65102899    -10.83480857
H      12.04685289    -10.15429538    -10.06510379
H      14.01329994     -9.65467507     -7.87901507
H       3.48466183      1.31351208      7.77285100
H       0.75566744      0.37175602     10.13104064
H       0.85684386    -11.65028868     18.35672652
H       5.62055621     -0.84314648     -5.15161031
H      -9.42675544     -2.95204824     23.99740376
H       6.31473543     15.06791887     16.37398524
H       9.27597952     11.92104592      6.59058576
H       3.05230731     -0.48943795     12.34838680
H      26.59648769      7.39426669     -2.17327341
H      -4.57246620      9.51177598     11.49105931
H      27.28666125      7.54264242     -1.84154386
H       0.58422016     -2.02050089      6.23864677
H       8.36920065    -12.00217896      6.47611941
H      10.03949904     -7.63875398     -9.74583297
H       4.42895684     -0.68757789     11.04723877
C      -0.25403534     -1.24342908      6.70159163
C     -10.36016020    -12.21606716     16.66242232
C       2.97024692      0.81443085      8.68700513
C       2.37742903     -0.05331889      9.86647142
C       5.91241679     -0.29859770     -3.32041387
C       8.18367301     13.80474674      7.20311523
C       3.28391659     -0.37677646     11.17069052
C      -3.55556718     10.05133818     11.66127749
C       8.94243940     12.97689447      6.04874085
C      -4.23734898      7.44188950     -1.62403900
C       1.78437022     -1.66638729     -4.61677651
C       3.12857347     -0.73571437     -4.26542133
C      13.62233029     -8.94509939     -8.77849244
C      -2.89148852      8.43155984     -1.53276841
C       8.08717612    -10.84018631      6.76752128
H       9.82782577     11.63670696      3.01568457
H       0.05220737    -12.08169066    -10.89817425
H      -1.24720581     -1.80489704      6.22889338
H      -9.29845674     -2.27982476     24.37164303
H      -9.75818431    -12.15916191     17.65669192
H      16.08941789      7.08319455     13.47371370
H       6.68690959      0.05203705     -2.51685745
H       7.01095348     15.27452786     16.65857820
H       7.66172054     14.56457685      7.93206049
H       1.70233914     -2.31453908     -5.65194632
H      -3.94414409      6.26771069     -1.86652913
H      -7.60020280     21.22156798      9.78123602
H       2.07873331     -3.92605577     -3.41884702
H      -0.13187023     -0.25751209      5.97115941
H       9.03581011    -10.55126412      7.49516848
H      14.56054053     -8.18056614     -8.81193048
H      -7.73341433     21.23018717     10.54972831
