   47

C      -1.82455659      0.05563908      1.08885127
C      -0.29795799      0.03988770      1.07229269
H      -2.18338584      0.84577224      0.42479117
C      -2.38528711      0.28349607      2.49041561
H      -2.19899854     -0.89478195      0.70093523
H       0.07712662      0.99003514      1.46016018
C       0.25553088     -0.18535606     -0.33258204
H       0.06274259     -0.75110522      1.73416764
H      -0.11107624      0.60310622     -0.99436210
H      -0.11711800     -1.13744780     -0.71811055
C       1.78200613     -0.19448762     -0.35938292
H       2.15576360      0.75751470      0.02518204
C       2.32625646     -0.41865855     -1.76808296
H       2.15057258     -0.98347794      0.30054732
H       1.95371119      0.36919078     -2.42728453
H       1.95246257     -1.37138207     -2.15098137
C       3.85247501     -0.42550842     -1.80552507
H       4.22749883      0.52714115     -1.42373723
C       4.38780175     -0.64947672     -3.21776997
H       4.22659847     -1.21380450     -1.14784052
H       4.01176205      0.13885832     -3.87451659
H       4.01101894     -1.60186351     -3.59879150
C       5.91367530     -0.65730650     -3.26327583
H       6.29131316      0.29487574     -2.88274933
C       6.44481889     -0.88043454     -4.67724625
H       6.29056688     -1.44652927     -2.60819174
H       6.06864010     -0.09070261     -5.33183194
H       6.06653209     -1.83212398     -5.05784299
C       7.96790278     -0.88875205     -4.71832351
H      -2.00692901      1.23139540      2.88069138
H      -2.03264574     -0.50973423      3.15400844
C      -3.91187811      0.30796641      2.49927137
H      -4.26313145      1.10035924      1.83374205
C      -4.47674129      0.53855969      3.89864446
H      -4.28998202     -0.64022411      2.10924925
H      -4.09590375      1.48506537      4.29003384
H      -4.12981660     -0.25613507      4.56359423
C      -6.00320255      0.56960804      3.90513421
H      -6.34993717      1.36421121      3.24026685
C      -6.56103124      0.80119674      5.30399242
H      -6.38442385     -0.37684679      3.51457313
H      -6.20768421      1.74956755      5.70327920
H      -6.24334536      0.00800549      5.97748900
H      -7.64835368      0.82056013      5.28543266
H       8.36434629      0.05928949     -4.36094096
H       8.32359065     -1.04844091     -5.73370549
H       8.36219369     -1.68282149     -4.08772024
   47

C      -1.83115059      0.06069106      1.08541092
C      -0.28789784      0.04212931      1.07001618
H      -2.20473886      0.85030005      0.40239039
C      -2.39813984      0.29332564      2.50172355
H      -2.21630434     -0.89606911      0.67830654
H       0.10097445      0.99828257      1.47520760
C       0.27082393     -0.18816669     -0.34972767
H       0.08585503     -0.75044653      1.74968397
H      -0.10809465      0.60038771     -1.03127539
H      -0.11414967     -1.14744585     -0.75177821
C       1.81374572     -0.19735361     -0.37321104
H       2.20080668      0.76060963      0.02964353
C       2.36121957     -0.42432785     -1.79801558
H       2.19521354     -0.98655440      0.30611815
H       1.97521527      0.36448719     -2.47530689
H       1.97389479     -1.38368769     -2.19745123
C       3.90395783     -0.43122432     -1.83639130
H       4.29132368      0.52741844     -1.43563894
C       4.44556762     -0.65773237     -3.26443324
H       4.29045588     -1.21924414     -1.15869842
H       4.05510137      0.13113141     -3.93879557
H       4.05437315     -1.61607213     -3.66201187
C       5.98846202     -0.66678166     -3.31768974
H       6.37713001      0.29160097     -2.91836655
C       6.53558612     -0.89197545     -4.74471119
H       6.37632955     -1.45610802     -2.64275988
H       6.14873238     -0.10613586     -5.42368957
H       6.14661940     -1.84740379     -5.14976434
C       8.07609860     -0.90034747     -4.78581552
H      -2.03091704      1.25807959      2.90600314
H      -2.01023655     -0.48218011      3.19125862
C      -3.93791055      0.27369145      2.51173628
H      -4.32526934      1.07749175      1.85695334
C      -4.45876106      0.39339801      3.93374778
H      -4.35055475     -0.66648720      2.09958404
H      -4.35129679      1.62850564      4.35539366
H      -4.12347984     -0.34011451      4.67228370
C      -6.17127095      0.64017390      4.00437894
H      -6.51968070      1.43166096      3.31521750
C      -6.72041274      0.82659041      5.42889746
H      -6.54883409     -0.31088546      3.57860280
H      -6.37860309      1.77452428      5.87656974
H      -6.39382539      0.01571310      6.10151689
H      -7.82291874      0.83816843      5.43117755
H       8.49459156      0.05581314     -4.42883828
H       8.45352032     -1.06119937     -5.80842047
H       8.49237010     -1.70233108     -4.15308138
   47

C      -1.83790410      0.06643395      1.08244410
C      -0.27788212      0.04419699      1.06754678
H      -2.22618181      0.85553150      0.38088754
C      -2.40990346      0.30427589      2.51398154
H      -2.23460281     -0.89629325      0.65672379
H       0.12526602      1.00604379      1.48981039
C       0.28581639     -0.19124755     -0.36721102
H       0.10871661     -0.75020477      1.76458264
H      -0.10533731      0.59734434     -1.06825090
H      -0.11161583     -1.15758055     -0.78547786
C       1.84528584     -0.20052544     -0.38739687
H       2.24561629      0.76324718      0.03354377
C       2.39609713     -0.43021571     -1.82834664
H       2.23954104     -0.98993667      0.31104484
H       1.99673179      0.35953599     -2.52349380
H       1.99534720     -1.39610135     -2.24415486
C       3.95546593     -0.43706650     -1.86747952
H       4.35500368      0.52745047     -1.44793268
C       4.50346757     -0.66607467     -3.31139221
H       4.35420764     -1.22474735     -1.17000628
H       4.09869313      0.12326638     -4.00316299
H       4.09800275     -1.63024945     -3.72538459
C       6.06348968     -0.67629329     -3.37223979
H       6.46304366      0.28816155     -2.95422380
C       6.62652581     -0.90355973     -4.81244171
H       6.46221385     -1.46563084     -2.67761510
H       6.22929092     -0.12173660     -5.51552308
H       6.22718546     -1.86251656     -5.24172950
C       8.18466897     -0.91197224     -4.85351144
H      -2.05269571      1.28541477      2.93200058
H      -1.98734650     -0.45256173      3.22827342
C      -3.96345639      0.24420632      2.53144324
H      -4.38430835      1.05817485      1.88551623
C      -4.43415150      0.27566559      3.98095504
H      -4.40998693     -0.68580081      2.09442103
H      -4.62324321      1.73010119      4.40307488
H      -4.12579841     -0.42492168      4.77048042
C      -6.32968695      0.71505983      4.10499461
H      -6.69885149      1.49151663      3.38709846
C      -6.88115083      0.85405238      5.55287494
H      -6.69642690     -0.24633723      3.65189866
H      -6.55514654      1.80076581      6.04930223
H      -6.54332125      0.02736554      6.22589390
H      -7.99844618      0.85122916      5.57317216
H       8.62504420      0.05215369     -4.49702229
H       8.58348123     -1.07396764     -5.88323853
H       8.62276297     -1.72175217     -4.21877968
   47

C      -1.84487406      0.07273463      1.08025458
C      -0.26798896      0.04600556      1.06531905
H      -2.24766727      0.86106263      0.36015459
C      -2.42125497      0.31693785      2.52726685
H      -2.25370095     -0.89581267      0.63671061
H       0.14991550      1.01327265      1.50430403
C       0.30048924     -0.19468631     -0.38459211
H       0.13109681     -0.75037323      1.77950548
H      -0.10281377      0.59385745     -1.10492436
H      -0.10948980     -1.16797667     -0.81875885
C       1.87659534     -0.20403726     -0.40163297
H       2.29015106      0.76542055      0.03716779
C       2.43080259     -0.43632290     -1.85880186
H       2.28353443     -0.99365369      0.31565736
H       2.01814838      0.35434513     -2.57156938
H       2.01672539     -1.40863161     -2.29082427
C       4.00690487     -0.44302885     -1.89863504
H       4.41845302      0.52726291     -1.46047718
C       4.56138398     -0.67448884     -3.35850160
H       4.41778440     -1.23032242     -1.18161557
H       4.14240095      0.11529177     -4.06746734
H       4.14177796     -1.64439140     -3.78876012
C       6.13863971     -0.68583152     -3.42683862
H       6.54894043      0.28458493     -2.99025055
C       6.71753534     -0.91517613     -4.88034734
H       6.54811000     -1.47510872     -2.71268156
H       6.31019626     -0.13745190     -5.60722298
H       6.30811185     -1.87748456     -5.33361740
C       8.29351158     -0.92361979     -4.92135099
H      -2.07257020      1.31411295      2.95811584
H      -1.96537803     -0.42013159      3.26572518
C      -3.98838285      0.21899288      2.55523215
H      -4.44103844      1.04320446      1.91832887
C      -4.41278878      0.17503891      4.02839797
H      -4.46860641     -0.69953745      2.09361367
H      -4.89208498      1.79888679      4.44792111
H      -4.13266234     -0.50407906      4.85792241
C      -6.49033195      0.78950912      4.20507320
H      -6.88586973      1.54482863      3.45646087
C      -7.04195545      0.88331947      5.67642188
H      -6.83558729     -0.18730281      3.72997138
H      -6.72958286      1.82769433      6.21818589
H      -6.69175979      0.04165512      6.35024858
H      -8.17348352      0.86483276      5.71517146
H       8.75558685      0.04833650     -4.56543244
H       8.71334235     -1.08674394     -5.95812993
H       8.75325529     -1.74109467     -4.28474837
   47

C      -1.85212974      0.07948267      1.07874706
C      -0.25831227      0.04767585      1.06363534
H      -2.26907563      0.86697710      0.34016660
C      -2.43319822      0.33052372      2.54126432
H      -2.27324222     -0.89473246      0.61766379
H       0.17453580      1.02011919      1.51916918
C       0.31492245     -0.19827330     -0.40153942
H       0.15283433     -0.75079051      1.79484994
H      -0.10037385      0.59017311     -1.14099356
H      -0.10757613     -1.17843528     -0.85142788
C       1.90773622     -0.20771903     -0.41564385
H       2.33442798      0.76731478      0.04081907
C       2.46534962     -0.44252134     -1.88912904
H       2.32722389     -0.99754153      0.32026074
H       2.03948862      0.34904674     -2.61930516
H       2.03803623     -1.42115881     -2.33721728
C       4.05827656     -0.44904115     -1.92971911
H       4.48169562      0.52693682     -1.47314338
C       4.61927594     -0.68293143     -3.40563592
H       4.48118360     -1.23591744     -1.19338352
H       4.18617663      0.10725826     -4.13159045
H       4.18563558     -1.65846442     -3.85199974
C       6.21386715     -0.69537774     -3.48142661
H       6.63479133      0.28090371     -3.02640549
C       6.80857584     -0.92681289     -4.94836632
H       6.63397442     -1.48454370     -2.74790655
H       6.39139237     -0.15323763     -5.69871974
H       6.38933513     -1.89232467     -5.42534030
C       8.40258500     -0.93528641     -4.98930339
H      -2.09219157      1.34332851      2.98474139
H      -1.94566166     -0.38600508      3.30326202
C      -4.01336632      0.19596442      2.57974042
H      -4.49666926      1.03177233      1.95413619
C      -4.39815200      0.07885264      4.07048705
H      -4.52730030     -0.70956458      2.09375043
H      -5.15372077      1.84374250      4.49325116
H      -4.13909028     -0.57258831      4.94042275
C      -6.65529986      0.86189293      4.30475180
H      -7.07552098      1.59440010      3.52538947
C      -7.20202119      0.91409099      5.79991840
H      -6.97211674     -0.13204534      3.80978199
H      -6.89903932      1.85529521      6.38284180
H      -6.83953489      0.05781069      6.47486663
H      -8.34721213      0.88117104      5.85831285
H       8.88617138      0.04438202     -4.63404141
H       8.84304145     -1.09953146     -6.03309178
H       8.88379338     -1.76037084     -4.35095048
   47

C      -1.85975435      0.08657351      1.07784592
C      -0.24894676      0.04926479      1.06256536
H      -2.29041973      0.87337202      0.32099088
C      -2.44615235      0.34430411      2.55587336
H      -2.29313608     -0.89308586      0.59915479
H       0.19885292      1.02666060      1.53459281
C       0.32912458     -0.20187128     -0.41796573
H       0.17386797     -0.75138687      1.81070043
H      -0.09798067      0.58646692     -1.17636928
H      -0.10580712     -1.18881882     -0.88348830
C       1.93871040     -0.21145622     -0.42934835
H       2.37842143      0.76905633      0.04460292
C       2.49974739     -0.44872781     -1.91924248
H       2.37060294     -1.00149200      0.32495470
H       2.06077198      0.34372968     -2.66663446
H       2.05928787     -1.43360952     -2.38325533
C       4.10958365     -0.45505808     -1.96068880
H       4.54474673      0.52652680     -1.48588713
C       4.67714049     -0.69137672     -3.45275046
H       4.54440164     -1.24150031     -1.20525669
H       4.23001744      0.09919893     -4.19549827
H       4.22956200     -1.67245403     -3.91505274
C       6.28916514     -0.70492247     -3.53599230
H       6.72059711      0.27714035     -3.06268574
C       6.89965951     -0.93846467     -5.01647890
H       6.71979728     -1.49394273     -2.78327839
H       6.47287829     -0.16906303     -5.78999543
H       6.47084929     -1.90705684     -5.51686618
C       8.51189669     -0.94697135     -5.05736503
H      -2.11232306      1.37221223      3.01236186
H      -1.92874194     -0.35138389      3.34061597
C      -4.03882676      0.17410146      2.60383216
H      -4.55182459      1.02319703      1.99259535
C      -4.38914564     -0.01945210      4.10595384
H      -4.58652095     -0.71657697      2.09326773
H      -5.40897572      1.87257444      4.53948143
H      -4.14435679     -0.63017548      5.02065907
C      -6.82376624      0.93170192      4.40436124
H      -7.26470196      1.64162907      3.59478474
C      -7.36107183      0.94603890      5.92331256
H      -7.10777720     -0.07913921      3.89004260
H      -7.06352134      1.88383824      6.54336156
H      -6.98675734      0.07561576      6.60002415
H      -8.51940350      0.90030540      6.00247626
H       9.01679702      0.04030689     -4.70284495
H       8.97258050     -1.11233457     -6.10814249
H       9.01437283     -1.77959452     -4.41737421
   47

C      -1.86779881      0.09385184      1.07747184
C      -0.23994137      0.05077134      1.06201121
H      -2.31184056      0.88019204      0.30267394
C      -2.46000784      0.35781210      2.57110080
H      -2.31344609     -0.89098336      0.58103344
H       0.22274759      1.03292895      1.55048927
C       0.34307665     -0.20543182     -0.43395828
H       0.19426477     -0.75214465      1.82693960
H      -0.09567400      0.58281282     -1.21111848
H      -0.10418912     -1.19908101     -0.91505257
C       1.96950002     -0.21519361     -0.44280198
H       2.42210371      0.77071443      0.04847262
C       2.53400874     -0.45490659     -1.94917820
H       2.41366952     -1.00545243      0.32969428
H       2.08201417      0.33843584     -2.71360489
H       2.08049414     -1.44595975     -2.42897516
C       4.16083584     -0.46105995     -1.99157169
H       4.60762143      0.52606206     -1.49872965
C       4.73500142     -0.69981629     -3.49986230
H       4.60744458     -1.24706026     -1.21724952
H       4.27395008      0.09112996     -4.25921861
H       4.27357844     -1.68636388     -3.97793519
C       6.36455384     -0.71446481     -3.59056039
H       6.80637879      0.27330812     -3.09911762
C       6.99083092     -0.95013196     -5.08469788
H       6.80559392     -1.50331779     -2.81881694
H       6.55468809     -0.18490877     -5.88107079
H       6.55268592     -1.92170354     -5.60820587
C       8.62148487     -0.95867652     -5.12555223
H      -2.13287020      1.40025747      3.04114361
H      -1.91443972     -0.31714660      3.37765237
C      -4.06477152      0.15302834      2.62789531
H      -4.60676869      1.01669038      2.03397039
C      -4.38224278     -0.12098154      4.13584572
H      -4.64624160     -0.72101163      2.09286262
H      -5.66010065      1.89133597      4.58680680
H      -4.15030277     -0.67925037      5.09817487
C      -6.99477984      0.99900853      4.50399173
H      -7.45208291      1.68719132      3.66469184
C      -7.51923189      0.97889292      6.04636171
H      -7.24289675     -0.02769772      3.97019619
H      -7.22422988      1.91351970      6.70005573
H      -7.13344723      0.09500550      6.72572946
H      -8.69022044      0.92151025      6.14716000
H       9.14749351      0.03612416     -4.77185559
H       9.10200322     -1.12515858     -6.18331508
H       9.14502164     -1.79878065     -4.48402643
   47

C      -1.87627856      0.10114308      1.07753928
C      -0.23130409      0.05219103      1.06180488
H      -2.33353952      0.88726147      0.28521119
C      -2.47443608      0.37081043      2.58695814
H      -2.33425137     -0.88860919      0.56331731
H       0.24618389      1.03897126      1.56663944
C       0.35676833     -0.20894866     -0.44967290
H       0.21416478     -0.75303269      1.84337887
H      -0.09351090      0.57922537     -1.24537722
H      -0.10273768     -1.20922509     -0.94626343
C       2.00009849     -0.21890609     -0.45611760
H       2.46546896      0.77232946      0.05231395
C       2.56816270     -0.46104844     -1.97902511
H       2.45644250     -1.00939637      0.33437493
H       2.10324151      0.33317870     -2.76031396
H       2.10168516     -1.45821279     -2.47446275
C       4.21206028     -0.46704230     -2.02242919
H       4.67034985      0.52555623     -1.51172460
C       4.79290346     -0.70825203     -3.54702061
H       4.67033866     -1.25259892     -1.22940984
H       4.31802193      0.08305672     -4.32281084
H       4.31773021     -1.70020749     -4.04069820
C       6.44007447     -0.72400934     -3.64517681
H       6.89217598      0.26941382     -3.13574503
C       7.08215335     -0.96181913     -5.15305703
H       6.89140130     -1.51268372     -2.85456122
H       6.63687536     -0.20076417     -5.97199112
H       6.63489771     -1.93628770     -5.69939777
C       8.73140546     -0.97040588     -5.19389464
H      -2.15345967      1.42729251      3.07098206
H      -1.90219838     -0.28375788      3.41432467
C      -4.09095180      0.13250097      2.65278965
H      -4.66170140      1.01121499      2.07862175
C      -4.37371282     -0.22379898      4.16197788
H      -4.70617466     -0.72361919      2.09440184
H      -5.90923831      1.90423029      4.63577375
H      -4.15925157     -0.72350382      5.17121202
C      -7.16750099      1.06425800      4.60354117
H      -7.63716483      1.73169001      3.73493220
C      -7.67681678      1.01251032      6.16876960
H      -7.37790031      0.02307781      4.05001624
H      -7.38271324      1.94436631      6.85346019
H      -7.27970571      0.11591519      6.85174069
H      -8.86001035      0.94394656      6.29169441
H       9.27830987      0.03184363     -4.84109752
H       9.23137766     -1.13800963     -6.25865173
H       9.27578828     -1.81794466     -4.55092697
   47

C      -1.88516591      0.10828751      1.07793943
C      -0.22299863      0.05353767      1.06175744
H      -2.35570397      0.89433340      0.26851314
C      -2.48911577      0.38324222      2.60338731
H      -2.35555180     -0.88619147      0.54606992
H       0.26917605      1.04486470      1.58278159
C       0.37023614     -0.21243433     -0.46528004
H       0.23374247     -0.75398653      1.85982397
H      -0.09150468      0.57568518     -1.27930825
H      -0.10141911     -1.21928131     -0.97726473
C       2.03054571     -0.22258549     -0.46941972
H       2.50856204      0.77392440      0.05599784
C       2.60227345     -0.46715953     -2.00888853
H       2.49898609     -1.01331193      0.33888126
H       2.12451305      0.32795486     -2.80687483
H       2.12292667     -1.47038727     -2.51982063
C       4.26331895     -0.47300996     -2.05333503
H       4.73299644      0.52501349     -1.52493863
C       4.85091302     -0.71669220     -3.59429176
H       4.73314752     -1.25812595     -1.24179920
H       4.36230004      0.07497795     -4.38634978
H       4.36208442     -1.71400377     -4.10341122
C       6.51578948     -0.73356389     -3.69989864
H       6.97804936      0.26546013     -3.17262201
C       7.17370017     -0.97353334     -5.22160454
H       6.97727945     -1.52205719     -2.89056144
H       6.71950322     -0.21662481     -6.06281715
H       6.71754785     -1.95083183     -5.79049801
C       8.84172361     -0.98216464     -5.26242927
H      -2.17385872      1.45341614      3.10157922
H      -1.89137082     -0.25125377      3.45061940
C      -4.11701207      0.11218267      2.67920254
H      -4.71692047      1.00550037      2.12669960
C      -4.36091732     -0.32498056      4.18610221
H      -4.76589842     -0.72561482      2.09990557
H      -6.15818322      1.91489237      4.68726882
H      -4.17274360     -0.76729099      5.23815613
C      -7.34093275      1.12820936      4.70288260
H      -7.81995105      1.77580822      3.80550768
C      -7.83424666      1.04688603      6.29027067
H      -7.51350787      0.07404341      4.12956251
H      -7.54057016      1.97618918      7.00439550
H      -7.42580761      0.13820475      6.97761691
H      -9.02923691      0.96689516      6.43534611
H       9.40930636      0.02747265     -4.91060170
H       9.36078397     -1.15089431     -6.33419893
H       9.40673315     -1.83710196     -4.61810333
   47

C      -1.90008181      0.12168567      1.07140232
C      -0.20463896      0.05616921      1.06833728
H      -2.39670982      0.90878169      0.22916201
C      -2.50203780      0.40894720      2.63303598
H      -2.39389107     -0.88288011      0.50471060
H       0.31586556      1.05682041      1.62139864
C       0.38591136     -0.21966666     -0.49347253
H       0.27346116     -0.75806945      1.89776870
H      -0.09825674      0.56970308     -1.34275394
H      -0.10926889     -1.24035612     -1.03519077
C       2.07911704     -0.22767492     -0.48030208
H       2.58129866      0.78012299      0.07806615
C       2.64622751     -0.47696374     -2.05616648
H       2.57114018     -1.01992676      0.36255091
H       2.14335801      0.32118381     -2.88630280
H       2.14188726     -1.49294529     -2.59702986
C       4.34081641     -0.48042751     -2.09153508
H       4.83228639      0.52905938     -1.52879002
C       4.93071924     -0.72943923     -3.66847232
H       4.83303542     -1.26551936     -1.24388427
H       4.41523795      0.06389387     -4.49197026
H       4.41524582     -1.73798448     -4.20728518
C       6.63055087     -0.74712952     -3.78008894
H       7.11206663      0.26356786     -3.21790100
C       7.31066706     -0.99196393     -5.33281994
H       7.11133646     -1.53596227     -2.93393338
H       6.83935070     -0.24287759     -6.21742579
H       6.83745733     -1.97502123     -5.94556127
C       9.01613037     -0.99947218     -5.36578112
H      -2.20047460      1.50635694      3.15991555
H      -1.85494402     -0.18526943      3.51760508
C      -4.14919149      0.06065059      2.71868533
H      -4.80618237      0.97198317      2.19479511
C      -4.29041876     -0.52815215      4.21441112
H      -4.85749819     -0.75099626      2.11003300
H      -6.59906265      1.94457540      4.75350432
H      -4.17064727     -0.88830178      5.33007600
C      -7.62420512      1.25696398      4.84659853
H      -8.11361155      1.87210915      3.89532373
C      -8.06881268      1.10945150      6.48052730
H      -7.73916567      0.18265887      4.23330050
H      -7.77029233      2.02959298      7.25354214
H      -7.63937345      0.17360500      7.17347863
H      -9.28621296      1.00764270      6.66998263
H       9.62312071      0.02535990     -5.01564517
H       9.57176958     -1.17045925     -6.45157883
H       9.62044169     -1.86952612     -4.71837052
