   94
energy=      0.00000000
C      -8.28408906     -5.22315671     -5.52297607
C      -7.14830260     -5.74530967     -4.51322648
H      -9.11347799     -4.84186321     -6.26032885
C     -10.16968116     -0.97812122      5.78662609
H     -18.89185999     -7.18329685     -1.80818867
H      -6.60261506     -4.80783077     -3.93834469
C      10.55601959     -1.74029273      9.32297438
H      -7.62414255     -6.48456879     -3.65637005
H      -7.33802047     -5.79218102    -16.94279929
H      -7.33030928     -6.56157501    -16.81484062
C       9.67195778      1.47741415      5.69929319
H       9.99957277      2.54836237      6.20811373
C      10.70002223     -2.93762503      8.30576115
H      10.47769890      0.60054794      3.45376031
H      11.65601418     -2.41724486      7.80791680
H       0.32151970     -6.93136655     11.13964143
C      10.05145178     -4.24422063      7.54887482
H       8.84626720     -4.51787258      7.44065912
C       5.20339285      3.18845746     -3.30964515
H       9.90028059     -5.05222342      8.47562847
H       6.17248091      3.66136388     -3.92498641
H       4.66113237      4.24078218     -3.70113487
C       5.09640489      1.66537201     -5.60712235
H       5.63809623      2.92355522     -7.73862169
C       4.83411584      2.62563860     -6.89853441
H       5.99060681      0.84825192     -5.74380903
H       3.88313889      3.30755496     -7.19017924
H      -1.67522236     13.86417483     12.14530767
C      19.68064512     -6.53562518     -9.27211788
H     -10.56103990      0.14113743      5.63681893
H     -19.27118577     -7.16726916     -1.12682601
C      -9.30897803      4.96232714    -10.51107341
H     -10.83134576     -1.85898473      5.32335165
C      -0.70363056     -6.68637614     11.73167800
H     -10.40895073      4.90076610    -10.25089213
H      -2.93895674     -7.63587168     11.98707212
H      -0.70041107     -5.47997173     11.64752826
C       4.41373268      1.87022444     -4.10194455
H       6.26620191      4.30597106     -1.46756455
C       4.27608374      3.39186985     -0.61998054
H       3.17764083      1.75123996     -4.13059400
H       4.18542600      4.38121982      0.11917613
H       3.93580995      2.48296888      0.14529054
H       3.09726888      3.52953309     -0.97230705
H      18.66994136     -5.91611740     -9.61384711
H      19.33484392     -7.58488470     -9.81381500
H      19.98517392     -6.96140246     -6.72041482
H       8.14042991     -0.53011027      9.12084807
H      11.66201967     -0.31753506      9.56906189
H      -1.57104701     -8.91443938     12.38131728
H       8.41186298     -0.34891970      6.45212660
H      -8.70101793     -4.16259184     22.46177845
H       8.20294003     13.22024521     11.17403026
H      -2.34916350     13.47718722     24.28698232
H      10.67988648      1.08702517     11.83258842
H       7.90063969      1.78446662     -1.85762638
H      -3.43227189     12.93183102     11.85119647
H      12.89441256      2.22699060      2.98357818
H       1.13364039      1.57461587    -14.28149870
H      10.78289716     -5.16553442      5.30428018
H      20.72244186     -6.42801952     -9.92420825
H      10.92026924      2.24518951     10.40978688
C      -8.83793724     -1.27961620      6.56198183
C      -1.79777022     -7.70452967     12.45119662
C       9.02585117      0.18815847      8.63090703
C      10.44545823     -0.14118517      9.52314871
C       9.13585135      0.48377341      6.96214527
C       9.13832747     13.77366830     11.58991297
C      10.70313507      1.07210358     10.62404903
C      -2.87735699     14.02780680     11.93502706
C      -1.82981241     14.44151727     23.89388281
C       6.93616314      2.13696325     -1.16098400
C      11.93215687      2.00812413      3.62460882
C      10.68188361      1.35728379      4.36860293
C      20.00297369     -6.22135900     -7.67576239
C       5.66462724      3.21770564     -1.63891108
C      10.96779577     -4.27126161      6.10698325
H       7.68255789      2.43487440     -0.21648230
H      -6.28027458     -6.37469719     -5.11116409
H      -7.84953394     -1.50338190      7.13744095
H      -8.57271924     -3.49036836     22.83601772
H      -1.92084466     -7.53968973     13.66782592
H       8.63772252      1.68661120      5.06814021
H       8.12658612      0.91052879      9.06491141
H      10.07370640     14.32711160     12.00578794
H      -1.31046131     15.40584731     23.50078330
H       4.16165425      0.76167060     -3.60886017
H       6.68764085      0.96503035     -0.84983115
H      -3.02922606     14.64641905     10.88128340
H      11.16248830     -3.26927691      5.36465226
H       1.07389443      2.34903763    -14.35292239
H      12.03148783     -4.87832437      6.23394618
H      20.32428024     -5.17948979     -7.14834783
H      -3.37270765     14.66880232     12.86232070
   94
energy=      0.00000000
C       6.82690034     -7.22627313     -7.49673297
C       5.11399600     -7.35587622     -7.10085786
H       6.91866967     -6.59480056     -6.44785792
C     -10.16968116     -0.97812121      5.78662609
H     -18.89185999     -7.18329685     -1.80818867
H       4.38496570     -6.45408604     -6.66955580
C      10.59159526     -1.59636020      9.16804471
H       4.26385328     -7.87158981     -6.38787013
H      -7.33803447     -5.79219452    -16.94280354
H      -7.33032328     -6.56158851    -16.81484487
C       9.57295107      1.58784681      5.70626273
H      10.07782575      2.56738162      6.25430706
C      10.95660461     -2.95168905      8.40310139
H      10.41729176      0.33138888      3.61538281
H      12.15352167     -2.82897856      8.45337614
H       0.32151266     -6.93136924     11.13962880
C      10.24683452     -4.20507021      7.56236359
H       9.00854071     -4.16062593      7.52880893
C       5.04478924      4.04718506     -2.93304785
H      10.10430274     -5.11254548      8.39421700
H       5.99270119      4.53598491     -3.57026902
H       4.45973232      5.08754489     -3.29222980
C       4.89118802      2.46181685     -5.35488331
H       5.47513007      3.69481330     -7.51956085
C       4.66130236      3.34764912     -6.70419734
H       5.63404362      1.52655669     -5.59426080
H       3.65384742      3.87685603     -7.09640104
H      -1.67522236     13.86417483     12.14530767
C       8.57611871     -7.39825176     -7.72757972
H     -10.56103991      0.14113743      5.63681892
H     -19.27118577     -7.16726916     -1.12682601
C      -9.30897803      4.96232714    -10.51107341
H     -10.83134575     -1.85898474      5.32335166
C      -0.70363008     -6.68637707     11.73167774
H     -10.40895073      4.90076610    -10.25089213
H      -2.93895866     -7.63587566     11.98707502
H      -0.70040068     -5.47997208     11.64753832
C       4.31874388      2.74453619     -3.80709328
H       6.04644790      5.12829539     -1.04202386
C       4.10531265      4.18133063     -0.16305802
H       3.07983395      2.67775779     -3.82482623
H       4.05410508      5.11692203      0.64919542
H       3.75720188      3.25762907      0.58289801
H       2.92128933      4.34836546     -0.48054843
H       8.87337573     -6.36558839     -8.33915526
H       8.74996521     -8.58640199     -8.03271695
H      11.39736859     -7.57974682     -7.21958846
H       8.00826382     -0.36530325      8.97240783
H      11.55155834      0.13344346      9.04266752
H      -1.57103242     -8.91443598     12.38131850
H       8.46680101     -0.44247978      6.28727798
H      -8.70101793     -4.16259184     22.46177845
H       8.20294139     13.22024196     11.17403150
H      -2.34916350     13.47718722     24.28698232
H      10.57042276      0.86555794     11.86815400
H       7.68632408      2.62658115     -1.47200406
H      -3.43227189     12.93183102     11.85119647
H      12.79393118      2.34725003      3.27879243
H       1.13365400      1.57462925    -14.28149545
H      10.47805282     -5.36207796      5.22674296
H       6.60248562     -7.24340513     -8.71780312
H      10.95994028      2.19338880     10.68368638
C      -8.83793724     -1.27961620      6.56198183
C      -1.79777085     -7.70452901     12.45119700
C       8.93118298      0.33082406      8.52431176
C      10.37606862      0.00466588      9.37170870
C       9.01977386      0.48834188      6.84825724
C       9.13832474     13.77367479     11.58991048
C      10.64329492      1.01865056     10.67090600
C      -2.87735699     14.02780680     11.93502706
C      -1.82981241     14.44151727     23.89388281
C       6.71747610      2.93925762     -0.76450872
C      11.86843119      1.87655478      3.81884039
C      10.56925018      1.20723139      4.43103831
C      10.23189761     -7.36876841     -7.36503508
C       5.45947088      4.03769430     -1.23898491
C      10.94859677     -4.55679757      6.03878105
H       7.44768538      3.18110643      0.20864182
H       4.14048086     -7.87755401     -7.64212646
H      -7.84953394     -1.50338191      7.13744095
H      -8.57271924     -3.49036836     22.83601772
H      -1.92086050     -7.53968585     13.66782427
H       8.59731464      2.16385123      5.21457235
H       8.16238471      1.21595164      8.91467160
H      10.07370777     14.32710836     12.00578918
H      -1.31046131     15.40584731     23.50078330
H       4.16406459      1.63982132     -3.27214881
H       6.47422469      1.75855587     -0.48043702
H      -3.02922606     14.64641905     10.88128340
H      11.05010195     -3.64177881      5.20968246
H       1.07390799      2.34905100    -14.35291928
H      12.08459588     -5.05336151      6.03228289
H      11.39926887     -7.11830206     -7.34224469
H      -3.37270765     14.66880232     12.86232070
