   94

C       7.07126072     -6.83363391     -7.65969533
C       5.54850658     -7.51906518     -7.22299182
H       7.35629731     -6.06772291     -6.72208345
C     -10.34787391     -0.90496126      5.86078370
H     -18.89185999     -7.18329685     -1.80818867
H       4.61016015     -6.78273221     -6.86978955
C       9.99892601     -1.59059400      7.86036884
H       5.46984387     -8.32379654     -6.28309476
H      -7.50422152     -5.95387426    -16.98474648
H      -7.49651033     -6.72326826    -16.85678781
C      10.44054780      2.38157865      6.48552333
H      11.41708749      2.80004344      7.10120388
C       9.72115639     -2.50176585      6.51834462
H       6.62611468      2.50300074     -4.46378067
H      10.82352152     -2.17104097      6.10959412
H      -0.09294653     -7.32426029     12.37203585
C       8.85599588     -3.84534580      6.59844138
H       7.81372367     -4.06841489      7.21888546
C       4.80789270      5.02998710     -3.85789953
H       9.32592282     -4.95908835      6.83951528
H       5.70835996      5.65876975     -4.45547418
H       4.20765972      5.99179031     -4.38963675
C       5.69547213      2.79877776     -5.23349175
H       5.69499076      4.06096414     -7.70488701
C       5.39779963      3.45047917     -6.72919952
H       6.31102467      1.79484772     -5.57865491
H       4.46364827      3.70410772     -7.43550942
H      -1.67522236     13.86417483     12.14530767
C       8.54749530     -7.56788432     -8.18166272
H     -10.73923267      0.21429739      5.71097653
H     -19.27118577     -7.16726916     -1.12682601
C       0.41427487     -5.60138904      1.81970346
H     -11.00953850     -1.78582478      5.39750927
C      -1.11807135     -7.07926595     12.96411492
H      -0.47881857     -6.03435734      2.42618759
H      -3.35339545     -8.02877481     13.21949950
H      -1.11482435     -5.87285902     12.88000423
C       4.34202606      3.46904245     -4.44113143
H       5.68108595      6.12942332     -1.97788019
C       3.63883497      5.09912024     -1.18566385
H       3.13078423      3.47752205     -4.72695125
H       3.62259778      5.93537269     -0.27887064
H       3.25632820      4.08772348     -0.58343891
H       2.49579677      5.34403558     -1.59296122
H       8.88111750     -7.28634981     -9.34490640
H       8.42990378     -8.77165266     -8.45131153
H      10.68649035     -8.24565868     -6.76598979
H       8.29547777      0.32871475      9.42549818
H      11.57899426     -0.96439551      8.68452389
H      -1.98546133     -9.30732329     13.61377305
H       8.23157854      1.48866441      6.86696397
H      -8.70101793     -4.16259184     22.46177845
H       8.20294145     13.22024184     11.17403155
H      -2.34916350     13.47718722     24.28698232
H      11.24918184     -0.66293137     11.55976911
H      11.12561340      2.16118873      2.69805943
H      -3.43227189     12.93183102     11.85119647
H      12.90457516      2.54700025      3.49194606
H       1.01189080      1.58331759    -15.15068447
H       8.06655039     -3.34463832      4.38788750
H       6.79471659     -5.96973017     -8.51388877
H      12.07187514      0.69219590     10.78705814
C      -9.01612999     -1.20645624      6.63613944
C      -2.21221220     -8.09741766     13.68363440
C       9.32915753      0.73994163      8.87500078
C      10.49678378     -0.49579401      9.00026069
C       9.33132185      1.52912455      7.39536568
C       9.13832463     13.77367504     11.58991039
C      11.28805547     -0.17995608     10.44919917
C      -2.87735699     14.02780680     11.93502706
C      -1.82981241     14.44151727     23.89388281
C       6.18350653      3.98616834     -1.53554661
C      11.79004644      2.16070378      3.69111724
C      11.16904505      1.91411032      5.12465058
C      10.01375699     -7.44541959     -7.37801671
C       5.05417489      5.06595859     -2.15645608
C       8.95214865     -3.07442919      5.19908509
H       7.29462208      4.10461214     -1.07663295
H       4.88091994     -8.17829602     -8.03465699
H      -8.02772670     -1.43022196      7.21159855
H      -8.57271924     -3.49036836     22.83601772
H      -2.33531840     -7.93256510     14.90025866
H       9.90853859      3.41158415      6.09083703
H       9.13572598      1.68186521      9.65996142
H      10.07370782     14.32710824     12.00578923
H      -1.31046131     15.40584731     23.50078330
H       3.70487061      2.44679147     -4.12847965
H       6.22076010      2.78547616     -1.36120285
H      -3.02922606     14.64641905     10.88128340
H       1.13344198     -5.09821908      1.05647408
H       0.95214398      2.35773904    -15.22211050
H       9.36508814     -2.85993322      4.06044811
H      10.79936257     -6.53207750     -7.23581169
H      -3.37270765     14.66880232     12.86232070
   94

C       7.07869334     -6.84280791     -7.66270436
C       5.55827219     -7.53335047     -7.22678882
H       7.36279895     -6.07517737     -6.72621575
C     -10.34894111     -0.90494001      5.86158609
H     -18.89195474     -7.18334024     -1.80817462
H       4.61697788     -6.80137533     -6.87282743
C      10.00517232     -1.59504166      7.86539846
H       5.48280608     -8.33846036     -6.28692682
H      -7.51143554     -5.96098589    -16.98571900
H      -7.50366051     -6.73037390    -16.85772856
C      10.44061235      2.38659060      6.49225329
H      11.41897300      2.79917783      7.10897378
C       9.73040666     -2.50805295      6.52508288
H       6.70450483      2.60184981     -4.41133019
H      10.83414713     -2.18167832      6.11562316
H      -0.09850206     -7.32963173     12.40692986
C       8.86129041     -3.84891099      6.60729081
H       7.82058111     -4.07072292      7.23069820
C       4.90608158      5.05658975     -3.82771515
H       9.32705766     -4.96405841      6.84962770
H       5.81170954      5.69829328     -4.40606491
H       4.30807615      6.03392680     -4.33424006
C       5.83076300      2.94897950     -5.22063109
H       6.05984258      4.22484121     -7.65984837
C       5.63171750      3.60965171     -6.73352218
H       6.47804224      1.95578517     -5.54617736
H       4.77401179      3.85034868     -7.53769774
H      -1.67536660     13.86441792     12.14567098
C       8.55282990     -7.57997356     -8.18581967
H     -10.74029625      0.21432009      5.71177160
H     -19.27127592     -7.16730950     -1.12680948
C       0.42812916     -5.69963048      1.84716014
H     -11.01054994     -1.78578798      5.39819957
C      -1.12366870     -7.08463421     12.99893486
H      -0.46104121     -6.13391894      2.45841527
H      -3.35902117     -8.03412520     13.25426546
H      -1.12040064     -5.87822556     12.91485333
C       3.31476326      2.99254873     -4.61519722
H       5.80126529      6.18806034     -1.95487202
C       3.79092191      5.23468326     -1.07670886
H       2.15263396      3.06148979     -5.00538075
H       3.83417005      6.07617347     -0.17258720
H       3.39879665      4.24965334     -0.43727774
H       2.64069790      5.52807589     -1.42753775
H       8.88490974     -7.30359319     -9.35070103
H       8.43518682     -8.78385603     -8.45479701
H      10.68800530     -8.25545869     -6.76434731
H       8.29463460      0.32542461      9.42159774
H      11.58359829     -0.95836826      8.68224620
H      -1.99109858     -9.31268686     13.64854654
H       8.23441283      1.48331926      6.86359809
H      -8.70544640     -4.16010930     22.46762062
H       8.20304884     13.22045885     11.17443053
H      -2.34917278     13.47720939     24.28703822
H      11.24530143     -0.67723244     11.56164742
H      11.12859979      2.14994409      2.70215186
H      -3.43242480     12.93207332     11.85156585
H      12.90873616      2.53695305      3.49868718
H       1.04270166      1.60524965    -15.47039227
H       8.06165863     -3.33372795      4.40187945
H       6.80362028     -5.97442613     -8.51284599
H      12.07510580      0.68022770     10.79348461
C      -9.01727435     -1.20647582      6.63706897
C      -2.21784274     -8.10278031     13.71840931
C       9.33040293      0.73702048      8.87540010
C      10.49952732     -0.49725023      9.00260241
C       9.33184488      1.52789296      7.39658806
C       9.13847831     13.77387256     11.59022587
C      11.28859169     -0.18868291     10.45377812
C      -2.87750007     14.02804491     11.93538159
C      -1.82982158     14.44153984     23.89393971
C       6.28975005      4.05372359     -1.49157380
C      11.79150446      2.15765812      3.69612233
C      11.16650371      1.92183706      5.12937929
C      10.01771718     -7.45624751     -7.38031514
C       5.15718866      5.12999588     -2.11791436
C       8.95490907     -3.07599686      5.20853634
H       7.40154774      4.17478841     -1.03229568
H       4.89306785     -8.19299727     -8.04004750
H      -8.02892427     -1.43029272      7.21260318
H      -8.57713840     -3.48788320     22.84185201
H      -2.34095933     -7.93792746     14.93503227
H       9.91165619      3.42086275      6.10416527
H       9.13768647      1.67725519      9.66239719
H      10.07389318     14.32729229     12.00604658
H      -1.31047036     15.40587010     23.50084076
H       2.73698796      1.93298565     -4.39935105
H       6.31574996      2.85606801     -1.29973047
H      -3.02937713     14.64666775     10.88164567
H       1.15511358     -5.20043052      1.08878859
H       0.98288676      2.37967984    -15.54166991
H       9.36870375     -2.86336116      4.06984553
H      10.80269868     -6.54237516     -7.23854778
H      -3.37285118     14.66904147     12.86267389
   94

C       7.08630454     -6.85034112     -7.66503923
C       5.56846918     -7.54650879     -7.22995869
H       7.36939962     -6.08095014     -6.72968153
C     -10.34986341     -0.90487490      5.86242373
H     -18.89207345     -7.18339795     -1.80814663
H       4.62426364     -6.81899782     -6.87503710
C      10.01115020     -1.59943951      7.87038367
H       5.49632527     -8.35209526     -6.29021139
H      -7.51866290     -5.96814247    -16.98680238
H      -7.51082786     -6.73752290    -16.85877023
C      10.44041063      2.39183320      6.49951092
H      11.42041544      2.79863878      7.11743546
C       9.73933303     -2.51421458      6.53172589
H       6.82458750      2.71320634     -4.35909367
H      10.84451333     -2.19232990      6.12167634
H      -0.10403637     -7.33491697     12.44168561
C       8.86627695     -3.85234756      6.61592650
H       7.82711116     -4.07289227      7.24224327
C       5.08512326      5.11070917     -3.78195532
H       9.32788250     -4.96887907      6.85953596
H       5.96332797      5.80105893     -4.34392556
H       4.42940458      6.04712539     -4.28573609
C       5.92583742      3.08985164     -5.12597465
H       6.28221274      4.30964995     -7.57374388
C       5.78240650      3.72940471     -6.65721533
H       6.52834846      2.06571506     -5.44027247
H       4.94308452      3.98239679     -7.47742784
H      -1.67539197     13.86447153     12.14576659
C       8.55805673     -7.59073676     -8.18960250
H     -10.74121934      0.21438547      5.71260029
H     -19.27138669     -7.16736140     -1.12677721
C       0.44328679     -5.79623912      1.87380463
H     -11.01143785     -1.78570973      5.39895906
C      -1.12923331     -7.08991655     13.03363765
H      -0.44160328     -6.23230835      2.48998871
H      -3.36460396     -8.03940017     13.28894103
H      -1.12595361     -5.88350750     12.94955768
C       2.41103508      2.64121947     -4.92151614
H       5.92543497      6.26526711     -1.89323349
C       3.92461508      5.30622461     -1.03319277
H       1.27357969      2.75099400     -5.34990178
H       3.95639085      6.14058443     -0.12030853
H       3.52403322      4.32043125     -0.40108116
H       2.77839074      5.60520374     -1.38984985
H       8.88851190     -7.31940748     -9.35609280
H       8.44039125     -8.79472005     -8.45802934
H      10.68948332     -8.26420476     -6.76259021
H       8.29342246      0.32214999      9.41755993
H      11.58780738     -0.95238465      8.68005489
H      -1.99668989     -9.31796868     13.68323126
H       8.23688633      1.47816749      6.86009891
H      -8.70986066     -4.15761606     22.47343494
H       8.20305551     13.22055062     11.17462673
H      -2.34917617     13.47721703     24.28705482
H      11.24120385     -0.69154251     11.56340298
H      11.13349018      2.13787197      2.70773140
H      -3.43245145     12.93212835     11.85166542
H      12.91439802      2.52675716      3.50723418
H       1.07459281      1.62739034    -15.78982287
H       8.05662305     -3.32236970      4.41576763
H       6.81260156     -5.97744646     -8.51101451
H      12.07810588      0.66821542     10.79983138
C      -9.01822895     -1.20643031      6.63796891
C      -2.22342687     -8.10806023     13.75308750
C       9.33130552      0.73410989      8.87576416
C      10.50194727     -0.49868350      9.00493930
C       9.33189952      1.52673321      7.39782120
C       9.13850174     13.77395870     11.59039140
C      11.28885922     -0.19740216     10.45829056
C      -2.87752536     14.02809938     11.93547798
C      -1.82982492     14.44154741     23.89395620
C       6.42293493      4.13152863     -1.42457173
C      11.79452717      2.15436885      3.70273303
C      11.16432460      1.92962406      5.13507579
C      10.02160604     -7.46593177     -7.38230614
C       5.29551669      5.20072582     -2.06802329
C       8.95734957     -3.07730923      5.21786105
H       7.53271040      4.25757285     -0.96175076
H       4.90565864     -8.20657492     -8.04481392
H      -8.02988991     -1.43026601      7.21351938
H      -8.58154354     -3.48538735     22.84765849
H      -2.34655123     -7.94320428     14.96970939
H       9.91450493      3.43021690      6.11781414
H       9.13924867      1.67261816      9.66482337
H      10.07393037     14.32737344     12.00618730
H      -1.31047370     15.40587763     23.50085717
H       1.88145374      1.56646820     -4.69402803
H       6.44155923      2.93501473     -1.22731766
H      -3.02940430     14.64672484     10.88174399
H       1.17836727     -5.30053657      1.12096984
H       1.01473311      2.40184180    -15.86083465
H       9.37205218     -2.86660409      4.07913095
H      10.80590192     -6.55149904     -7.24087679
H      -3.37287633     14.66909625     12.86277004
   94

C       7.09375938     -6.85661722     -7.66680504
C       5.57841885     -7.55808370     -7.23239486
H       7.37594804     -6.08543231     -6.73263422
C     -10.35055638     -0.90475484      5.86313267
H     -18.89216424     -7.18344568     -1.80811472
H       4.63155954     -6.83480100     -6.87638487
C      10.01703336     -1.60380585      7.87530713
H       5.50957575     -8.36416389     -6.29279227
H      -7.52587111     -5.97530386    -16.98793143
H      -7.51798202     -6.74467549    -16.85984992
C      10.44013008      2.39714689      6.50686593
H      11.42173427      2.79817932      7.12600491
C       9.74808306     -2.52029569      6.53828455
H       6.96336157      2.82059048     -4.30591695
H      10.85470930     -2.20294864      6.12767834
H      -0.10956740     -7.34014853     12.47630008
C       8.87109623     -3.85569618      6.62442882
H       7.83346409     -4.07497827      7.25361686
C       5.27097515      5.17126467     -3.72935325
H       9.32853607     -4.97359556      6.86930818
H       6.11985051      5.90057454     -4.28159597
H       4.56099883      6.06465918     -4.23140264
C       6.03723350      3.22961767     -5.01899752
H       6.38555244      4.36883085     -7.50067090
C       5.87874567      3.81373484     -6.57015866
H       6.57615171      2.16776879     -5.31851518
H       5.00785361      4.05074141     -7.36253965
H      -1.67539178     13.86447199     12.14578795
C       8.56286829     -7.60064282     -8.19298965
H     -10.74192016      0.21450434      5.71330901
H     -19.27147027     -7.16740338     -1.12674144
C       0.45935638     -5.88993910      1.89818967
H     -11.01211788     -1.78558026      5.39962793
C      -1.13478174     -7.09514581     13.06822221
H      -0.42050926     -6.32855610      2.51978961
H      -3.37016217     -8.04462493     13.32352013
H      -1.13149885     -5.88873739     12.98412518
C       1.61319908      2.33478022     -5.29767855
H       6.04274113      6.34565124     -1.82253929
C       4.04421881      5.36282480     -0.99986431
H       0.47695887      2.49558220     -5.69117598
H       4.04690553      6.19291415     -0.08172792
H       3.63835112      4.37268287     -0.37846138
H       2.90158490      5.64772438     -1.37816007
H       8.89164541     -7.33442719     -9.36109610
H       8.44501833     -8.80471580     -8.46087149
H      10.69068227     -8.27250169     -6.76078981
H       8.29212126      0.31890456      9.41344374
H      11.59182716     -0.94644079      8.67787050
H      -2.00225493     -9.32319648     13.71782177
H       8.23930857      1.47313590      6.85654653
H      -8.71426751     -4.15511908     22.47922962
H       8.20304305     13.22062131     11.17478104
H      -2.34917875     13.47722036     24.28706089
H      11.23704247     -0.70586246     11.56501616
H      11.13862588      2.12574525      2.71367004
H      -3.43244921     12.93212842     11.85168612
H      12.92024275      2.51657038      3.51614573
H       1.10659691      1.64945811    -16.10907099
H       8.05158458     -3.31076660      4.42963118
H       6.82145859     -5.97920609     -8.50857931
H      12.08104286      0.65614819     10.80605871
C      -9.01891679     -1.20631670      6.63867917
C      -2.22898486     -8.11328567     13.78766675
C       9.33211528      0.73121818      8.87608124
C      10.50425278     -0.50011401      9.00723145
C       9.33185203      1.52562943      7.39902944
C       9.13850035     13.77402610     11.59052579
C      11.28906481     -0.20615959     10.46269841
C      -2.87752518     14.02810035     11.93550002
C      -1.82982750     14.44155070     23.89396220
C       6.55735423      4.21300726     -1.34992987
C      11.79775565      2.15114278      3.70964378
C      11.16219387      1.93755458      5.14091584
C      10.02520568     -7.47505043     -7.38406339
C       5.43402609      5.27215467     -2.01165701
C       8.95960263     -3.07845559      5.22710666
H       7.66567631      4.34825719     -0.88632160
H       4.91786472     -8.21849954     -8.04877774
H      -8.03056136     -1.43015811      7.21420322
H      -8.58594175     -3.48288814     22.85344619
H      -2.35211436     -7.94842506     15.00428782
H       9.91725828      3.43958118      6.13159008
H       9.14070819      1.66797404      9.66722191
H      10.07393952     14.32743709     12.00630348
H      -1.31047633     15.40588097     23.50086323
H       1.12957860      1.26592799     -4.98825720
H       6.57417264      3.01786508     -1.14619404
H      -3.02940352     14.64672641     10.88176634
H       1.20190750     -5.39668647      1.15105500
H       1.04667106      2.42392902    -16.17981837
H       9.37519905     -2.86969099      4.08833670
H      10.80893872     -6.56015405     -7.24302364
H      -3.37287737     14.66909677     12.86279174
   94

C       7.10077771     -6.86150840     -7.66817764
C       5.58775674     -7.56779496     -7.23428271
H       7.38221436     -6.08852154     -6.73524626
C     -10.35107632     -0.90458628      5.86372339
H     -18.89224184     -7.18348784     -1.80807914
H       4.63848601     -6.84846443     -6.87715588
C      10.02287085     -1.60812116      7.88006836
H       5.52212782     -8.37435257     -6.29483033
H      -7.53304810     -5.98246405    -16.98913014
H      -7.52511408     -6.75182543    -16.86098986
C      10.43980486      2.40244636      6.51400590
H      11.42301469      2.79768300      7.13430725
C       9.75669070     -2.52626870      6.54465572
H       7.09546838      2.92487142     -4.25532393
H      10.86474922     -2.21347594      6.13349710
H      -0.11509872     -7.34534918     12.51081435
C       8.87579392     -3.85893685      6.63271823
H       7.83970528     -4.07696376      7.26477396
C       5.44565831      5.22938395     -3.67719663
H       9.32907921     -4.97817862      6.87888387
H       6.26760641      5.98936422     -4.22374266
H       4.69052683      6.08551492     -4.17376582
C       6.15121103      3.36884800     -4.91771714
H       6.43256581      4.42291324     -7.43750199
C       5.94384250      3.88611409     -6.48511282
H       6.63219590      2.27583275     -5.20011030
H       5.02821191      4.07077737     -7.24130842
H      -1.67539043     13.86445902     12.14578828
C       8.56701567     -7.60959419     -8.19602292
H     -10.74244859      0.21467155      5.71390308
H     -19.27154050     -7.16743946     -1.12670191
C       0.47572140     -5.98159442      1.92079927
H     -11.01264437     -1.78540562      5.40021367
C      -1.14032073     -7.10034470     13.10272395
H      -0.39851190     -6.42327485      2.54823345
H      -3.37570570     -8.04981991     13.35803186
H      -1.13704022     -5.89393754     13.01859895
C       0.86827651      2.03231179     -5.66878339
H       6.15773747      6.42351875     -1.75718651
C       4.16351419      5.42589177     -0.95965806
H      -0.26098461      2.24907822     -6.03247595
H       4.14545352      6.25377414     -0.03876816
H       3.75372788      4.43496155     -0.34210011
H       3.02260545      5.69928789     -1.35175132
H       8.89409488     -7.34859713     -9.36575183
H       8.44876297     -8.81374672     -8.46333012
H      10.69135347     -8.28033328     -6.75900712
H       8.29081341      0.31572242      9.40916791
H      11.59571091     -0.94051464      8.67558666
H      -2.00780400     -9.32839209     13.75234609
H       8.24175880      1.46819080      6.85283079
H      -8.71867004     -4.15262071     22.48501229
H       8.20304004     13.22070147     11.17494646
H      -2.34918134     13.47722228     24.28706397
H      11.23284303     -0.72017190     11.56640326
H      11.14327213      2.11379779      2.71933641
H      -3.43244368     12.93211193     11.85168044
H      12.92567482      2.50636679      3.52471788
H       1.13860564      1.67150150    -16.42685477
H       8.04657697     -3.29894578      4.44339617
H       6.82998166     -5.97957367     -8.50573525
H      12.08394635      0.64404089     10.81207579
C      -9.01940549     -1.20614699      6.63922557
C      -2.23452712     -8.11847869     13.82217689
C       9.33290137      0.72837227      8.87623437
C      10.50649691     -0.50152487      9.00937870
C       9.33179630      1.52457829      7.40007379
C       9.13850976     13.77410214     11.59066894
C      11.28924883     -0.21495018     10.46691060
C      -2.87752363     14.02808559     11.93549775
C      -1.82983015     14.44155270     23.89396544
C       6.68801549      4.29390395     -1.27806307
C      11.80056697      2.14802959      3.71616496
C      11.15991796      1.94562461      5.14642197
C      10.02826159     -7.48355175     -7.38560154
C       5.56678512      5.34249175     -1.95609318
C       8.96171104     -3.07943268      5.23617867
H       7.79549231      4.43838780     -0.81494112
H       4.92932051     -8.22848946     -8.05212679
H      -8.03101701     -1.42998943      7.21469516
H      -8.59033601     -3.48038783     22.85922252
H      -2.35765929     -7.95361227     15.03879734
H       9.91995045      3.44890178      6.14525955
H       9.14215753      1.66335839      9.66946915
H      10.07396038     14.32750879     12.00642676
H      -1.31047907     15.40588313     23.50086677
H       0.43596239      0.97152008     -5.28995445
H       6.70331999      3.10042867     -1.06654600
H      -3.02940012     14.64671170     10.88176384
H       1.22503394     -5.49008006      1.17921461
H       1.07858408      2.44598449    -16.49739119
H       9.37813529     -2.87254748      4.09735950
H      10.81160861     -6.56832861     -7.24502928
H      -3.37287882     14.66908108     12.86278852
   94

C       7.10701229     -6.86482376     -7.66931816
C       5.59605324     -7.57531850     -7.23580979
H       7.38785926     -6.09004240     -6.73766744
C     -10.35148417     -0.90437887      5.86425124
H     -18.89234850     -7.18354345     -1.80803143
H       4.64460037     -6.85961506     -6.87765152
C      10.02864120     -1.61237644      7.88463388
H       5.53349822     -8.38231477     -6.29649701
H      -7.54020669     -5.98966163    -16.99048830
H      -7.53223653     -6.75900972    -16.86227047
C      10.43938872      2.40773040      6.52088081
H      11.42420946      2.79714938      7.14229282
C       9.76513115     -2.53211932      6.55080054
H       7.21790902      3.02751912     -4.20700355
H      10.87460964     -2.22389980      6.13909655
H      -0.12062994     -7.35052533     12.54524411
C       8.88035657     -3.86206246      6.64075687
H       7.84582819     -4.07884068      7.27568879
C       5.61425017      5.28567055     -3.62758137
H       9.32950700     -4.98261520      6.88823907
H       6.40958865      6.07427359     -4.16858128
H       4.81819720      6.10611012     -4.11651947
C       6.26893397      3.51204396     -4.82827700
H       6.49462782      4.48024018     -7.37559046
C       6.01155755      3.96391929     -6.40736508
H       6.69542389      2.39194119     -5.08981241
H       5.06362793      4.08945930     -7.13699373
H      -1.67538422     13.86442646     12.14575665
C       8.57017177     -7.61746337     -8.19872815
H     -10.74286225      0.21487808      5.71443252
H     -19.27163604     -7.16748615     -1.12664824
C       0.49206180     -6.07186356      1.94204376
H     -11.01308037     -1.78519541      5.40077400
C      -1.14585072     -7.10551966     13.13715708
H      -0.37605588     -6.51693186      2.57564943
H      -3.38123648     -8.05499187     13.39249004
H      -1.14257724     -5.89911423     13.05299540
C       0.11076780      1.71696892     -5.99610437
H       6.27326816      6.49916035     -1.69692731
C       4.28590677      5.49512592     -0.91457212
H      -0.99707759      1.98003230     -6.37095784
H       4.25477214      6.32099789      0.00895749
H       3.87174528      4.50576222     -0.29732117
H       3.14588104      5.76300464     -1.31339940
H       8.89556915     -7.36182296     -9.37008289
H       8.45128171     -8.82169003     -8.46540886
H      10.69121013     -8.28767027     -6.75732000
H       8.28947526      0.31261197      9.40469128
H      11.59943605     -0.93460217      8.67317787
H      -2.01333831     -9.33356195     13.78681655
H       8.24419490      1.46332953      6.84888978
H      -8.72306844     -4.15012095     22.49078531
H       8.20304099     13.22078413     11.17511683
H      -2.34918349     13.47722211     24.28706206
H      11.22858688     -0.73445952     11.56753803
H      11.14734733      2.10206008      2.72468668
H      -3.43243140     12.93207353     11.85163876
H      12.93063921      2.49610688      3.53293223
H       1.17038891      1.69346783    -16.74213846
H       8.04158558     -3.28691482      4.45702074
H       6.83786225     -5.97833761     -8.50263667
H      12.08679477      0.63190215     10.81785286
C      -9.01975578     -1.20593266      6.63966419
C      -2.24005506     -8.12364577     13.85663045
C       9.33363850      0.72557949      8.87617805
C      10.50865614     -0.50290701      9.01135117
C       9.33168533      1.52357731      7.40090276
C       9.13852302     13.77418069     11.59081713
C      11.28938549     -0.22376280     10.47089971
C      -2.87751705     14.02804970     11.93546127
C      -1.82983242     14.44155268     23.89396376
C       6.81675139      4.37343388     -1.21030383
C      11.80289939      2.14500131      3.72224553
C      11.15744126      1.95381471      5.15154890
C      10.03045694     -7.49137589     -7.38693609
C       5.69700180      5.41191785     -1.90334827
C       8.96365687     -3.08023331      5.24503665
H       7.92320874      4.52627604     -0.74691449
H       4.93962605     -8.23624392     -8.05505532
H      -8.03131768     -1.42977323      7.21505126
H      -8.59472637     -3.47788630     22.86498960
H      -2.36318694     -7.95877186     15.07325047
H       9.92253276      3.45816953      6.15875829
H       9.14357329      1.65877953      9.67151856
H      10.07398510     14.32758301     12.00655489
H      -1.31048148     15.40588335     23.50086550
H      -0.26133718      0.65076810     -5.59251326
H       6.82936116      3.18177806     -0.99055592
H      -3.02939053     14.64667478     10.88172630
H       1.24749796     -5.58166445      1.20572403
H       1.11025772      2.46795002    -16.81258960
H       9.38083995     -2.87515530      4.10615823
H      10.81364765     -6.57599967     -7.24695618
H      -3.37287664     14.66904388     12.86275063
   94

C       7.11226778     -6.86694671     -7.67039687
C       5.60302312     -7.58091194     -7.23720290
H       7.39266926     -6.09039337     -6.74004967
C     -10.35174972     -0.90412367      5.86465528
H     -18.89250581     -7.18362289     -1.80796266
H       4.64955636     -6.86852703     -6.87819892
C      10.03434497     -1.61658943      7.88905044
H       5.54337076     -8.38829059     -6.29800586
H      -7.54736575     -5.99695236    -16.99210415
H      -7.53936542     -6.76628184    -16.86377637
C      10.43890680      2.41298921      6.52758472
H      11.42533656      2.79657220      7.15006512
C       9.77341360     -2.53787545      6.55676996
H       7.33465983      3.12961798     -4.15786800
H      10.88430153     -2.23424978      6.14453190
H      -0.12616510     -7.35567685     12.57958415
C       8.88479472     -3.86510110      6.64859919
H       7.85183800     -4.08063568      7.28640695
C       5.78157206      5.34177143     -3.57896529
H       9.32982697     -4.98693487      6.89742730
H       6.54976472      6.15914596     -4.11267548
H       4.94707650      6.12628556     -4.05903080
C       6.39197966      3.65907458     -4.74662574
H       6.59557398      4.54489624     -7.31119485
C       6.09876014      4.05259390     -6.33530399
H       6.76552416      2.51513448     -4.98468933
H       5.13290274      4.12724894     -7.05010521
H      -1.67537500     13.86437038     12.14568911
C       8.57224918     -7.62450335     -8.20117801
H     -10.74312936      0.21513333      5.71483602
H     -19.27177577     -7.16755159     -1.12657004
C       0.50804493     -6.16099576      1.96197032
H     -11.01340263     -1.78494172      5.40126005
C      -1.15137554     -7.11067037     13.17151672
H      -0.35354189     -6.60966154      2.60204068
H      -3.38675801     -8.06014056     13.42689045
H      -1.14811401     -5.90426720     13.08730903
C      -0.68218642      1.37427928     -6.30603348
H       6.39046586      6.57372575     -1.63839743
C       4.41155678      5.56844055     -0.86613053
H      -1.76092272      1.68450179     -6.70426593
H       4.37160264      6.39212035      0.06036757
H       3.99215560      4.58186271     -0.24787156
H       3.27224528      5.83506531     -1.26804661
H       8.89600490     -7.37435588     -9.37415446
H       8.45253352     -8.82880456     -8.46716590
H      10.69018853     -8.29464836     -6.75576850
H       8.28810246      0.30955551      9.40005565
H      11.60300664     -0.92872337      8.67069169
H      -2.01886129     -9.33870571     13.82122904
H       8.24662247      1.45854097      6.84477163
H      -8.72746252     -4.14761942     22.49654662
H       8.20304260     13.22087311     11.17530157
H      -2.34918562     13.47721935     24.28705425
H      11.22428138     -0.74872872     11.56846324
H      11.15099173      2.09051668      2.72988045
H      -3.43241398     12.93200930     11.85155675
H      12.93526758      2.48576209      3.54095622
H       1.20149908      1.71517571    -17.05514509
H       8.03663675     -3.27474004      4.47054664
H       6.84492926     -5.97588704     -8.49946894
H      12.08959655      0.61972570     10.82342911
C      -9.01993529     -1.20566594      6.63992943
C      -2.24557214     -8.12878660     13.89102315
C       9.33432666      0.72282150      8.87596343
C      10.51073307     -0.50427747      9.01319509
C       9.33152143      1.52260898      7.40157038
C       9.13853715     13.77426548     11.59097928
C      11.28948124     -0.23260288     10.47470750
C      -2.87750732     14.02798885     11.93538677
C      -1.82983473     14.44155015     23.89395631
C       6.94523813      4.45214265     -1.14422824
C      11.80489320      2.14201234      3.72804868
C      11.15482668      1.96209366      5.15642303
C      10.03169727     -7.49869427     -7.38812742
C       5.82714259      5.48112283     -1.85177813
C       8.96545358     -3.08089217      5.25373198
H       8.05041304      4.61253301     -0.67968772
H       4.94854961     -8.24204675     -8.05781301
H      -8.03143390     -1.42950560      7.21520925
H      -8.59911270     -3.47538321     22.87074544
H      -2.36870068     -7.96390331     15.10764287
H       9.92503667      3.46737368      6.17217481
H       9.14494930      1.65421976      9.67341931
H      10.07401122     14.32766325     12.00669605
H      -1.31048402     15.40588117     23.50085867
H      -0.98916000      0.30021238     -5.89212167
H       6.95398940      3.26239838     -0.91615650
H      -3.02937656     14.64661175     10.88164985
H       1.26904163     -5.67188252      1.23055977
H       1.14128614      2.48964242    -17.12569263
H       9.38334416     -2.87757149      4.11478639
H      10.81494696     -6.58332084     -7.24889129
H      -3.37287256     14.66898126     12.86267441
   94

C       7.11662206     -6.86859919     -7.67156122
C       5.60874588     -7.58537971     -7.23871143
H       7.39666985     -6.09030984     -6.74251530
C     -10.35182784     -0.90381640      5.86480561
H     -18.89271381     -7.18372684     -1.80786743
H       4.65331718     -6.87613464     -6.87907794
C      10.03999850     -1.62076060      7.89335699
H       5.55184517     -8.39309173     -6.29960935
H      -7.55450750     -6.00436440    -16.99402990
H      -7.54648354     -6.77366825    -16.86554963
C      10.43837624      2.41822371      6.53414911
H      11.42641414      2.79595402      7.15765300
C       9.78157394     -2.54355875      6.56261627
H       7.44836135      3.23161145     -4.10694524
H      10.89385610     -2.24453571      6.14985154
H      -0.13170952     -7.36080772     12.61383969
C       8.88914532     -3.86807463      6.65630878
H       7.85776736     -4.08237097      7.29698478
C       5.94921911      5.39826764     -3.53022924
H       9.33007298     -4.99116159      6.90650850
H       6.68934834      6.24448436     -4.05523691
H       5.07822789      6.14615584     -4.00039935
C       6.51896158      3.80786073     -4.66790274
H       6.72370009      4.61506203     -7.24390351
C       6.20197763      4.14927809     -6.26551308
H       6.84099822      2.64348707     -4.88188792
H       5.22593125      4.17970709     -6.97163796
H      -1.67536624     13.86429401     12.14559241
C       8.57346948     -7.63117239     -8.20349631
H     -10.74320438      0.21544173      5.71498640
H     -19.27195861     -7.16763522     -1.12646133
C       0.52337584     -6.24947448      1.98086728
H     -11.01356595     -1.78464095      5.40154395
C      -1.15690183     -7.11580047     13.20580555
H      -0.33142460     -6.70177252      2.62757497
H      -3.39227712     -8.06526892     13.46123293
H      -1.15365660     -5.90940005     13.12154362
C      -1.50273249      1.00940793     -6.61554317
H       6.50939537      6.64777359     -1.58015222
C       4.53989395      5.64430456     -0.81521117
H      -2.54695392      1.37304098     -7.03539978
H       4.49331905      6.46571621      0.11443546
H       4.11458671      4.66121757     -0.19537259
H       3.40134994      5.91223778     -1.21846264
H       8.89562654     -7.38660263     -9.37807670
H       8.45283677     -8.83555143     -8.46873766
H      10.68847697     -8.30146336     -6.75434360
H       8.28670887      0.30655572      9.39528950
H      11.60644280     -0.92287299      8.66815872
H      -2.02438035     -9.34382702     13.85558430
H       8.24905584      1.45382497      6.84051054
H      -8.73185298     -4.14511613     22.50229459
H       8.20304479     13.22097064     11.17550441
H      -2.34918819     13.47721409     24.28704119
H      11.21994016     -0.76296954     11.56920719
H      11.15421618      2.07925199      2.73496336
H      -3.43239522     12.93192271     11.85144140
H      12.93958488      2.47533890      3.54882119
H       1.23164376      1.73648582    -17.36678838
H       8.03178187     -3.26248909      4.48402581
H       6.85125129     -5.97296790     -8.49639964
H      12.09236640      0.60752135     10.82883020
C      -9.01990980     -1.20534716      6.63990570
C      -2.25108580     -8.13390484     13.92535607
C       9.33498008      0.72010092      8.87561995
C      10.51274579     -0.50562934      9.01493901
C       9.33132152      1.52167223      7.40210530
C       9.13855228     13.77435865     11.59115885
C      11.28954991     -0.24146051     10.47836231
C      -2.87749793     14.02790635     11.93528121
C      -1.82983754     14.44154524     23.89394386
C       7.07417090      4.53038556     -1.07848286
C      11.80657872      2.13906628      3.73361622
C      11.15209804      1.97045718      5.16108266
C      10.03216301     -7.50578088     -7.38926031
C       5.95807209      5.55033124     -1.80029837
C       8.96714417     -3.08144458      5.26232167
H       8.17787718      4.69777029     -0.61220805
H       4.95622732     -8.24671196     -8.06068939
H      -8.03134525     -1.42919451      7.21507354
H      -8.60349568     -3.47287865     22.87648854
H      -2.37420841     -7.96901054     15.14197559
H       9.92747885      3.47651556      6.18554606
H       9.14629711      1.64968416      9.67519725
H      10.07403912     14.32775155     12.00685332
H      -1.31048712     15.40587676     23.50084711
H      -1.73994239     -0.06869949     -6.19050686
H       7.07822640      3.34264133     -0.84202620
H      -3.02936194     14.64652634     10.88154172
H       1.28965330     -5.76149135      1.25411171
H       1.17142251      2.51092572    -17.43761712
H       9.38570090     -2.87984357      4.12330245
H      10.81560604     -6.59050096     -7.25089337
H      -3.37286982     14.66889653     12.86256694
   94

C       7.12039410     -6.87043298     -7.67288526
C       5.61366637     -7.58968479     -7.24050250
H       7.40010583     -6.09044394     -6.74511850
C     -10.35171255     -0.90347055      5.86458365
H     -18.89296393     -7.18385229     -1.80774263
H       4.65622513     -6.88357294     -6.88039215
C      10.04561634     -1.62487356      7.89756371
H       5.55942964     -8.39770719     -6.30148982
H      -7.56156892     -6.01188460    -16.99625782
H      -7.55353442     -6.78115550    -16.86758046
C      10.43778817      2.42344712      6.54054180
H      11.42743832      2.79530764      7.16501597
C       9.78964531     -2.54917060      6.56836183
H       7.55957577      3.33369185     -4.05472434
H      10.90330023     -2.25474378      6.15507155
H      -0.13726636     -7.36592514     12.64802845
C       8.89344505     -3.87098667      6.66391901
H       7.86365329     -4.08405113      7.30745622
C       6.11720601      5.45503969     -3.48127708
H       9.33028233     -4.99529894      6.91551593
H       6.82822171      6.32979846     -3.99666456
H       5.21149597      6.16555971     -3.94051798
C       6.64775414      3.95686430     -4.58980731
H       6.86501818      4.68770065     -7.17396097
C       6.31359799      4.25033132     -6.19600784
H       6.92012390      2.77546141     -4.78033972
H       5.33073711      4.23920374     -6.89529632
H      -1.67535903     13.86420275     12.14547528
C       8.57424408     -7.63788547     -8.20581241
H     -10.74308294      0.21578935      5.71476842
H     -19.27217569     -7.16773314     -1.12631886
C       0.53801463     -6.33795125      1.99932667
H     -11.01355266     -1.78430574      5.40148964
C      -1.16243531     -7.12091684     13.24003658
H      -0.30996408     -6.79373864      2.65266287
H      -3.39780061     -8.07038300     13.49552539
H      -1.15920934     -5.91451953     13.15571503
C      -2.33935535      0.63314120     -6.92711941
H       6.62952420      6.72131814     -1.52200278
C       4.66998392      5.72144842     -0.76285507
H      -3.34298158      1.05644831     -7.36566943
H       4.61786210      6.54062235      0.16996397
H       4.23837044      4.74227733     -0.14114977
H       3.53230324      5.99204352     -1.16668019
H       8.89482585     -7.39890128     -9.38196525
H       8.45270758     -8.84234522     -8.47028895
H      10.68640744     -8.30827191     -6.75300121
H       8.28530786      0.30363157      9.39039067
H      11.60976119     -0.91702788      8.66558060
H      -2.02990308     -9.34893289     13.88989109
H       8.25149639      1.44919270      6.83610227
H      -8.73624095     -4.14261143     22.50802919
H       8.20304775     13.22107438     11.17572038
H      -2.34919136     13.47720665     24.28702390
H      11.21557072     -0.77716291     11.56977160
H      11.15692166      2.06842686      2.73988117
H      -3.43237690     12.93181981     11.85130266
H      12.94352616      2.46486491      3.55645948
H       1.26086423      1.75739576    -17.67812871
H       8.02706283     -3.25019603      4.49748448
H       6.85709424     -5.97025962     -8.49351037
H      12.09511161      0.59530911     10.83405612
C      -9.01969642     -1.20499599      6.63950973
C      -2.25660356     -8.13900759     13.95963866
C       9.33560944      0.71743739      8.87513977
C      10.51470882     -0.50693780      9.01658180
C       9.33109114      1.52077993      7.40249559
C       9.13856798     13.77445814     11.59135183
C      11.28959736     -0.25031493     10.48186645
C      -2.87749003     14.02780796     11.93515392
C      -1.82984100     14.44153828     23.89392742
C       7.20356046      4.60819606     -1.01281733
C      11.80789110      2.13620144      3.73888732
C      11.14923077      1.97892044      5.16548665
C      10.03220665     -7.51287064     -7.39040943
C       6.08973223      5.61934838     -1.74878629
C       8.96876936     -3.08190526      5.27083294
H       8.30562891      4.78224815     -0.54435815
H       4.96312977     -8.25119220     -8.06388340
H      -8.03108797     -1.42886549      7.21459108
H      -8.60787640     -3.47037300     22.88221895
H      -2.37971843     -7.97410107     15.17625804
H       9.92984466      3.48560661      6.19884528
H       9.14762814      1.64519478      9.67684156
H      10.07406794     14.32784603     12.00702337
H      -1.31049091     15.40587043     23.50083184
H      -2.50063925     -0.44387855     -6.48791535
H       7.20237307      3.42254684     -0.76790255
H      -3.02934818     14.64642472     10.88141157
H       1.30967633     -5.85138395      1.27721404
H       1.20072899      2.53180470    -17.74936268
H       9.38795219     -2.88198375      4.13173420
H      10.81587268     -6.59769722     -7.25297188
H      -3.37286924     14.66879556     12.86243763
   94

C       7.12591619     -6.87623277     -7.67558229
C       5.62166108     -7.60085294     -7.24443518
H       7.40449921     -6.09267002     -6.75040341
C     -10.35223719     -0.90292630      5.86262389
H     -18.89185999     -7.18329685     -1.80818867
H       4.66002183     -6.90117578     -6.88353699
C      10.05282907     -1.62905398      7.90120415
H       5.57245346     -8.40906465     -6.30528623
H      -7.56622560     -6.01512687    -16.99155064
H      -7.55851441     -6.78452087    -16.86359197
C      10.43079023      2.43533466      6.53945132
H      11.42435524      2.79669458      7.16385969
C       9.80178443     -2.55500425      6.57396261
H       7.66390083      3.46710620     -4.00126104
H      10.91825266     -2.26910428      6.16017559
H      -0.14361853     -7.37175900     12.68355659
C       8.90043244     -3.87308045      6.67305585
H       7.87312737     -4.08462960      7.32087417
C       6.33574799      5.48848273     -3.43610742
H       9.33004958     -4.99920231      6.92852169
H       6.98816768      6.41723283     -3.92969396
H       5.36796501      6.12581542     -3.86993408
C       6.78453842      4.17058227     -4.48340251
H       7.04805282      4.76538085     -7.07814139
C       6.43398252      4.38140797     -6.10885026
H       6.98566532      2.96894550     -4.63932460
H       5.44108272      4.29343342     -6.79330896
H      -1.67522236     13.86417483     12.14530767
C       8.57539415     -7.65044455     -8.21010738
H     -10.74359595      0.21633235      5.71281672
H     -19.27118577     -7.16726916     -1.12682601
C       0.54903615     -6.43471596      2.01999904
H     -11.01390178     -1.78378982      5.39934946
C      -1.16874105     -7.12676439     13.27563953
H      -0.29239986     -6.89271903      2.68048068
H      -3.40406448     -8.07627460     13.53102231
H      -1.16549184     -5.92035721     13.19153257
C      -3.30368498      0.19501776     -7.26869702
H       6.75726073      6.78723404     -1.46054032
C       4.82034919      5.79937015     -0.70657494
H      -4.19448267      0.76291750     -7.73987513
H       4.75950791      6.61628108      0.23080616
H       4.37744273      4.82998487     -0.07755109
H       3.68391914      6.07580307     -1.10954443
H       8.89290159     -7.42169390     -9.38911572
H       8.45295389     -8.85498751     -8.47352021
H      10.68298457     -8.31862733     -6.75107902
H       8.28173644      0.30401276      9.37584371
H      11.61307069     -0.90213658      8.65459860
H      -2.03612961     -9.35482161     13.92530001
H       8.25188931      1.44325853      6.82147334
H      -8.74032250     -4.14032337     22.51341327
H       8.20294145     13.22024184     11.17403155
H      -2.34916350     13.47718722     24.28698232
H      11.20824230     -0.79492380     11.56502730
H      11.13962474      2.06723736      2.73322624
H      -3.43227189     12.93183102     11.85119647
H      12.93247491      2.45669493      3.55069842
H       1.28497187      1.77933824    -18.00471786
H       8.02033925     -3.22985960      4.51545047
H       6.86654833     -5.96756577     -8.48823510
H      12.10042858      0.57978746     10.83392631
C      -9.02049327     -1.20442128      6.63797963
C      -2.26288189     -8.14491610     13.99515903
C       9.33530885      0.71748615      8.86709856
C      10.51605452     -0.50505541      9.01420033
C       9.32747113      1.52224372      7.39489145
C       9.13832463     13.77367504     11.58991039
C      11.28959799     -0.26051804     10.48147842
C      -2.87735699     14.02780680     11.93502706
C      -1.82981241     14.44151727     23.89388281
C       7.35013631      4.68374445     -0.93333492
C      11.79331407      2.13832305      3.73025022
C      11.13519944      1.99706629      5.15887801
C      10.03125055     -7.52385390     -7.39169263
C       6.24026256      5.67610686     -1.69829756
C       8.97105836     -3.07992243      5.28118489
H       8.44810496      4.87248369     -0.45909658
H       4.97488471     -8.26250502     -8.07059144
H      -8.03208998     -1.42818700      7.21343874
H      -8.61202380     -3.46809988     22.88765254
H      -2.38599005     -7.98006232     15.21178291
H       9.92720526      3.50426126      6.21104236
H       9.15001952      1.64280236      9.67191772
H      10.07370782     14.32710824     12.00578923
H      -1.31046131     15.40584731     23.50078330
H      -3.28989705     -0.86028807     -6.79522160
H       7.33948552      3.50313873     -0.66845358
H      -3.02922606     14.64641905     10.88128340
H       1.32836311     -5.95164393      1.30354371
H       1.22522505      2.55375970    -18.07614389
H       9.39347827     -2.88333666      4.14258518
H      10.81456834     -6.60818850     -7.25615181
H      -3.37270765     14.66880232     12.86232070
