   94

C      -8.27171766     -4.66080033     -4.47280797
C      -7.13591492     -5.18294393     -3.46307177
H      -9.09990276     -4.27868442     -5.21108767
C     -20.03192299      4.50210902     -4.06767124
H     -18.88235654     -7.18163149     -1.81025971
H      -6.59113980     -4.24485405     -2.88832167
C       9.95766410     -5.15528250      7.52825580
H      -7.60977633     -5.92243459     -2.60531870
H      -7.29857073     -5.75426489    -16.93041859
H      -7.29085954     -6.52365889    -16.80245992
C       6.71160943      0.89664322      9.69733629
H       5.52585323      1.14313631      9.47538970
C       9.85079904     -5.91424471      6.18371857
H       6.54996032     -0.32832354      9.78049907
H      10.14468467     -5.03872002      5.41321203
H       1.35118363     -5.34021312     10.28853965
C       9.60371399     -7.53520840      6.01707622
H       8.60023042     -7.78460307      5.34076243
C       6.57783088      0.58553104     -3.31817799
H       9.14143891     -8.06044814      7.03359410
H       6.42070865      0.46892254     -4.53300975
H       6.88584082      1.77098806     -3.19065600
C       5.13145564      0.19163588     -2.47408151
H       4.93502168     -0.95488002     -2.06142037
C       8.23905064     11.02330486    -16.67152817
H       4.21710852     -0.12821836     -3.24304067
H       7.59304395     11.83143188    -17.13090652
H      -0.76413051     12.56987615     11.39832777
C      12.37234461     -6.91729667    -13.67192055
H     -19.10561058      4.89852111     -3.48544450
H     -19.26168231     -7.16560380     -1.12889706
C      -9.28997474      4.95725589    -10.51680901
H     -20.95842634      4.10631831     -4.65001690
C       0.30635149     -5.36668291     10.91368065
H     -10.38994745      4.89569486    -10.25662773
H      -1.71721186     -6.15378036     10.81056434
H      -0.26027850     -4.33563314     11.16025684
C       4.49271560      1.13454841     -1.24420118
H      -2.79692204      3.16871784      3.19825604
C      -3.59770364      3.16674236      4.13359873
H       3.51377742      1.84816589     -1.17418258
H      -3.49758627      4.22097217      4.76184791
H      -3.35374313      2.21893421      4.88076941
H      -4.74256305      3.05834521      3.69352145
H      11.94284700     -5.83658463    -13.37948360
H      12.89496904     -7.08642857    -14.73783995
H      12.27921780     -7.82887681    -12.89843808
H       8.39924386      2.22371719     13.06459421
H       6.30906913      4.47639182     13.11792596
H      -1.24453384     -7.40914936     11.95072844
H       8.77207387      1.18167571     10.78750353
H      -8.70101793     -4.16259184     22.46177845
H       6.49757030      7.28310791     11.40937360
H      -2.36209394     13.40680546     23.46734672
H       8.86183967      5.84301292     13.45616118
H       9.94743794     -0.34013163     -4.93447128
H      -2.52118001     11.63753237     11.10421671
H      18.30568301      0.41246342     -4.77391817
H       1.41325020      1.58854504    -13.40338993
H      11.14496595     -9.17364569      4.68845766
H      28.85420666     -1.65918417      0.01393728
H       9.28533858      5.40755294     11.71535994
C      17.30322965     -4.04092092     16.91429424
C      -0.82247772     -6.29754474     11.65637623
C       7.47436415      2.53098610     12.30710880
C       7.35184264      4.19536003     12.54782487
C       7.62848625      1.58809656     10.92127789
C       7.59373312      7.01623242     11.84220909
C       8.27153385      5.59555169     12.39378464
C      -1.96626515     12.73350818     11.18804723
C      -1.84274284     14.37113551     23.07424721
C       9.63395956     -0.45306382     -3.75004454
C      18.33146695      0.92074888     -5.85065193
C      18.99187761      0.14329233     -7.00382183
C      28.76704399     -0.50538083     -0.10968058
C       8.11033362      0.00620967     -3.38053315
C      10.98052161     -8.30907713      5.51424674
H      10.58826270      0.13788717     -3.25140848
H      -6.26870157     -5.81254280     -4.06196759
H      16.35524265     -3.75935048     17.46515407
H      -8.57271924     -3.49036836     22.83601772
H      -0.52521946     -6.05707106     12.83696918
H       7.13074297      1.17141105      8.56839289
H       6.54904067      1.97371711     12.90289087
H       8.01162451      8.14867465     11.74279910
H      -1.32339175     15.33546555     22.68114770
H       4.80080797      1.29846419     -0.08452775
H       9.81252507     -1.62083745     -3.42341770
H      -2.11813419     13.35212050     10.13430360
H      17.87561277      1.99565221     -6.08562470
H       1.35350445      2.36296685    -13.47481336
H      12.13172419     -8.17892636      5.85891169
H      28.69671416      0.65324368     -0.19204449
H      -2.46161589     13.37450371     12.11534082
   94

C      -8.26888122     -4.72646864     -4.58886320
C      -7.13363507     -5.24784409     -3.57821067
H      -9.09608392     -4.34588241     -5.32898769
C     -18.92504992      3.72156581     -2.96101775
H     -18.88319008     -7.20138309     -1.80717357
H      -6.58908742     -4.30950815     -3.00368097
C       9.93031233     -5.15236186      7.47702882
H      -7.60790131     -5.98705550     -2.72046204
H      -7.29817129     -5.75469733    -16.93132778
H      -7.29049084     -6.52408557    -16.80333243
C       6.67687155      0.92478067      9.66960603
H       5.49030621      1.17380287      9.45654654
C       9.84627067     -5.92378770      6.13865187
H       6.52044922     -0.30048502      9.75545280
H      10.13421472     -5.04788069      5.36646696
H       1.36800181     -5.38936080     10.33748213
C       9.60432974     -7.54635718      5.98267515
H       8.60042895     -7.79400494      5.30648426
C       6.60931535      0.55700027     -3.35622285
H       9.13992429     -8.07043609      6.99885363
H       6.45088806      0.44856667     -4.57181234
H       6.92005961      1.74118853     -3.22313168
C       5.16857746      0.15379989     -2.50936132
H       4.99350685     -0.99515776     -2.09283212
C       8.23941469     11.02377185    -16.67189737
H       4.24955436     -0.16323497     -3.27442105
H       7.59339687     11.83189942    -17.13125893
H      -0.77861853     12.68884956     11.48177390
C      12.37253382     -6.91749083    -13.67251193
H     -18.13916028      4.39543317     -2.44553804
H     -19.26254953     -7.18459535     -1.12584524
C      -9.28165966      4.95850515    -10.52346870
H     -19.90724431      3.61668729     -3.56245953
C       0.32495080     -5.39725353     10.96402907
H     -10.38213834      4.89712631    -10.26553090
H      -1.70756711     -6.20182056     10.87310884
H      -0.20326208     -4.34008706     11.18737666
C       4.53218881      1.09760375     -1.27991080
H      -2.51314773      3.53015911      3.03977931
C      -3.31347470      3.52779645      3.97545802
H       3.55724985      1.81674858     -1.21352711
H      -3.21305252      4.58206375      4.60352949
H      -3.06984742      2.57972112      4.72233860
H      -4.45826072      3.41942305      3.53527159
H      11.94303435     -5.83677161    -13.38010855
H      12.89518252     -7.08661518    -14.73841959
H      12.27938994     -7.82907910    -12.89904267
H       8.34324888      2.25030287     13.04208693
H       6.27498194      4.51115039     13.09802522
H      -1.19342596     -7.46170475     11.98587400
H       8.73876479      1.25009220     10.73880144
H      -8.70179972     -4.16259854     22.46207561
H       6.48805315      7.31226504     11.39212633
H      -2.36118954     13.41499739     23.55501080
H       8.84167441      5.85908416     13.44279797
H       9.97564690     -0.37629945     -4.96257579
H      -2.53576140     11.75651867     11.18786972
H      18.33403529      0.41646111     -4.78969432
H       1.41177082      1.58883590    -13.40886072
H      11.14674079     -9.18734867      4.65897673
H      28.86662103     -1.66083724      0.01983578
H       9.26370205      5.42628105     11.69917891
C      14.90356073     -3.98125588     16.11301935
C      -0.79948918     -6.33604251     11.70502026
C       7.42539773      2.56404943     12.27855006
C       7.31550663      4.22786015     12.52523238
C       7.58806609      1.63035388     10.88851107
C       7.58139479      7.04134696     11.82932652
C       8.25163655      5.61715534     12.37930798
C      -1.98075979     12.85245553     11.27154795
C      -1.84181180     14.37932576     23.16194047
C       9.66199749     -0.48774273     -3.77817027
C      18.35979665      0.92474608     -5.86642891
C      19.02018386      0.14725464     -7.01958353
C      28.78017964     -0.50678534     -0.10195997
C       8.13875599     -0.02715910     -3.41423671
C      10.98174652     -8.32196878      5.48400854
H      10.60923496      0.10894366     -3.27309868
H      -6.26624766     -5.87749362     -4.17678038
H      14.00367863     -3.74770436     16.76415676
H      -8.57351110     -3.49037539     22.83631902
H      -0.51813895     -6.10307863     12.89007892
H       7.09026719      1.19395426      8.53732781
H       6.49990231      2.00576751     12.87308695
H       8.00409067      8.17217703     11.73505745
H      -1.32242941     15.34364965     22.76886524
H       4.84489169      1.26286808     -0.12179452
H       9.83824151     -1.65571032     -3.45104697
H      -2.13261071     13.47107128     10.21780990
H      17.90393323      1.99963818     -6.10142527
H       1.35203996      2.36326181    -13.48025285
H      12.13277797     -8.19185814      5.82924565
H      28.70909383      0.65166517     -0.18611022
H      -2.47605773     13.49338211     12.19891102
   94

C      -8.26326445     -4.79467781     -4.70710608
C      -7.12908636     -5.31471725     -3.69468195
H      -9.08860549     -4.41666839     -5.45058132
C     -17.80266374      2.91813523     -1.83752881
H     -18.88911124     -7.23309397     -1.80725602
H      -6.58491638     -4.37602270     -3.12042276
C       9.88795948     -5.13812905      7.34584478
H      -7.60392590     -6.05358256     -2.83697853
H      -7.29794174     -5.75502609    -16.93228313
H      -7.29027444     -6.52441127    -16.80426821
C       6.59444116      1.02544108      9.57425374
H       5.40417699      1.26719278      9.37555434
C       9.83814251     -5.94184981      6.02583048
H       6.45241592     -0.20061529      9.66986204
H      10.12638257     -5.07263182      5.24625512
H       1.36235178     -5.43751846     10.36921180
C       9.60487608     -7.56815373      5.90125303
H       8.60301973     -7.82280551      5.22463922
C       6.64084090      0.52860128     -3.39601035
H       9.13520045     -8.08402793      6.91922099
H       6.48131105      0.42831135     -4.61232776
H       6.95421755      1.71153015     -3.25739827
C       5.20541599      0.11600481     -2.54704478
H       5.05161151     -1.03500486     -2.12674128
C       8.23978075     11.02426321    -16.67233158
H       4.28188402     -0.19826880     -3.30833015
H       7.59374543     11.83238945    -17.13167067
H      -0.79474677     12.80966590     11.56520215
C      12.37279703     -6.91769076    -13.67322776
H     -17.27717858      3.88546284     -1.46637138
H     -19.26835985     -7.21571645     -1.12587573
C      -9.27715998      4.96033937    -10.53020206
H     -18.77381053      3.19014909     -2.41440397
C       0.32712148     -5.42698483     11.00671719
H     -10.37819480      4.89956914    -10.27456660
H      -1.71229124     -6.25363383     10.93120658
H      -0.16245916     -4.34603333     11.20659965
C       4.57067858      1.06094548     -1.31858530
H      -2.22905640      3.89386185      2.87925241
C      -3.02896440      3.89097711      3.81523253
H       3.59951704      1.78524211     -1.25600003
H      -2.92846251      4.94526527      4.44318454
H      -2.78607539      2.94247978      4.56175080
H      -4.17364143      3.78249340      3.37489075
H      11.94329545     -5.83696285    -13.38086563
H      12.89547263     -7.08680829    -14.73912187
H      12.27963625     -7.82929108    -12.89977693
H       8.23569949      2.34425572     12.94214111
H       6.22042621      4.62308506     13.06693840
H      -1.15404861     -7.51523100     12.01652688
H       8.66210116      1.45377301     10.58519341
H      -8.70312336     -4.16253273     22.46263299
H       6.48267642      7.40817576     11.35949220
H      -2.36034793     13.42339999     23.64292211
H       8.81403260      5.92042717     13.42229059
H      10.00422601     -0.41189354     -4.99203413
H      -2.55189740     11.87702866     11.27143326
H      18.36266949      0.42049910     -4.80513079
H       1.41018567      1.58917396    -13.41454106
H      11.15989354     -9.21816529      4.60704023
H      28.87865377     -1.66255825      0.02628156
H       9.23965817      5.49954769     11.67602354
C      12.86122732     -4.50925026     16.03598934
C      -0.78963132     -6.37648535     11.74753059
C       7.32544218      2.68048422     12.17824149
C       7.24620821      4.33789332     12.46948708
C       7.49740086      1.76996633     10.77478210
C       7.57008190      7.12712349     11.80536331
C       8.22724650      5.69732856     12.35359654
C      -1.99692079     12.97297732     11.35499181
C      -1.84094094     14.38772698     23.24988515
C       9.69031362     -0.52185664     -3.80767183
C      18.38835967      0.92874035     -5.88188880
C      19.04866776      0.15121140     -7.03506120
C      28.79294182     -0.50826181     -0.09370109
C       8.16732927     -0.06015060     -3.44958988
C      10.98863658     -8.34703673      5.42490395
H      10.63038650      0.08048692     -3.29612382
H      -6.26131704     -5.94444250     -4.29259951
H      11.92081697     -4.31855673     16.64818323
H      -8.57483357     -3.49030749     22.83687238
H      -0.52556749     -6.14886640     12.93664949
H       6.99378497      1.28021970      8.43367957
H       6.39445282      2.12355712     12.76493754
H       8.00378968      8.25380310     11.71895266
H      -1.32152449     15.35204451     22.85683721
H       4.88795153      1.22785691     -0.16209849
H       9.86424141     -1.69006566     -3.48022439
H      -2.14873868     13.59159122     10.30125675
H      17.93248273      2.00361473     -6.11693450
H       1.35046325      2.36360401    -13.48589607
H      12.13762150     -8.21193215      5.77510575
H      28.72111380      0.65001040     -0.17965893
H      -2.49213282     13.61373247     12.28250949
   94

C      -8.25526055     -4.86530105     -4.82923382
C      -7.12248470     -5.38364076     -3.81439718
H      -9.07838844     -4.49025540     -5.57666502
C     -16.72615080      2.26145364     -0.71838738
H     -18.90280847     -7.26501672     -1.81467640
H      -6.57851966     -4.44466903     -3.24042267
C       9.99363770     -5.11531519      7.20990794
H      -7.59785600     -6.12220847     -2.95674698
H      -7.29788900     -5.75519256    -16.93314139
H      -7.29021723     -6.52457922    -16.80513516
C       6.59662206      1.23759979      9.43007145
H       5.40691435      1.49798805      9.25010706
C       9.87833770     -5.94477197      5.90944821
H       6.44583195      0.01029598      9.48956709
H      10.15635989     -5.08893891      5.11116697
H       1.23632776     -5.48213009     10.30062382
C       9.64432621     -7.57243897      5.80188484
H       8.64581963     -7.83044933      5.12157474
C       6.67275816      0.50000155     -3.43626551
H       9.16384381     -8.07991908      6.81894664
H       6.51219701      0.40773816     -4.65326010
H       6.98865843      1.68169771     -3.29232324
C       5.24259932      0.07796151     -2.58535098
H       5.11014293     -1.07470193     -2.16125045
C       8.24013229     11.02476537    -16.67281163
H       4.31465306     -0.23371683     -3.34285880
H       7.59407464     11.83288945    -17.13212284
H      -0.81050080     12.93057740     11.64900284
C      12.37309908     -6.91788782    -13.67395039
H     -16.34191923      3.32150750     -0.44150383
H     -19.28204384     -7.24833034     -1.13326589
C      -9.27814255      4.96189257    -10.53410091
H     -17.65776490      2.67735947     -1.27343265
C       0.24347339     -5.45570693     11.00108279
H     -10.37938767      4.90156150    -10.27923511
H      -1.79557522     -6.32256121     10.95773154
H      -0.20906169     -4.35440084     11.18092644
C       4.60905984      1.02416351     -1.35818224
H      -1.94066734      4.26100003      2.71727461
C      -2.74017288      4.25758310      3.65354353
H       3.64138615      1.75315330     -1.29941430
H      -2.63976325      5.31185673      4.28146406
H      -2.49812474      3.30867612      4.39974591
H      -3.88469723      4.14897025      3.21294262
H      11.94359679     -5.83714961    -13.38163379
H      12.89579615     -7.08700123    -14.73983306
H      12.27992684     -7.82949782    -12.90051467
H       8.25346317      2.44878200     12.82334612
H       6.24214371      4.73331907     13.04000563
H      -1.17838388     -7.57617650     12.01691738
H       8.68318969      1.65278491     10.42512520
H      -8.70694906     -4.16197156     22.46429321
H       6.50937047      7.51810399     11.34103175
H      -2.35926765     13.43173849     23.73096719
H       8.83856547      6.01569208     13.41629968
H      10.03337115     -0.44745352     -5.02178932
H      -2.56748072     11.99745007     11.35528285
H      18.39160727      0.42453983     -4.82039148
H       1.40847398      1.58954525    -13.42023054
H      11.20850863     -9.24773272      4.55456012
H      28.89056965     -1.66434056      0.03299650
H       9.27624757      5.61756826     11.66759672
C      10.18612910     -5.61800221     16.32347615
C      -0.85159099     -6.42498726     11.75092492
C       7.34976005      2.81936479     12.06709414
C       7.26585930      4.46054929     12.43380060
C       7.51799412      1.95667535     10.63273363
C       7.59401382      7.23670390     11.79433048
C       8.25969108      5.81060437     12.34036234
C      -2.01271806     13.09350394     11.43878006
C      -1.83982594     14.39605918     23.33796181
C       9.71917090     -0.55586312     -3.83746729
C      18.41717995      0.93271405     -5.89718461
C      19.07736453      0.15513038     -7.05038763
C      28.80560846     -0.50980231     -0.08518513
C       8.19637013     -0.09315516     -3.48539956
C      11.03232086     -8.36408192      5.35787609
H      10.65199678      0.05213438     -3.31952314
H      -6.25413368     -6.01350635     -4.41132641
H       9.25739166     -5.16526981     16.80651196
H      -8.57851835     -3.48973165     22.83845845
H      -0.61676711     -6.18894013     12.94342558
H       6.98784986      1.50771231      8.29012990
H       6.41005939      2.25544463     12.63251800
H       8.02746742      8.36340562     11.71127295
H      -1.32038337     15.36037739     22.94495086
H       4.93089779      1.19286141     -0.20337018
H       9.89079267     -1.72430686     -3.50967865
H      -2.16461908     13.71216581     10.38509143
H      17.96128870      2.00756642     -6.13229792
H       1.34874653      2.36397826    -13.49154979
H      12.17615423     -8.23464604      5.72682980
H      28.73305835      0.64828775     -0.17297871
H      -2.50795694     13.73403318     12.36643262
   94

C      -8.22878740     -4.93855902     -4.96642461
C      -7.10048646     -5.45449385     -3.94534039
H      -9.04393808     -4.56503744     -5.72339607
C     -16.06523829     -0.81218358      0.04747162
H     -19.06844346     -7.59132104     -1.89709485
H      -6.55935301     -4.51472912     -3.37001250
C      10.14508438     -5.12608200      7.25417726
H      -7.57571639     -6.19516288     -3.08945369
H      -7.29770557     -5.75507508    -16.93429434
H      -7.28997658     -6.52448308    -16.80641887
C       6.82200779      1.46029636      9.29955751
H       5.63173349      1.72471776      9.12788720
C       9.94972101     -5.93343965      5.94824557
H       6.69090432      0.23155932      9.22365935
H      10.19963050     -5.06973333      5.14907808
H       0.59548633     -5.63047861      9.86716085
C       9.70639937     -7.55758692      5.81045949
H       8.70499943     -7.79933953      5.12878698
C       6.70506037      0.47007992     -3.47369676
H       9.22559395     -8.07569195      6.82195073
H       6.54327422      0.38569930     -4.69128511
H       7.02351260      1.65054490     -3.32476086
C       5.28061354      0.03874657     -2.62006807
H       5.16977257     -1.11523757     -2.19225856
C       8.24045687     11.02518329    -16.67320920
H       4.34815390     -0.27035510     -3.37362012
H       7.59438628     11.83330764    -17.13250162
H      -0.82115810     13.04881524     11.73447857
C      12.37332267     -6.91807694    -13.67419835
H     -14.64683852      5.75594887      1.22894125
H     -19.44717795     -7.57304632     -1.21538560
C      -9.28564968      4.96064927    -10.53000105
H     -16.70486305      2.19240573     -0.22612383
C      -0.23977910     -5.58483450     10.75101581
H     -10.38629863      4.89972709    -10.27260492
H      -2.25083160     -6.55923787     10.87016157
H      -0.66525974     -4.46849290     10.91321513
C       4.64857239      0.98602768     -1.39380056
H      -1.63849778      4.62725081      2.55704037
C      -2.43747243      4.62341024      3.49371017
H       3.68418565      1.71938422     -1.33861511
H      -2.33661749      5.67746729      4.12184776
H      -2.19629473      3.67425318      4.23980590
H      -3.58165350      4.51464459      3.05238541
H      11.94382070     -5.83732981    -13.38191695
H      12.89601093     -7.08718999    -14.74008482
H      12.28016133     -7.82967357    -12.90074643
H       8.42450465      2.50294289     12.80614679
H       6.33808901      4.74645253     13.01880787
H      -1.47448986     -7.73897872     11.91065466
H       8.88337131      1.69649912     10.41710978
H      -8.71660385     -4.16060302     22.46976326
H       6.54142613      7.54872596     11.35295126
H      -2.35774342     13.43986154     23.81908283
H       8.90590091      6.09108112     13.42975158
H      10.06251462     -0.48518335     -5.04879803
H      -2.57783153     12.11555903     11.44078855
H      18.42038553      0.42821800     -4.83571147
H       1.40652936      1.58993430    -13.42536824
H      11.25354199     -9.24289245      4.55392478
H      28.90284874     -1.66617961      0.03943146
H       9.36072846      5.71477623     11.67925618
C       7.54941463     -6.06364766     16.39964880
C      -1.24692826     -6.57696987     11.59250589
C       7.53394826      2.87634533     12.03646764
C       7.38591181      4.50330062     12.44263469
C       7.72617399      2.05166455     10.58269143
C       7.63210967      7.28852114     11.80481123
C       8.33767167      5.88152372     12.34934891
C      -2.02337931     13.21176519     11.52430600
C      -1.83823453     14.40414087     23.42606893
C       9.74817256     -0.59180647     -3.86445482
C      18.44588046      0.93637973     -5.91251212
C      19.10597260      0.15876177     -7.06573874
C      28.81866610     -0.51140045     -0.07695455
C       8.22567143     -0.12771409     -3.51847210
C      11.08697473     -8.35655498      5.35634340
H      10.67374149      0.02195248     -3.34045059
H      -6.22978195     -6.08346298     -4.53982277
H       6.86547745     -5.27228714     16.86196751
H      -8.58752529     -3.48826430     22.84352897
H      -1.07583229     -6.25876831     12.77565647
H       7.22941409      1.84825043      8.19988975
H       6.59067963      2.28535313     12.56655467
H       8.04390457      8.42297490     11.71684035
H      -1.31875192     15.36844242     23.03307373
H       4.97481634      1.15597245     -0.24053522
H       9.91737024     -1.76032233     -3.53568803
H      -2.17531222     13.83067634     10.47077086
H      17.99000708      2.01122282     -6.14769313
H       1.34676549      2.36436688    -13.49666107
H      12.22867491     -8.24878606      5.73852586
H      28.74541069      0.64650505     -0.16659718
H      -2.51882269     13.85214370     12.45195106
   94

C      -8.21633352     -5.01133195     -5.12256279
C      -7.07909426     -5.53238711     -4.11358365
H      -9.04714382     -4.62951627     -5.85835321
C     -13.29291376     -1.82838591      2.57850312
H     -18.97607343     -7.28790439     -1.86874495
H      -6.53257129     -4.59668209     -3.53662084
C      10.06809945     -5.15112962      7.44761753
H      -7.54597795     -6.28261050     -3.26133725
H      -7.29812814     -5.75480078    -16.93484155
H      -7.29040651     -6.52422665    -16.80707258
C       7.51997728      1.59795022      9.16605617
H       6.34741046      1.87749151      8.91438698
C       9.93556462     -5.93139126      6.11771223
H       7.39139158      0.37030021      9.06136500
H      10.18884318     -5.05733158      5.33159313
H       0.14779508     -7.09601460      9.59683121
C       9.68977225     -7.55334283      5.95915592
H       8.68219373     -7.77849939      5.28141053
C       6.73639259      0.43923093     -3.50752284
H       9.21633200     -8.07630240      6.97176124
H       6.57288958      0.36263161     -4.72560581
H       7.05738691      1.61851108     -3.35411632
C       5.31813375     -0.00055620     -2.64977099
H       5.22909350     -1.15561859     -2.21857025
C       8.24063715     11.02549791    -16.67340642
H       4.38097321     -0.30698137     -3.39914751
H       7.59455612     11.83362698    -17.13267562
H      -0.83619645     13.17022860     11.81077362
C      12.37352552     -6.91832267    -13.67403084
H     -15.66743704      5.31295728      1.01924701
H     -19.35955774     -7.27624257     -1.18959961
C      -9.28819447      4.96011864    -10.52727386
H     -15.64771730      1.33310573      0.83403579
C      -0.81320447     -6.90541262     10.31884553
H     -10.38870060      4.89863284    -10.26938752
H      -2.84226561     -7.76980465     10.93466925
H      -1.35113198     -5.86901818     10.01775465
C       4.68783912      0.94728869     -1.42360170
H      -1.34970968      4.99043489      2.39363468
C      -2.14858722      4.98566027      3.33042090
H       3.72638241      1.68450420     -1.37112200
H      -2.04781748      6.03982287      3.95844690
H      -1.90477981      4.03685622      4.07616361
H      -3.29305853      4.87782078      2.88952865
H      11.94402099     -5.83757072    -13.38177012
H      12.89617175     -7.08743275    -14.73993873
H      12.28040578     -7.82988708    -12.90053540
H       9.07004286      2.73671310     12.73265579
H       6.69429995      4.77516374     12.88293512
H      -1.80984841     -8.87637691     11.84238016
H       9.48792670      1.70519092     10.44935690
H      -8.76285785     -4.17035940     22.50175182
H       6.62837589      7.60860645     11.31751314
H      -2.35901388     13.45608938     23.90911584
H       9.10533488      6.31849526     13.39040074
H      10.09018395     -0.52461652     -5.07382463
H      -2.59279245     12.23635227     11.51680570
H      18.44864910      0.43106709     -4.85130861
H       1.40481345      1.59031962    -13.42984606
H      11.21712819     -9.20435984      4.62739503
H      28.91530974     -1.66823375      0.04537528
H       9.60963896      6.00787711     11.63218878
C       2.25686357     -2.02645047     16.74992431
C      -1.70845370     -7.72626834     11.42349733
C       8.16600847      3.02844439     11.94184973
C       7.76947203      4.61812782     12.32864461
C       8.35778102      2.16841521     10.50535583
C       7.73718755      7.42147688     11.76086789
C       8.57338374      6.08702394     12.29682534
C      -2.03852107     13.33260818     11.60078180
C      -1.83860327     14.41935717     23.51486814
C       9.77603115     -0.62929212     -3.88934598
C      18.47406379      0.93934184     -5.92805478
C      19.13406309      0.16168178     -7.08128858
C      28.83197745     -0.51321917     -0.06930050
C       8.25402839     -0.16329925     -3.54896763
C      11.05849925     -8.34702477      5.46271052
H      10.69468200     -0.00985742     -3.35995642
H      -6.20995120     -6.15778969     -4.71422564
H       3.12652426     -2.77789249     16.73028189
H      -8.63500022     -3.49796162     22.87585557
H      -1.43989979     -7.33494688     12.56074422
H       7.99760223      1.99283097      8.09689683
H       7.28788594      2.35594235     12.48456019
H       8.06804005      8.58271503     11.68400476
H      -1.31836746     15.38281542     23.12085593
H       5.01819483      1.11761251     -0.27162364
H       9.94281602     -1.79776953     -3.55917138
H      -2.19076167     13.95112236     10.54706043
H      18.01827724      2.01419582     -6.16333213
H       1.34497861      2.36475220    -13.50107810
H      12.20762141     -8.23626779      5.82113588
H      28.75811267      0.64450595     -0.16079004
H      -2.53425383     13.97291453     12.52831778
   94

C      -8.25317665     -5.06520648     -5.20634575
C      -7.11839121     -5.58630693     -4.19474267
H      -9.08123658     -4.68341584     -5.94512114
C     -13.28359242      0.60434795      2.77594855
H     -18.92453627     -7.23674442     -1.83634129
H      -6.56971701     -4.64911717     -3.62224536
C      10.04301615     -5.16021001      7.48291323
H      -7.59137797     -6.32649972     -3.33712450
H      -7.29827630     -5.75519435    -16.93483822
H      -7.29055246     -6.52459764    -16.80693395
C       7.22560145      0.99482674      9.66769127
H       6.07392365      1.32493411      9.38725183
C       9.94339985     -5.93345752      6.14645903
H       7.02237099     -0.22419480      9.73048198
H      10.18547749     -5.05030665      5.36729631
H       1.66755296     -7.22289639     10.82085045
C       9.70050208     -7.55426477      5.97695598
H       8.69187897     -7.77269116      5.29891187
C       6.77998438      0.41041388     -3.55401447
H       9.23008312     -8.08638317      6.98616319
H       6.61786223      0.34042425     -4.77271733
H       7.10507355      1.58796118     -3.39551090
C       5.36765110     -0.04201989     -2.69633671
H       5.29877482     -1.19689697     -2.26025454
C       8.24143688     11.02607174    -16.67410491
H       4.42626286     -0.34550599     -3.44197841
H       7.59532831     11.83418346    -17.13336773
H      -0.84096318     13.34723241     11.90516613
C      12.37377459     -6.91860262    -13.67409942
H     -13.85777042      1.54036670      2.40337248
H     -19.30619308     -7.22385394     -1.15620422
C      -9.29408132      4.96138907    -10.52993280
H     -14.26509265      0.61581865      2.15841168
C       0.81639466     -7.01860968     11.66808477
H     -10.39416847      4.90012117    -10.27015654
H      -1.40648325     -7.38634630     11.39271458
H       1.18520366     -6.03540057     12.26682305
C       4.74348742      0.90958929     -1.47127142
H      -1.04730973      5.78527872      1.71779364
C      -1.84331364      5.77205883      2.65611747
H       3.79312081      1.66123025     -1.42955924
H      -1.74053656      6.80066088      3.32296727
H      -1.54369279      4.79825672      3.34574472
H      -2.99746568      5.63787920      2.25201999
H      11.94431681     -5.83782676    -13.38186305
H      12.89640206     -7.08771079    -14.74001597
H      12.28062757     -7.83015187    -12.90059093
H       8.58439329      2.26996463     13.21225959
H       6.45273609      4.48139392     13.11761594
H      -1.13006803     -8.72592019     12.45025790
H       9.18775131      1.33013485     10.89862520
H      -8.71497826     -4.17123662     22.49040361
H       6.59831406      7.31797048     11.40129255
H      -2.35333993     13.45924429     23.99780347
H       8.97337872      5.90546578     13.46483944
H      10.13096643     -0.56384351     -5.09754470
H      -2.60470820     12.42466549     11.61198647
H      18.47585543      0.43496057     -4.86375336
H       1.40357407      1.59006647    -13.43728209
H      11.22348428     -9.19637289      4.63068999
H      28.92647269     -1.66976627      0.05220600
H       9.39391956      5.48197410     11.71098225
C      -3.04084043      0.22424478     10.00479351
C      -0.58813794     -7.63423417     12.28599584
C       7.72193612      2.56281535     12.37749773
C       7.51268753      4.22387468     12.57062065
C       8.01523335      1.66202748     10.98701895
C       7.68926674      7.06288914     11.85288026
C       8.38583353      5.65132920     12.40289223
C      -2.04222113     13.51653067     11.69545215
C      -1.83382646     14.42317286     23.60393687
C       9.81503556     -0.66675563     -3.91355541
C      18.50146561      0.94318310     -5.94052939
C      19.16144634      0.16573527     -7.09394430
C      28.84375294     -0.51452087     -0.06058602
C       8.29310295     -0.19899441     -3.58346055
C      11.06782459     -8.34359390      5.47122488
H      10.72425445     -0.04115927     -3.37555148
H      -6.25062800     -6.21638006     -4.79238662
H      -2.54003288      0.61201513     10.96310343
H      -8.58608000     -3.49876664     22.86400224
H      -0.60165770     -7.45022855     13.50992080
H       7.71103706      1.24262660      8.55976369
H       6.80207376      1.95700017     12.93232819
H       8.09329715      8.20149449     11.76418533
H      -1.31431650     15.38712422     23.21012379
H       5.08544448      1.09239849     -0.32475644
H       9.97753488     -1.83524774     -3.58167012
H      -2.19432009     14.13228203     10.64025739
H      18.04569881      2.01806063     -6.17577104
H       1.34380785      2.36448951    -13.50867895
H      12.21718349     -8.23448975      5.82892966
H      28.76903477      0.64301151     -0.15381972
H      -2.53796256     14.15447180     12.62445264
   94

C      -8.26690821     -5.12130675     -5.32929491
C      -7.12907347     -5.64621157     -4.32331339
H      -9.09930571     -4.73375395     -6.06005233
C     -12.27635602     -0.02100534      3.78933411
H     -18.91557423     -7.21121532     -1.82962731
H      -6.57917399     -4.70916380     -3.75181713
C      10.03745942     -5.14391562      7.47953389
H      -7.60145732     -6.38726477     -3.46614942
H      -7.29840077     -5.75499151    -16.93526650
H      -7.29067690     -6.52440670    -16.80743316
C       6.80391210      0.94450180      9.71865820
H       5.62219014      1.24137968      9.54214324
C       9.95064564     -5.92477609      6.14631327
H       6.64461408     -0.28090562      9.78944527
H      10.17903228     -5.03895592      5.36600164
H       1.90400173     -6.36788820     10.87034393
C       9.70957850     -7.54585599      5.97512333
H       8.70073969     -7.76089440      5.29639239
C       6.80698371      0.38320937     -3.57722432
H       9.23812757     -8.08041687      6.98264495
H       6.64143163      0.32205062     -4.79619677
H       7.13470468      1.55932819     -3.41314547
C       5.40077809     -0.07563019     -2.71426781
H       5.35416168     -1.23204537     -2.27796097
C       8.24153713     11.02631170    -16.67384090
H       4.45408260     -0.37485774     -3.45559541
H       7.59544203     11.83442222    -17.13312454
H      -0.85202344     13.41278311     11.98516258
C      12.37379033     -6.91851929    -13.67404228
H     -12.95648196      0.81858497      3.37110647
H     -19.29692257     -7.19726969     -1.14934239
C      -9.29581111      4.96121631    -10.52523923
H     -13.26053902      0.07394213      3.18642461
C       1.00885310     -6.23371834     11.68161310
H     -10.39574052      4.89967712    -10.26485218
H      -1.09630523     -7.08108877     11.49789808
H       1.10979668     -5.10154383     12.09311758
C       4.77927116      0.87494381     -1.48731966
H      -0.64953997      5.99071608      1.83802798
C      -1.43955113      5.98998403      2.78185020
H       3.82939014      1.62716337     -1.44431806
H      -1.35095521      7.03526557      3.42538399
H      -1.13893618      5.04910814      3.51582609
H      -2.58653048      5.85946807      2.35573834
H      11.94433470     -5.83774586    -13.38179254
H      12.89640760     -7.08762851    -14.73996392
H      12.28065540     -7.83007695    -12.90054188
H       8.40176535      2.19214805     13.15374041
H       6.29367679      4.46311079     13.05960657
H      -0.52443132     -8.30297573     12.57622158
H       8.88864272      1.29186720     10.77452614
H      -8.70697336     -4.16768918     22.48466858
H       6.52938639      7.27849551     11.37829836
H      -2.35160627     13.46231797     24.08079503
H       8.87659355      5.81527774     13.44128603
H      10.15315425     -0.59808875     -5.11892879
H      -2.61069636     12.48388380     11.69176646
H      18.50306356      0.43877894     -4.87780278
H       1.40155360      1.59069592    -13.44082240
H      11.22904051     -9.19076190      4.62692395
H      28.93814040     -1.67144253      0.05884585
H       9.28646043      5.38688166     11.68530773
C      -4.94814006     -1.02108537      8.43155151
C      -0.20200987     -7.13913901     12.34817624
C       7.51853074      2.51477502     12.35316327
C       7.36419402      4.18083022     12.54561073
C       7.72521576      1.62396776     10.94279150
C       7.61551461      7.00524727     11.83193685
C       8.28341284      5.57834442     12.37875001
C      -2.05383285     13.57881645     11.77524478
C      -1.83222834     14.42654984     23.68749419
C       9.83838841     -0.69977049     -3.93460088
C      18.52876666      0.94699058     -5.95458481
C      19.18888861      0.16969864     -7.10802969
C      28.85613460     -0.51596631     -0.05210776
C       8.31729802     -0.23058083     -3.60755428
C      11.07491093     -8.33795912      5.46791706
H      10.74102899     -0.06921693     -3.39134738
H      -6.26210638     -6.27601268     -4.92231208
H      -4.35348966     -0.48013583      9.25728246
H      -8.57816240     -3.49482141     22.85757541
H      -0.20563101     -6.90197948     13.56163835
H       7.19544954      1.20215998      8.57643332
H       6.60230795      1.93668245     12.94342410
H       8.03667841      8.13819828     11.75519324
H      -1.31285344     15.39080904     23.29425639
H       5.12206771      1.05068835     -0.33994736
H       9.99901312     -1.86867776     -3.60313550
H      -2.20602593     14.19731724     10.72154627
H      18.07293780      2.02183590     -6.18985778
H       1.34174320      2.36512362    -13.51212990
H      12.22369605     -8.23246815      5.82840088
H      28.78065126      0.64137085     -0.14715444
H      -2.54951736     14.21864473     12.70310223
   94

C      -8.27526103     -5.17133747     -5.43383367
C      -7.13640882     -5.69666315     -4.42930407
H      -9.10899045     -4.78403833     -6.16313892
C     -11.99705724     -0.26840561      4.35549990
H     -18.91034621     -7.19873127     -1.82515678
H      -6.58789841     -4.75963069     -3.85645763
C      10.03499637     -5.13888342      7.47672790
H      -7.60904747     -6.43858273     -3.57302833
H      -7.29841994     -5.75470495    -16.93491224
H      -7.29069714     -6.52413074    -16.80714267
C       6.74640358      0.94928809      9.72116955
H       5.56316106      1.24962871      9.55911241
C       9.95455195     -5.92337911      6.14522934
H       6.59055931     -0.27677008      9.79014448
H      10.17443825     -5.03655802      5.36365206
H       1.74452974     -5.91108036     10.81311049
C       9.71416075     -7.54471857      5.97436871
H       8.70473460     -7.75450663      5.29499062
C       6.83032402      0.35433312     -3.60126515
H       9.23995527     -8.07942340      6.98059610
H       6.66215739      0.30196582     -4.82059672
H       7.16016711      1.52920070     -3.43182519
C       5.42896215     -0.11014538     -2.73432016
H       5.40454586     -1.26733055     -2.29677933
C       8.24154369     11.02648542    -16.67353745
H       4.47795260     -0.40649140     -3.47204138
H       7.59546901     11.83459984    -17.13284262
H      -0.86805090     13.51102540     12.06362568
C      12.37362984     -6.91843962    -13.67388019
H     -11.61546825      0.85639031      4.64365093
H     -19.29149074     -7.18408914     -1.14477412
C      -9.29621931      4.96037450    -10.52015493
H     -12.42752335     -1.37006407      4.04443994
C       0.75334420     -5.78735390     11.50023961
H     -10.39611194      4.89874668    -10.25963962
H      -1.30557611     -6.77886267     11.44839150
H       0.61344895     -4.59596228     11.65003387
C       4.80626791      0.84016755     -1.50774682
H      -0.39977675      6.14719605      1.86507955
C      -1.19901170      6.14829963      2.80144933
H       3.85468881      1.59026229     -1.46353369
H      -1.10147430      7.20002006      3.43382951
H      -0.94263196      5.20322837      3.54740417
H      -2.34308086      6.03814355      2.36058466
H      11.94415452     -5.83767585    -13.38162128
H      12.89625899     -7.08754557    -14.73979705
H      12.28049826     -7.83000399    -12.90038658
H       8.37297980      2.17615740     13.14974533
H       6.26738958      4.45784274     13.04139342
H      -0.56838653     -7.98843382     12.43871805
H       8.85190854      1.29821598     10.75038507
H      -8.70325234     -4.16548335     22.47882238
H       6.51974022      7.27107449     11.36874359
H      -2.35037752     13.46851947     24.16668243
H       8.86154863      5.79864438     13.43408487
H      10.17310219     -0.63251177     -5.14116021
H      -2.62546052     12.57990991     11.76955244
H      18.53036190      0.44247690     -4.89234665
H       1.39905549      1.59103270    -13.44350250
H      11.23161520     -9.18935259      4.62263252
H      28.95003081     -1.67319700      0.06533072
H       9.26874530      5.37103170     11.67602145
C      -6.13884222     -1.69164144      7.85100145
C      -0.33735791     -6.80379662     12.21313651
C       7.49180819      2.50567078     12.34962803
C       7.34227264      4.17230302     12.53839488
C       7.68845144      1.62298950     10.93299319
C       7.60388892      6.99494156     11.82560421
C       8.26754183      5.56553938     12.37128332
C      -2.07006685     13.67560778     11.85350950
C      -1.83102182     14.43283924     23.77356847
C       9.85912587     -0.73280310     -3.95654916
C      18.55612267      0.95069671     -5.96912474
C      19.21638698      0.17352763     -7.12257169
C      28.86876671     -0.51749250     -0.04380354
C       8.33850436     -0.26282560     -3.63249113
C      11.07819180     -8.33917931      5.46664628
H      10.75522046     -0.09725166     -3.40825564
H      -6.26944222     -6.32584788     -5.02893110
H      -5.33461621     -1.35103809      8.60095530
H      -8.57464214     -3.49258849     22.85174742
H      -0.24199959     -6.58657163     13.42506307
H       7.12637298      1.20343534      8.57420849
H       6.57754129      1.92896063     12.94448917
H       8.02734659      8.12729183     11.75348083
H      -1.31166714     15.39718664     23.38052064
H       5.14969259      1.01123298     -0.35982296
H      10.01830705     -1.90208550     -3.62545992
H      -2.22217224     14.29459514     10.80004085
H      18.10023114      2.02550789     -6.20442881
H       1.33923878      2.36546191    -13.51478647
H      12.22687186     -8.23631521      5.82836293
H      28.79254501      0.63964759     -0.14067472
H      -2.56570231     14.31596726     12.78106920
   94

C      -8.28641198     -5.21853503     -5.51129554
C      -7.15061863     -5.74068368     -4.50155146
H      -9.11524698     -4.83686190     -6.24907467
C      -9.80859784     -1.13990614      5.99666389
H     -18.89185999     -7.18329685     -1.80818867
H      -6.60535281     -4.80292263     -3.92672986
C      10.03479860     -5.13379435      7.47149902
H      -7.62554618     -6.48004941     -3.64428071
H      -7.29857073     -5.75426489    -16.93041859
H      -7.29085954     -6.52365889    -16.80245992
C       6.72453409      0.95769595      9.72550155
H       5.54242025      1.27080984      9.57818184
C       9.95931910     -5.92312916      6.14250635
H       6.56936687     -0.26856639      9.79213555
H      10.16643707     -5.03477619      5.35927846
H       1.55471582     -5.76579775     10.80100652
C       9.72243830     -7.54509354      5.97126738
H       8.71168449     -7.74507844      5.29122318
C       6.85020902      0.32707269     -3.62709585
H       9.24453407     -8.08142739      6.97498706
H       6.67918489      0.28919195     -4.84720518
H       7.18408322      1.49986463     -3.44944290
C       5.45550362     -0.14650936     -2.75624760
H       5.47125157     -1.30369150     -2.31560005
C       8.24122760     11.02644941    -16.67267276
H       4.49657668     -0.43473628     -3.48844473
H       7.59522090     11.83457643    -17.13205111
H      -0.88872725     13.61793246     12.14185689
C      12.37234461     -6.91729667    -13.67192055
H     -10.77510614     -0.82944631      5.44088593
H     -19.27118577     -7.16726916     -1.12682601
C      -9.29621238      4.95889644    -10.51509883
H     -10.79913078     -1.00711739      5.41303261
C       0.51886375     -5.59279049     11.40380652
H     -10.39618508      4.89733540    -10.25491754
H      -1.56612923     -6.59940550     11.41111989
H       0.38978094     -4.38882498     11.39489113
C       4.83128195      0.80777199     -1.53369122
H      -0.15263502      6.40628954      1.76825191
C      -0.95341518      6.40430528      2.70359553
H       3.87922307      1.55743617     -1.49094938
H      -0.85329757      7.45853384      3.33184666
H      -0.70945243      5.45649540      3.45076342
H      -2.09827403      6.29590465      2.26351763
H      11.94284700     -5.83658463    -13.37948360
H      12.89496904     -7.08642857    -14.73783995
H      12.27921780     -7.82887681    -12.89843808
H       8.35148854      2.16008375     13.16104838
H       6.24772417      4.45068484     13.01994331
H      -0.72621874     -7.84438439     12.27994258
H       8.84601084      1.31789655     10.73503530
H      -8.70101793     -4.16259184     22.46177845
H       6.51496950      7.26389535     11.35633315
H      -2.34996224     13.47531322     24.25258876
H       8.85215060      5.78360563     13.42513062
H      10.18379770     -0.66805310     -5.16251434
H      -2.64577676     12.68558867     11.84774575
H      18.55725102      0.44639989     -4.90682997
H       1.39558771      1.59097033    -13.44444704
H      11.23595082     -9.19036281      4.61477468
H      28.96170537     -1.67491366      0.07171208
H       9.25544992      5.35760710     11.66312437
C      -8.48942718     -1.43853912      6.76470153
C      -0.55223310     -6.64061067     12.11186568
C       7.48001832      2.49660037     12.35291955
C       7.32836405      4.16387841     12.53028104
C       7.68002019      1.62772229     10.92875280
C       7.59684941      6.98565504     11.81753057
C       8.25730261      5.55426653     12.36217889
C      -2.09086188     13.78156446     11.93157630
C      -1.83061114     14.43964326     23.85948924
C       9.87353138     -0.76632583     -3.97682155
C      18.58308924      0.95460257     -5.98361498
C      19.24340179      0.17749687     -7.13707198
C      28.88118573     -0.51898012     -0.03560767
C       8.35411546     -0.29672972     -3.65430810
C      11.08429152     -8.34372683      5.46305994
H      10.75696117     -0.12059497     -3.41986561
H      -6.28296660     -6.37016902     -5.09993142
H      -7.50515124     -1.66124492      7.33775761
H      -8.57271924     -3.49036836     22.83601772
H      -0.41005966     -6.49393606     13.32832941
H       7.09422898      1.20487213      8.57369600
H       6.56850340      1.91687225     12.94941501
H       8.02165889      8.11779392     11.75079531
H      -1.31126005     15.40397331     23.46638973
H       5.17771685      0.97443488     -0.38601056
H      10.03073710     -1.93649337     -3.64742100
H      -2.24273094     14.40017674     10.87783266
H      18.12735632      2.02946124     -6.21899519
H       1.33584196      2.36539214    -13.51587047
H      12.23280805     -8.24494924      5.82662927
H      28.80418247      0.63796056     -0.13430945
H      -2.58621258     14.42255999     12.85886993
