   94

C      10.83245065     -8.23315317     -8.99982229
C      -0.34717269    -10.13614959     -9.68150274
H      10.93693609     -7.35238228     -8.13685098
C      -0.07832345     -1.03273909      8.00358774
H     -18.89185999     -7.18329685     -1.80818867
H      -0.58225112     -9.34809605     -8.85815906
C       1.02270072     -1.10355915      9.21943039
H      10.00579181     -8.94439439     -8.41144285
H      -8.53156068     -6.31648995    -17.82625171
H      -8.52384950     -7.08588394    -17.69829304
C       7.87071756      0.43752662     -2.68725843
H      16.07331130      6.48611777     13.52058838
C       8.29117814     -9.82211303      5.43474157
H       8.47928446     12.79773611      3.37405756
H       8.62847090     -9.29737539      4.43799717
H       2.50425826    -10.90118635     17.33758515
C       6.51577977    -10.62316731      7.51941115
H       5.40081265    -10.74442804      7.07146645
C       7.88372291     13.04825133      5.80805576
H       6.25082675    -10.52687121      8.69523873
H       9.42377285     14.02602426      7.09001106
H       6.81205148     13.60015209      5.59217034
C       8.49001049     12.22808746      4.46866491
H      11.97994602      1.57265964     -3.22128103
C      10.82655087      1.34743074     -3.10760455
H       5.69323055      1.07591978     -2.28574717
H       7.96138907     11.12981433      4.26332908
H      -2.15370095     10.56603547     11.75857275
C      12.21196291     -8.99329696     -9.66813485
H      -1.11201307     -0.64174162      8.50634569
H     -19.27118577     -7.16726916     -1.12682601
C       4.06630181     -1.99568448     -1.86729527
H       0.79377819     -2.07925600      9.90835202
C       1.47819556    -10.71751698     17.93036417
H       3.25147752     -1.89738586     -0.99750196
H     -10.96213585    -12.27297239     15.66815274
H       1.07348473     -9.60107589     18.09678087
C      -5.29669487      0.64474710     -7.87005184
H       2.58651784     11.60200449     -2.65048656
C       0.12691748     10.84443863     -2.63187327
H      -5.80086224      1.55132525     -8.39741940
H      -0.28501492     11.40817816     -1.61618941
H      -0.53778423      9.80837450     -2.60774986
H      -0.35371995     11.43220807     -3.60300589
H      12.47723400     -8.67649349    -10.83849766
H      12.04775419    -10.16499085    -10.04522635
H      14.01498174     -9.61953541     -7.86581500
H       3.45449388      1.29533483      7.62615516
H       1.54733526      0.94979467     10.16385775
H       0.85684368    -11.65028870     18.35672650
H       9.10001009      1.27962660     -4.24841145
H      -9.42675544     -2.95204824     23.99740376
H       6.89994419     13.30070481      9.39199329
H       8.82991305     12.08883432      7.60794456
H       3.20800931     -0.51850027     12.07503450
H      23.68739798      6.18932909     -2.70616817
H      -4.18749900      9.48691107     11.41813640
H      24.37757154      6.33770482     -2.37443862
H       0.58212535     -2.01269097      5.75877505
H       8.21021194    -11.84221698      6.42104852
H      10.08034634     -7.58057240     -9.73622892
H       4.52055929     -0.42807316     10.86015307
C      -0.17875493     -1.24809192      6.35361021
C     -10.36015996    -12.21606713     16.66242234
C       2.93299141      0.67566873      8.47769342
C       2.17609927     -0.01118153      9.72195233
C       9.21983821      1.26183020     -3.03327118
C       7.93197447     13.78456701      8.90481240
C       3.31508570     -0.34464193     10.88368010
C      -3.17059999     10.02647329     11.58835457
C       8.48831328     13.25657516      7.36831562
C       2.62407438      9.39448646     -2.87556375
C       5.34043750     -1.09432019     -2.12442965
C       6.35288061      0.08904532     -2.37233050
C      13.62347171     -8.93110182     -8.78142099
C       1.77163295     10.71243021     -2.70464988
C       7.98463810    -10.68292494      6.76122959
H       9.68342937     11.91617828      4.39844035
H      -0.11460577    -10.92429735    -10.50546925
H      -1.24095050     -1.72509947      5.94394566
H      -9.29845674     -2.27982476     24.37164303
H      -9.75818407    -12.15916188     17.65669195
H      15.89747689      7.23957088     13.42164096
H       9.14226536      2.04975794     -2.10328467
H       8.69563847     13.65205620      9.87824995
H       7.62371442     14.96752467      9.10821131
H      -4.79252749     -0.26183104     -7.34268428
H       3.22304791      8.40482354     -3.02924763
H      -7.52913094     21.04430955      9.80462270
H       3.68355790     -2.90906865     -2.53276655
H      -0.01928414     -0.20361857      5.71521954
H       8.92462333    -10.36747711      7.48940266
H      14.56188892     -8.16815421     -8.83702415
H      -7.66234247     21.05292874     10.57311499
   94

C      10.83237823     -8.23469299     -9.00079033
C      -0.34739674    -10.13640680     -9.68172902
H      10.93699063     -7.35329588     -8.13848252
C      -0.09135896     -1.02815319      8.02744481
H     -18.89188051     -7.18330256     -1.80818647
H      -0.58248032     -9.34837183     -8.85837071
C       1.01371326     -1.09963423      9.23932409
H      10.00615877     -8.94583342     -8.41167665
H      -8.53159361     -6.31650811    -17.82629214
H      -8.52388122     -7.08590168    -17.69833098
C       7.72724464      0.36329686     -2.68028414
H      16.07330646      6.48613998     13.52069248
C       8.29567559     -9.83346639      5.43396238
H       8.47528598     12.80104947      3.37542628
H       8.62778196     -9.30356672      4.43832260
H       2.50426174    -10.90123527     17.33762625
C       6.52232319    -10.63290049      7.51638405
H       5.40758002    -10.75049542      7.06695794
C       7.88526418     13.04768259      5.81048902
H       6.25578109    -10.53310167      8.69151445
H       9.43124821     14.02162975      7.09270166
H       6.81296817     13.59911654      5.59676146
C       8.48806004     12.22900867      4.46877990
H      12.48644026      1.71993207     -3.41014890
C      11.34756760      1.46826500     -3.26757068
H       5.55115254      1.01549911     -2.28607194
H       7.95831142     11.13130539      4.26337504
H      -2.15967944     10.57939354     11.76644273
C      12.21219377     -8.99443466     -9.66890236
H      -1.12580359     -0.63954410      8.53087343
H     -19.27120501     -7.16727424     -1.12682312
C       3.92693116     -2.06128488     -1.86990195
H       0.79465035     -2.08367715      9.91930377
C       1.47819952    -10.71756793     17.93040658
H       3.11686414     -1.95576974     -0.99667602
H     -10.96215084    -12.27298746     15.66816796
H       1.07349057     -9.60112822     18.09683656
C      -5.31445845      0.64711569     -7.87937976
H       2.58110349     11.61534240     -2.65042783
C       0.12147690     10.85757442     -2.63230047
H      -5.81856335      1.55373717     -8.40673072
H      -0.29038701     11.42128448     -1.61657801
H      -0.54303018      9.82139002     -2.60801902
H      -0.35938163     11.44531491     -3.60334040
H      12.47763214     -8.67717909    -10.83910386
H      12.04798051    -10.16605276    -10.04621837
H      14.01519547     -9.62138392     -7.86675040
H       3.44829681      1.29275250      7.64576871
H       1.53786072      0.95490414     10.18661085
H       0.85684365    -11.65034040     18.35676129
H       8.93720372      1.23460732     -4.25875313
H      -9.42677013     -2.95205100     23.99742668
H       6.89726824     13.29996067      9.38728996
H       8.83987477     12.08920106      7.60999967
H       3.19785595     -0.51994730     12.09542648
H      23.99136239      6.31480997     -2.65214139
H      -4.19348431      9.50027820     11.42601841
H      24.68153516      6.46319910     -2.32041613
H       0.57737219     -2.01341119      5.78965136
H       8.22033892    -11.85477678      6.42144838
H      10.07958040     -7.58308783     -9.73735327
H       4.50923482     -0.43373908     10.87852437
C      -0.18737412     -1.24750841      6.37785517
C     -10.36017480    -12.21608240     16.66243750
C       2.92339390      0.67899746      8.49944133
C       2.16546029     -0.00655668      9.74372242
C       9.06702984      1.19412219     -3.04638131
C       7.93022139     13.78493064      8.90318335
C       3.30425148     -0.34426972     10.90430378
C      -3.17658178     10.03983549     11.59623118
C       8.49286809     13.25524402      7.36962800
C       2.61856185      9.40793756     -2.87662244
C       5.20078241     -1.16134731     -2.12628564
C       6.20742425      0.02627360     -2.36998833
C      13.62363553     -8.93257939     -8.78205618
C       1.76619460     10.72583395     -2.70522610
C       7.99203978    -10.69548245      6.76019913
H       9.68093270     11.91596530      4.39525674
H      -0.11467580    -10.92453574    -10.50566856
H      -1.24733342     -1.72664669      5.96507873
H      -9.29847093     -2.27982721     24.37166524
H      -9.75819852    -12.15917706     17.65670689
H      15.89747149      7.23959269     13.42174295
H       9.01291976      1.99434726     -2.12684445
H       8.68945387     13.65509161      9.88033176
H       7.62046863     14.96816761      9.10274303
H      -4.81038247     -0.25952778     -7.35203910
H       3.21734239      8.41800672     -3.02924036
H      -7.53533398     21.05979302      9.80259356
H       3.55087512     -2.97312066     -2.54108460
H      -0.02806593     -0.20471382      5.73675564
H       8.93158768    -10.37899317      7.48844208
H      14.56214956     -8.16973086     -8.83741551
H      -7.66854676     21.06841366     10.57108562
   94

C      10.83225516     -8.23589680     -9.00150462
C      -0.34760322    -10.13665506     -9.68195996
H      10.93700108     -7.35386921     -8.13986222
C      -0.10435367     -1.02360860      8.05127226
H     -18.89190490     -7.18330901     -1.80818440
H      -0.58269713     -9.34863838     -8.85858904
C       1.00473636     -1.09572945      9.25920577
H      10.00646255     -8.94692404     -8.41165816
H      -8.53162271     -6.31652437    -17.82633100
H      -8.52390946     -7.08591757    -17.69836766
C       7.57322035      0.29445679     -2.67883752
H      16.07329180      6.48614687     13.52075282
C       8.30017838     -9.84474707      5.43311240
H       8.47131617     12.80421654      3.37675727
H       8.62706149     -9.30965706      4.43863283
H       2.50426686    -10.90128158     17.33766229
C       6.52887650    -10.64258838      7.51331250
H       5.41436884    -10.75652344      7.06241077
C       7.88682124     13.04701380      5.81285609
H       6.26076873    -10.53930090      8.68774024
H       9.43868497     14.01717423      7.09532957
H       6.81390776     13.59798106      5.60127131
C       8.48612017     12.22980006      4.46885646
H      12.98597374      1.86056186     -3.59736410
C      11.84744716      1.62628955     -3.46249860
H       5.40371213      0.95852725     -2.28761850
H       7.95525282     11.13266267      4.26338511
H      -2.16564982     10.59274597     11.77430383
C      12.21229570     -8.99533445     -9.66947890
H      -1.13954833     -0.63738028      8.55536920
H     -19.27122792     -7.16728001     -1.12682024
C       3.78532194     -2.12782109     -1.87200318
H       0.79554828     -2.08795161      9.93013375
C       1.47820559    -10.71761665     17.93044488
H       2.98008699     -2.01540023     -0.99534413
H     -10.96216651    -12.27300312     15.66818435
H       1.07349836     -9.60117838     18.09688828
C      -5.33221274      0.64949666     -7.88872339
H       2.57586472     11.62838254     -2.65039284
C       0.11621674     10.87054359     -2.63274624
H      -5.83625196      1.55616502     -8.41605417
H      -0.29557554     11.43424711     -1.61699486
H      -0.54813219      9.83426197     -2.60830415
H      -0.36485681     11.45827325     -3.60368716
H      12.47789909     -8.67764958    -10.83952628
H      12.04804762    -10.16687591    -10.04701283
H      14.01530542     -9.62305328     -7.86753767
H       3.44211286      1.29011005      7.66533350
H       1.52842388      0.96000688     10.20931101
H       0.85684619    -11.65038989     18.35679261
H       8.81801693      1.17132117     -4.25627700
H      -9.42678467     -2.95205368     23.99744973
H       6.89463238     13.29916242      9.38253091
H       8.84979103     12.08952458      7.61200741
H       3.18770400     -0.52139890     12.11576582
H      24.29535928      6.44032430     -2.59808291
H      -4.19946292      9.51364139     11.43389448
H      24.98553286      6.58872247     -2.26636330
H       0.57261371     -2.01409247      5.82048844
H       8.23046643    -11.86724945      6.42177959
H      10.07876477     -7.58525921     -9.73821727
H       4.49789460     -0.43939426     10.89684590
C      -0.19595896     -1.24693514      6.40207696
C     -10.36019009    -12.21609812     16.66245368
C       2.91382406      0.68231986      8.52113142
C       2.15485004     -0.00194344      9.76543917
C       8.91063006      1.11587536     -3.04426641
C       7.92849016     13.78523573      8.90147724
C       3.29343431     -0.34390061     10.92487886
C      -3.18255618     10.05319290     11.60410044
C       8.49740756     13.25384892      7.37088017
C       2.61323754      9.42107328     -2.87769790
C       5.05718376     -1.22726073     -2.12815829
C       6.05476689     -0.03393600     -2.36992238
C      13.62368985     -8.93386024     -8.78252676
C       1.76093310     10.73893632     -2.70582969
C       7.99943700    -10.70796066      6.75909962
H       9.67843829     11.91562630      4.39204856
H      -0.11472753    -10.92476612    -10.50587116
H      -1.25367367     -1.72820672      5.98621287
H      -9.29848494     -2.27982956     24.37168752
H      -9.75821320    -12.15919258     17.65672271
H      15.89745690      7.23959954     13.42180281
H       8.90357233      1.92754422     -2.13745774
H       8.68328569     13.65806659      9.88229948
H       7.61727316     14.96874525      9.09720084
H      -4.82823664     -0.25721979     -7.36141531
H       3.21190802      8.43090939     -3.02919700
H      -7.54153445     21.07527373      9.80056264
H       3.41651080     -3.03811944     -2.54904776
H      -0.03681735     -0.20582136      5.75827760
H       8.93854946    -10.39043584      7.48741289
H      14.56231009     -8.17112374     -8.83764814
H      -7.67474865     21.08389607     10.56905443
   94

C      10.83211226     -8.23671288     -9.00197116
C      -0.34779257    -10.13689621     -9.68219318
H      10.93700305     -7.35404271     -8.14100496
C      -0.11729732     -1.01911252      8.07504580
H     -18.89193304     -7.18331635     -1.80818233
H      -0.58290117     -9.34889811     -8.85881081
C       0.99577322     -1.09185006      9.27905931
H      10.00673477     -8.94761288     -8.41139079
H      -8.53164924     -6.31653968    -17.82636924
H      -8.52393534     -7.08593254    -17.69840389
C       7.41686978      0.22662273     -2.68164358
H      16.07326884      6.48613990     13.52076796
C       8.30468444     -9.85596813      5.43220148
H       8.46739354     12.80724453      3.37804595
H       8.62631226     -9.31567075      4.43893467
H       2.50427343    -10.90132520     17.33769327
C       6.53543557    -10.65223682      7.51020185
H       5.42117542    -10.76251537      7.05782852
C       7.88840487     13.04624872      5.81515208
H       6.26578428    -10.54547263      8.68392111
H       9.44609015     14.01265983      7.09789393
H       6.81488054     13.59674869      5.60569501
C       8.48420868     12.23046890      4.46889027
H      13.48600995      2.00129348     -3.78663096
C      12.34928115      1.77590382     -3.66118511
H       5.25441953      0.90112391     -2.28966566
H       7.95222936     11.13389435      4.26335426
H      -2.17161269     10.60609283     11.78215703
C      12.21229724     -8.99595370     -9.66986353
H      -1.15323840     -0.63525496      8.57980511
H     -19.27125435     -7.16728659     -1.12681724
C       3.64272185     -2.19498027     -1.87374986
H       0.79646528     -2.09207790      9.94083412
C       1.47821355    -10.71766300     17.93047900
H       2.84235691     -2.07572615     -0.99368539
H     -10.96218259    -12.27301918     15.66820160
H       1.07350787     -9.60122623     18.09693581
C      -5.34996958      0.65188271     -7.89807829
H       2.57074187     11.64123363     -2.65037255
C       0.11107121     10.88340531     -2.63320217
H      -5.85393985      1.55860097     -8.42538658
H      -0.30064562     11.44711710     -1.61742755
H      -0.55314325      9.84704140     -2.60859741
H      -0.37021203     11.47113588     -3.60404049
H      12.47806478     -8.67786536    -10.83976426
H      12.04798402    -10.16741890    -10.04760428
H      14.01533890     -9.62449041     -7.86817499
H       3.43593887      1.28741132      7.68484913
H       1.51901966      0.96509762     10.23195150
H       0.85685104    -11.65043701     18.35682037
H       8.71265817      1.10849574     -4.24967165
H      -9.42679897     -2.95205628     23.99747271
H       6.89204050     13.29831099      9.37771316
H       8.85966773     12.08980637      7.61396456
H       3.17754698     -0.52285556     12.13605041
H      24.59939512      6.56587611     -2.54399685
H      -4.20543518      9.52700033     11.44176529
H      25.28957087      6.71427792     -2.21228332
H       0.56786930     -2.01473510      5.85125427
H       8.24059072    -11.87964689      6.42205223
H      10.07793164     -7.58703774     -9.73883071
H       4.48653465     -0.44503750     10.91511896
C      -0.20449104     -1.24637560      6.42624893
C     -10.36020558    -12.21611412     16.66247060
C       2.90428216      0.68563402      8.54276046
C       2.14426646      0.00265446      9.78709695
C       8.75060606      1.04290397     -3.03860672
C       7.92678516     13.78548331      8.89969168
C       3.28262962     -0.34353662     10.94540309
C      -3.18852366     10.06654540     11.61196321
C       8.50193795     13.25239193      7.37206962
C       2.60802608      9.43401083     -2.87878020
C       4.91248456     -1.29353422     -2.12989601
C       5.90062076     -0.09429276     -2.37073716
C      13.62366098     -8.93489026     -8.78282955
C       1.75578380     10.75185176     -2.70644864
C       8.00682758    -10.72037125      6.75794107
H       9.67596322     11.91516521      4.38881054
H      -0.11476141    -10.92498974    -10.50607533
H      -1.25995214     -1.72978268      6.00731828
H      -9.29849868     -2.27983182     24.37170970
H      -9.75822790    -12.15920828     17.65673915
H      15.89743450      7.23959279     13.42181865
H       8.79010987      1.86378871     -2.14533129
H       8.67713800     13.66098192      9.88415135
H       7.61413178     14.96925849      9.09158287
H      -4.84610012     -0.25491255     -7.37080670
H       3.20662730      8.44363044     -3.02912715
H      -7.54773262     21.09075210      9.79853036
H       3.28123890     -3.10368887     -2.55666738
H      -0.04552066     -0.20694449      5.77975831
H       8.94550638    -10.40181675      7.48632509
H      14.56237896     -8.17225514     -8.83769714
H      -7.68094838     21.09937629     10.56702186
   94

C      10.83198059     -8.23712216     -9.00220344
C      -0.34796865    -10.13713633     -9.68243082
H      10.93702490     -7.35379104     -8.14193031
C      -0.13018990     -1.01466941      8.09876409
H     -18.89196573     -7.18332480     -1.80818017
H      -0.58309781     -9.34915814     -8.85903773
C       0.98682419     -1.08800010      9.29888317
H      10.00700909     -8.94788487     -8.41088983
H      -8.53167440     -6.31655468    -17.82640804
H      -8.52396000     -7.08594723    -17.69844081
C       7.25883939      0.15627409     -2.68371434
H      16.07323962      6.48612010     13.52073768
C       8.30919383     -9.86713759      5.43123517
H       8.46352758     12.81014449      3.37929019
H       8.62553801     -9.32162349      4.43923159
H       2.50428138    -10.90136631     17.33771967
C       6.54199896    -10.66185062      7.50705634
H       5.42799841    -10.76847541      7.05321490
C       7.89002048     13.04539417      5.81737586
H       6.27082549    -10.55162041      8.68006117
H       9.45346724     14.00809162      7.10039712
H       6.81589108     13.59542520      5.61003235
C       8.48233487     12.23102560      4.46887910
H      14.00026376      2.14425345     -3.97838978
C      12.86730613      1.92152649     -3.85749878
H       5.10272114      0.84286468     -2.29094663
H       7.94925053     11.13501101      4.26327833
H      -2.17756842     10.61943462     11.79000311
C      12.21223557     -8.99626873     -9.67006152
H      -1.16687388     -0.63316921      8.60417741
H     -19.27128505     -7.16729420     -1.12681399
C       3.49867671     -2.26315935     -1.87493142
H       0.79739369     -2.09605507      9.95141061
C       1.47822330    -10.71770713     17.93050935
H       2.70331085     -2.13697146     -0.99146663
H     -10.96219922    -12.27303574     15.66821992
H       1.07351900     -9.60127190     18.09697958
C      -5.36774273      0.65427192     -7.90744605
H       2.56571506     11.65393384     -2.65036468
C       0.10601727     10.89618229     -2.63366519
H      -5.87163880      1.56104398     -8.43472980
H      -0.30562018     11.45991435     -1.61787163
H      -0.55808313      9.85974895     -2.60889566
H      -0.37547112     11.48392315     -3.60439817
H      12.47816820     -8.67780292    -10.83982251
H      12.04783563    -10.16765999    -10.04799545
H      14.01532943     -9.62564514     -7.86866061
H       3.42977043      1.28466255      7.70432473
H       1.50964306      0.97017328     10.25453479
H       0.85685810    -11.65048194     18.35684496
H       8.60119950      1.04700056     -4.24403260
H      -9.42681306     -2.95205880     23.99749572
H       6.88949443     13.29740882      9.37283749
H       8.86950763     12.09005042      7.61587025
H       3.16738057     -0.52431769     12.15628357
H      24.90348688      6.69147076     -2.48988325
H      -4.21140140      9.54035545     11.44963157
H      25.59366577      6.83986984     -2.15817505
H       0.56313687     -2.01534253      5.88194771
H       8.25071036    -11.89197673      6.42227269
H      10.07711181     -7.58841130     -9.73921258
H       4.47515213     -0.45066799     10.93334853
C      -0.21297265     -1.24583253      6.45037004
C     -10.36022139    -12.21613051     16.66248844
C       2.89476627      0.68893929      8.56433352
C       2.13370625      0.00723475      9.80869883
C       8.58305785      0.97608045     -3.03604080
C       7.92510853     13.78567636      8.89782811
C       3.27183409     -0.34317933     10.96587972
C      -3.19448457     10.07989345     11.61982023
C       8.50646226     13.25087775      7.37319699
C       2.60290315      9.44679278     -2.87986504
C       4.76630784     -1.36087982     -2.13102902
C       5.74431573     -0.15531112     -2.37066419
C      13.62358132     -8.93562242     -8.78296454
C       1.75072423     10.76462111     -2.70707890
C       8.01421097    -10.73272158      6.75672938
H       9.67351682     11.91459199      4.38553979
H      -0.11477993    -10.92521183    -10.50628351
H      -1.26617121     -1.73137684      6.02839325
H      -9.29851219     -2.27983398     24.37173186
H      -9.75824272    -12.15922425     17.65675638
H      15.89740623      7.23957344     13.42179010
H       8.67036961      1.80034183     -2.15343817
H       8.67101275     13.66384016      9.88588927
H       7.61104582     14.96971011      9.08589165
H      -4.86398852     -0.25260878     -7.38021453
H       3.20145996      8.45620505     -3.02903168
H      -7.55392862     21.10622840      9.79649687
H       3.14474665     -3.17012543     -2.56388650
H      -0.05417864     -0.20808481      5.80119852
H       8.95245789    -10.41314316      7.48518447
H      14.56236743     -8.17305039     -8.83753945
H      -7.68714606     21.11485460     10.56498805
   94

C      10.83188106     -8.23717585     -9.00224828
C      -0.34813215    -10.13737289     -9.68266895
H      10.93708353     -7.35316532     -8.14268564
C      -0.14302545     -1.01028429      8.12240829
H     -18.89200257     -7.18333426     -1.80817790
H      -0.58328540     -9.34941553     -8.85926552
C       0.97789059     -1.08418376      9.31866400
H      10.00731034     -8.94779653     -8.41020362
H      -8.53169834     -6.31656941    -17.82644727
H      -8.52398356     -7.08596166    -17.69847828
C       7.09968271      0.08362994     -2.68357819
H      16.07320777      6.48608914     13.52066363
C       8.31370258     -9.87826463      5.43022007
H       8.45972163     12.81294441      3.38049844
H       8.62473605     -9.32753208      4.43952730
H       2.50429043    -10.90140497     17.33774164
C       6.54856211    -10.67143443      7.50387985
H       5.43483350    -10.77440603      7.04857262
C       7.89166758     13.04446919      5.81953692
H       6.27588698    -10.55774739      8.67616408
H       9.46081828     14.00348249      7.10285027
H       6.81693763     13.59402751      5.61429401
C       8.48050277     12.23149611      4.46883035
H      14.52634216      2.28894079     -4.17187942
C      13.39799473      2.06703302     -4.05307650
H       4.94934715      0.78409524     -2.29145165
H       7.94631932     11.13603928      4.26316426
H      -2.18351780     10.63277145     11.79784254
C      12.21215499     -8.99630130     -9.67010213
H      -1.18044968     -0.63112542      8.62846435
H     -19.27131964     -7.16730272     -1.12681049
C       3.35362308     -2.33201339     -1.87563462
H       0.79832537     -2.09988187      9.96185839
C       1.47823452    -10.71774907     17.93053602
H       2.56343430     -2.19876616     -0.98874319
H     -10.96221626    -12.27305267     15.66823910
H       1.07353144     -9.60131543     18.09701958
C      -5.38552462      0.65666208     -7.91682073
H       2.56076642     11.66650266     -2.65036865
C       0.10103694     10.90888388     -2.63413378
H      -5.88934317      1.56349036     -8.44407869
H      -0.31051723     11.47264643     -1.61832476
H      -0.56296648      9.87239184     -2.60919733
H      -0.38065272     11.49664291     -3.60475912
H      12.47825341     -8.67747885    -10.83972878
H      12.04765924    -10.16762243    -10.04821571
H      14.01531784     -9.62650637     -7.86901454
H       3.42360260      1.28186753      7.72376040
H       1.50028827      0.97522964     10.27705582
H       0.85686704    -11.65052469     18.35686647
H       8.48155410      0.98485095     -4.23942579
H      -9.42682693     -2.95206125     23.99751866
H       6.88699388     13.29646310      9.36791234
H       8.87931165     12.09026799      7.61773118
H       3.15719749     -0.52578583     12.17646414
H      25.20761380      6.81709651     -2.43574441
H      -4.21736206      9.55370640     11.45749325
H      25.89779761      6.96548825     -2.10404325
H       0.55842708     -2.01591405      5.91254470
H       8.26082108    -11.90424769      6.42244799
H      10.07632534     -7.58943584     -9.73941256
H       4.46374206     -0.45628543     10.95153641
C      -0.22139352     -1.24530674      6.47441990
C     -10.36023741    -12.21614715     16.66250700
C       2.88527505      0.69223424      8.58584881
C       2.12316598      0.01179435      9.83024075
C       8.40909208      0.91386371     -3.03655390
C       7.92346016     13.78582330      8.89589635
C       3.26104208     -0.34283080     10.98630744
C      -3.20043953     10.09323693     11.62767171
C       8.51098221     13.24931872      7.37427152
C       2.59784845      9.45943828     -2.88095078
C       4.61909981     -1.42901338     -2.13162400
C       5.58631961     -0.21681043     -2.36962481
C      13.62349038     -8.93605107     -8.78295538
C       1.74573670     10.77726393     -2.70771870
C       8.02158389    -10.74502021      6.75547143
H       9.67110331     11.91393330      4.38224334
H      -0.11478488    -10.92543001    -10.50649201
H      -1.27232016     -1.73298916      6.04941468
H      -9.29852546     -2.27983605     24.37175392
H      -9.75825756    -12.15924037     17.65677422
H      15.89737563      7.23954311     13.42171871
H       8.54753404      1.73528886     -2.16184101
H       8.66491006     13.66664869      9.88752303
H       7.60801426     14.97010822      9.08013798
H      -4.88189132     -0.25030844     -7.38963176
H       3.19636687      8.46864201     -3.02891196
H      -7.56012268     21.12170287      9.79446230
H       3.00748211     -3.23708975     -2.57077322
H      -0.06278121     -0.20924244      5.82257851
H       8.95940083    -10.42442358      7.48399768
H      14.56229835     -8.17348166     -8.83718178
H      -7.69334192     21.13033120     10.56295314
   94

C      10.83182145     -8.23695367     -9.00216024
C      -0.34828240    -10.13760058     -9.68290174
H      10.93718152     -7.35224925     -8.14332210
C      -0.15579710     -1.00596180      8.14595679
H     -18.89204289     -7.18334452     -1.80817554
H      -0.58345982     -9.34966410     -8.85948806
C       0.96897480     -1.08040489      9.33838586
H      10.00765002     -8.94743228     -8.40938754
H      -8.53172091     -6.31658375    -17.82648646
H      -8.52400588     -7.08597573    -17.69851583
C       6.94020904      0.00984889     -2.68189613
H      16.07317710      6.48604920     13.52054951
C       8.31820580     -9.88935603      5.42916121
H       8.45597351     12.81567513      3.38168300
H       8.62390151     -9.33340924      4.43982429
H       2.50430028    -10.90144114     17.33775909
C       6.55512010    -10.68099125      7.50067479
H       5.44167609    -10.78030800      7.04390297
C       7.89334177     13.04349497      5.82164848
H       6.28096329    -10.56385557      8.67223215
H       9.46814348     13.99884665      7.10526662
H       6.81801456     13.59257471      5.61849438
C       8.47871119     12.23190874      4.46875489
H      15.05727129      2.43416775     -4.36622684
C      13.93380233      2.21268142     -4.24875287
H       4.79534815      0.72503445     -2.29147273
H       7.94343333     11.13700819      4.26302327
H      -2.18946156     10.64610315     11.80567560
C      12.21209023     -8.99609505     -9.67002263
H      -1.19395953     -0.62912594      8.65264237
H     -19.27135747     -7.16731198     -1.12680677
C       3.20816298     -2.40110031     -1.87600552
H       0.79925335     -2.10355693      9.97217087
C       1.47824689    -10.71778875     17.93055885
H       2.42332209     -2.26071331     -0.98565215
H     -10.96223345    -12.27306972     15.66825876
H       1.07354487     -9.60135672     18.09705559
C      -5.40330309      0.65905073     -7.92619501
H       2.55587871     11.67895393     -2.65038336
C       0.09611391     10.92151545     -2.63460649
H      -5.90704356      1.56593571     -8.45342677
H      -0.31535308     11.48531735     -1.61878491
H      -0.56780630      9.88497335     -2.60950109
H      -0.38577351     11.50929945     -3.60512221
H      12.47835364     -8.67692979    -10.83951867
H      12.04750092    -10.16735055    -10.04830406
H      14.01533833     -9.62709297     -7.86926843
H       3.41743182      1.27902828      7.74315157
H       1.49095101      0.98026269     10.29950679
H       0.85687758    -11.65056519     18.35688477
H       8.35812279      0.92100184     -4.23481183
H      -9.42684053     -2.95206363     23.99754134
H       6.88453717     13.29548194      9.36294863
H       8.88907892     12.09047157      7.61955660
H       3.14699152     -0.52726028     12.19658865
H      25.51174535      6.94273701     -2.38158597
H      -4.22331754      9.56705256     11.46534999
H      26.20193673      7.09111934     -2.04989644
H       0.55375194     -2.01644861      5.94301759
H       8.27091823    -11.91646639      6.42258323
H      10.07557865     -7.59019311     -9.73948532
H       4.45230028     -0.46188958     10.96968182
C      -0.22974184     -1.24479864      6.49837508
C     -10.36025343    -12.21616382     16.66252595
C       2.87580830      0.69551707      8.60730092
C       2.11264360      0.01633036      9.85171564
C       8.23056877      0.85584067     -3.03918426
C       7.92183851     13.78593358      8.89390870
C       3.25024879     -0.34249297     11.00668256
C      -3.20638909     10.10657542     11.63551759
C       8.51549787     13.24772845      7.37530502
C       2.59284289      9.47195914     -2.88203527
C       4.47153628     -1.49750280     -2.13187254
C       5.42767627     -0.27858751     -2.36800354
C      13.62342071     -8.93619942     -8.78283656
C       1.74080509     10.78979323     -2.70836626
C       8.02894258    -10.75727367      6.75417235
H       9.66872196     11.91321917      4.37893211
H      -0.11477748    -10.92563939    -10.50669521
H      -1.27838684     -1.73461916      6.07035650
H      -9.29853846     -2.27983804     24.37177569
H      -9.75827226    -12.15925645     17.65679236
H      15.89734638      7.23950395     13.42160801
H       8.42451869      1.66805665     -2.17030119
H       8.65882889     13.66941587      9.88906463
H       7.60503476     14.97046196      9.07433494
H      -4.89979243     -0.24801118     -7.39904983
H       3.19131142      8.48094315     -3.02876792
H      -7.56631510     21.13717566      9.79242675
H       2.86996927     -3.30417589     -2.57739613
H      -0.07131631     -0.21041770      5.84387454
H       8.96633150    -10.43566468      7.48276972
H      14.56219760     -8.17356307     -8.83665372
H      -7.69953622     21.14580623     10.56091724
   94

C      10.83179918     -8.23653656     -9.00198688
C      -0.34841877    -10.13781429     -9.68312364
H      10.93731048     -7.35112919     -8.14388196
C      -0.16850019     -1.00170614      8.16939294
H     -18.89208622     -7.18335545     -1.80817310
H      -0.58361725     -9.34989806     -8.85969945
C       0.96007914     -1.07666702      9.35803557
H      10.00802835     -8.94687689     -8.40848990
H      -8.53174199     -6.31659763    -17.82652523
H      -8.52402683     -7.08598936    -17.69855310
C       6.78092247     -0.06415383     -2.67941484
H      16.07315069      6.48600260     13.52040028
C       8.32269926     -9.90041593      5.42806184
H       8.45227703     12.81836304      3.38285604
H       8.62303009     -9.33926354      4.44012392
H       2.50431073    -10.90147475     17.33777185
C       6.56166894    -10.69052273      7.49744253
H       5.44852239    -10.78618147      7.03920648
C       7.89503663     13.04248978      5.82372352
H       6.28605004    -10.56994615      8.66826667
H       9.47544148     13.99419650      7.10765816
H       6.81911456     13.59108359      5.62264756
C       8.47695499     12.23228735      4.46866347
H      15.58880446      2.57923621     -4.56084267
C      14.47029761      2.35803811     -4.44448402
H       4.64129480      0.66574556     -2.29118772
H       7.94058681     11.13794203      4.26286642
H      -2.19540034     10.65942951     11.81350253
C      12.21206066     -8.99570013     -9.66985853
H      -1.20739888     -0.62717250      8.67669369
H     -19.27139811     -7.16732184     -1.12680286
C       3.06267954     -2.47015911     -1.87613633
H       0.80017136     -2.10707925      9.98234443
C       1.47826019    -10.71782606     17.93057766
H       2.28334318     -2.32258788     -0.98228638
H     -10.96225060    -12.27308673     15.66827864
H       1.07355906     -9.60139565     18.09708735
C      -5.42106883      0.66143537     -7.93556294
H       2.55103709     11.69129901     -2.65040723
C       0.09123417     10.93408154     -2.63508193
H      -5.92473274      1.56837604     -8.46276878
H      -0.32014172     11.49793056     -1.61925016
H      -0.57261397      9.89749638     -2.60980566
H      -0.39084766     11.52189653     -3.60548632
H      12.47848647     -8.67619935    -10.83922637
H      12.04738819    -10.16689459    -10.04829894
H      14.01541187     -9.62744313     -7.86945638
H       3.41125524      1.27614661      7.76249424
H       1.48162791      0.98526889     10.32188114
H       0.85688949    -11.65060332     18.35689972
H       8.23399000      0.85513512     -4.22924788
H      -9.42685383     -2.95206593     23.99756361
H       6.88212196     13.29447256      9.35795703
H       8.89880723     12.09067196      7.62135550
H       3.13675822     -0.52874120     12.21665381
H      25.81585635      7.06837786     -2.32741565
H      -4.22926818      9.58039336     11.47320153
H      26.50605831      7.21675112     -1.99574418
H       0.54911850     -2.01694677      5.97334546
H       8.28099794    -11.92863714      6.42268163
H      10.07486744     -7.59076426     -9.73947679
H       4.44082391     -0.46748017     10.98778341
C      -0.23801061     -1.24430921      6.52221762
C     -10.36026928    -12.21618038     16.66254503
C       2.86636586      0.69878589      8.62868487
C       2.10213760      0.02084021      9.87311736
C       8.04864049      0.80208646     -3.04346359
C       7.92024122     13.78601560      8.89187689
C       3.23945065     -0.34216766     11.02700151
C      -3.21233371     10.11990851     11.64335782
C       8.52000788     13.24611880      7.37630869
C       2.58787023      9.48436513     -2.88311611
C       4.32406955     -1.56610575     -2.13189473
C       5.26907626     -0.34051784     -2.36606121
C      13.62339172     -8.93610802     -8.78264355
C       1.73591550     10.80221971     -2.70901969
C       8.03628379    -10.76948618      6.75283535
H       9.66636819     11.91247568      4.37561706
H      -0.11475886    -10.92583530    -10.50688779
H      -1.28436398     -1.73626699      6.09119879
H      -9.29855114     -2.27983994     24.37179704
H      -9.75828668    -12.15927237     17.65681055
H      15.89732151      7.23945821     13.42146274
H       8.30256956      1.59835918     -2.17897391
H       8.65276761     13.67214906      9.89052536
H       7.60210440     14.97077953      9.06849489
H      -4.91767944     -0.24571730     -7.40846180
H       3.18626434      8.49311091     -3.02859915
H      -7.57250611     21.15264692      9.79039035
H       2.73252652     -3.37114363     -2.58379743
H      -0.07977649     -0.21161172      5.86506817
H       8.97324672    -10.44687092      7.48150379
H      14.56208816     -8.17333956     -8.83599777
H      -7.70572920     21.16127982     10.55888047
   94

C      10.83180445     -8.23599779     -9.00176573
C      -0.34854094    -10.13800932     -9.68332930
H      10.93745579     -7.34988387     -8.14439721
C      -0.18113230     -0.99752120      8.19270466
H     -18.89213231     -7.18336698     -1.80817056
H      -0.58375453     -9.35011213     -8.85989396
C       0.95120531     -1.07297341      9.37760279
H      10.00843725     -8.94620624     -8.40754879
H      -8.53176157     -6.31661100    -17.82656331
H      -8.52404640     -7.08600251    -17.69858983
C       6.62203121     -0.13753677     -2.67670080
H      16.07313085      6.48595155     13.52022166
C       8.32717957     -9.91144695      5.42692420
H       8.44862366     12.82102906      3.38402850
H       8.62211864     -9.34510122      4.44042699
H       2.50432158    -10.90150572     17.33777977
C       6.56820534    -10.70002991      7.49418387
H       5.45536933    -10.79202647      7.03448345
C       7.89674482     13.04146827      5.82577376
H       6.29114373    -10.57601998      8.66426851
H       9.48270975     13.98954219      7.11003503
H       6.82022978     13.58956806      5.62676633
C       8.47522661     12.23265062      4.46856576
H      16.11927446      2.72394071     -4.75540691
C      15.00576673      2.50290701     -4.64007421
H       4.48739382      0.60624170     -2.29067817
H       7.93777211     11.13885965      4.26270358
H      -2.20133467     10.67275036     11.82132358
C      12.21207135     -8.99516793     -9.66964093
H      -1.22076502     -0.62526647      8.70060564
H     -19.27144130     -7.16733225     -1.12679874
C       2.91739911     -2.53904439     -1.87608068
H       0.80107325     -2.11044838      9.99237822
C       1.47827423    -10.71786092     17.93059228
H       2.14371184     -2.38427027     -0.97870306
H     -10.96226757    -12.27310356     15.66829852
H       1.07357383     -9.60143215     18.09711464
C      -5.43881515      0.66381342     -7.94491965
H       2.54622947     11.70354738     -2.65043860
C       0.08638611     10.94658618     -2.63555886
H      -5.94240554      1.57080764     -8.47210045
H      -0.32489473     11.51048917     -1.61971889
H      -0.57739916      9.90996373     -2.61010998
H      -0.39588682     11.53443750     -3.60585049
H      12.47865545     -8.67533342    -10.83888192
H      12.04733049    -10.16630537    -10.04823483
H      14.01554560     -9.62760815     -7.86961028
H       3.40506988      1.27322468      7.78178617
H       1.47231585      0.99024494     10.34417420
H       0.85690262    -11.65063901     18.35691117
H       8.10978458      0.78748134     -4.22194723
H      -9.42686678     -2.95206815     23.99758534
H       6.87974553     13.29344109      9.35294731
H       8.90849355     12.09087790      7.62313594
H       3.12649423     -0.53022874     12.23665721
H      26.11992779      7.19400695     -2.27324267
H      -4.23521431      9.59372836     11.48104773
H      26.81014324      7.34237368     -1.94159641
H       0.54452928     -2.01741048      6.00351359
H       8.29105703    -11.94076292      6.42274535
H      10.07418034     -7.59122147     -9.73942198
H       4.42931072     -0.47305694     11.00584004
C      -0.24619723     -1.24383999      6.54593465
C     -10.36028483    -12.21619671     16.66256404
C       2.85694706      0.70203874      8.64999705
C       2.09164630      0.02532144      9.89444146
C       7.86498292      0.75179356     -3.04891560
C       7.91866558     13.78607639      8.88981139
C       3.22864472     -0.34185666     11.04726157
C      -3.21827384     10.13323590     11.65119246
C       8.52450985     13.24449944      7.37729238
C       2.58291729      9.49666487     -2.88419120
C       4.17697215     -1.63469228     -2.13175442
C       5.11089082     -0.40250173     -2.36393548
C      13.62340970     -8.93582891     -8.78240863
C       1.73105641     10.81455244     -2.70967727
C       8.04360484    -10.78166063      6.75146258
H       9.66403504     11.91172369      4.37230813
H      -0.11473025    -10.92601333    -10.50706461
H      -1.29024883     -1.73793344      6.11192703
H      -9.29856347     -2.27984177     24.37181785
H      -9.75830071    -12.15928800     17.65682861
H      15.89730324      7.23940807     13.42128843
H       8.18128461      1.52615251     -2.18836654
H       8.64672430     13.67485452      9.89191530
H       7.59922002     14.97106783      9.06262886
H      -4.93554334     -0.24342763     -7.41786186
H       3.18120370      8.50514929     -3.02840586
H      -7.57869594     21.16811676      9.78835319
H       2.59533738     -3.43785721     -2.59000345
H      -0.08815866     -0.21282625      5.88614600
H       8.98014382    -10.45804540      7.48020212
H      14.56198782     -8.17287824     -8.83526201
H      -7.71192104     21.17675208     10.55684294
   94

C      10.83194215     -8.23647321     -9.00230713
C      -0.34772690    -10.13617038     -9.68164018
H      10.93790631     -7.34950225     -8.14585358
C      -0.19682963     -0.99207564      8.21689601
H     -18.89185999     -7.18329685     -1.80818867
H      -0.58197416     -9.34808518     -8.85808985
C       0.94285480     -1.06838418      9.39461651
H      10.00899102     -8.94644606     -8.40723114
H      -8.53156068     -6.31648995    -17.82625171
H      -8.52384950     -7.08588394    -17.69829304
C       6.44334506     -0.22414895     -2.66732452
H      16.07331130      6.48611777     13.52058838
C       8.32979173     -9.92355518      5.42654750
H       8.44293415     12.82746988      3.38689905
H       8.61941415     -9.35159745      4.44188476
H       2.50425844    -10.90118632     17.33758517
C       6.57539568    -10.70917768      7.48970190
H       5.46311544    -10.79690636      7.02789747
C       7.89861550     13.04116937      5.82984116
H       6.29612843    -10.58221812      8.65887797
H       9.49486321     13.98215717      7.11497126
H       6.82123346     13.58851534      5.63431363
C       8.47233229     12.23509816      4.46921263
H      16.69775101      2.88062585     -4.96113023
C      15.59392200      2.66066033     -4.85056771
H       4.31839278      0.54513926     -2.28685216
H       7.93346218     11.14204687      4.26320346
H      -2.20778801     10.68650213     11.82959127
C      12.21245248     -8.99540111     -9.66997524
H      -1.23760965     -0.62207596      8.72512571
H     -19.27118577     -7.16726916     -1.12682601
C       2.76235401     -2.61422098     -1.87596447
H       0.80668018     -2.11575084      9.99536344
C       1.47819573    -10.71751696     17.93036419
H       2.00051284     -2.44376964     -0.97162669
H     -10.96213609    -12.27297242     15.66815272
H       1.07348491     -9.60107587     18.09678088
C      -5.45418212      0.66525253     -7.95308635
H       2.54055215     11.71781615     -2.65058058
C       0.08083616     10.96016284     -2.63634740
H      -5.95834949      1.57183068     -8.48045391
H      -0.33047539     11.52401185     -1.62049872
H      -0.58241221      9.92320581     -2.61061013
H      -0.40190510     11.54788387     -3.60648606
H      12.47924437     -8.67499673    -10.83901521
H      12.04761629    -10.16647630    -10.04872049
H      14.01622471     -9.62874390     -7.87051678
H       3.39948418      1.26938595      7.80152495
H       1.46192126      0.99780441     10.36754085
H       0.85684386    -11.65028868     18.35672652
H       7.98056021      0.72011241     -4.19966212
H      -9.42675544     -2.95204824     23.99740376
H       6.87578513     13.29239018      9.34560302
H       8.92535490     12.09292519      7.62656344
H       3.11415336     -0.53265960     12.25683056
H      26.42731526      7.32036741     -2.22000405
H      -4.24158606      9.60737774     11.48915491
H      27.11748881      7.46874313     -1.88827450
H       0.54444723     -2.01789041      6.03982335
H       8.30455630    -11.95563336      6.42388151
H      10.07336743     -7.59300464     -9.74014059
H       4.41516385     -0.48059462     11.02320917
C      -0.25298510     -1.24291122      6.57042210
C     -10.36016020    -12.21606716     16.66242232
C       2.84723434      0.70572302      8.67198870
C       2.07922579      0.03183270      9.91638057
C       7.64766588      0.70154361     -3.05161505
C       7.91583296     13.78704232      8.88725199
C       3.21529063     -0.34317522     11.06754857
C      -3.22468704     10.14693994     11.65937309
C       8.53124826     13.24305105      7.37952983
C       2.57751085      9.51100950     -2.88564619
C       4.02158007     -1.71316203     -2.12912100
C       4.93373935     -0.46833019     -2.35667174
C      13.62388852     -8.93644348     -8.78283268
C       1.72553670     10.82873346     -2.71061492
C       8.05206303    -10.79668612      6.75023758
H       9.66017811     11.91236023      4.36797215
H      -0.11432852    -10.92428742    -10.50540103
H      -1.29261154     -1.74009980      6.12957188
H      -9.29845674     -2.27982476     24.37164303
H      -9.75818431    -12.15916191     17.65669192
H      15.89747689      7.23957088     13.42164096
H       8.05789608      1.44620063     -2.20896248
H       8.63649247     13.67978600      9.89495303
H       7.59482591     14.97249425      9.05394155
H      -4.95001474     -0.24132561     -7.42571879
H       3.17581948      8.51934136     -3.02866657
H      -7.58509478     21.18379827      9.78636566
H       2.45579832     -3.50784241     -2.60272445
H      -0.09488722     -0.21460105      5.90647703
H       8.98797122    -10.47169969      7.47913499
H      14.56233172     -8.17327169     -8.83506741
H      -7.71830632     21.19241746     10.55485795
