   94
energy=      0.00000000
C      -8.77971982     -4.51273311     -4.36876665
C      -7.58551343     -5.00101279     -3.41198271
H      -9.34572949     -4.01027195     -5.26551899
C     -18.81442294     -0.21206250     -3.19761345
H     -18.15618962     -0.93996628     -3.94720271
H      -7.07248299     -4.00995723     -2.90178183
C       8.84726163     -2.38220602      8.32807774
H      -7.86954266     -5.76627118     -2.49450363
H      -7.19121615     -5.48029547    -16.76670738
H      -7.18350496     -6.24968946    -16.63874871
C       1.72028799    -11.73038732     -5.08069549
H       1.28958925    -10.69613727     -5.39535507
C       8.51778849     -2.95530231      6.89557454
H       2.15098588    -12.76463809     -4.76603709
H       9.23378551     -2.20999932      6.22705826
H       7.47900427     -2.32523165      6.68988757
C       8.58069446     -4.64741400      6.73493467
H       7.65350139     -5.06209182      6.02429192
C       7.48721411      0.67707678     -4.42792551
H       8.22151856     -5.24425664      7.76122315
H       7.45579692      1.06405617     -5.59732332
H       7.76643744      1.72769034     -3.84490859
C       6.02332725     -0.03863911     -3.94327745
H       5.73137378      0.00074942     -2.74377996
C       6.77340498      9.34954477    -15.74976683
H       5.91418965     -1.26261389     -4.05864717
H       6.12739829     10.15767179    -16.20914518
H      -0.78905683     12.40473109     11.33158322
C      12.38100449     -6.84827836    -13.58138237
H     -18.29692305      0.82588878     -2.78806934
H     -19.07195165     -0.84189123     -2.17321065
C      -1.53146274      3.00200945    -10.14624131
H     -19.80193677      0.16394440     -3.82587933
C      -2.52954761     -5.57714852     12.53099213
H      -2.69678092      2.93703264     -9.87068233
H      -1.15558742     -5.71774236     10.63275872
H      -3.50581062     -5.20238822     13.06336896
C       4.66544280      0.50189354     -4.64174860
H      -2.52219618      3.03187521      3.08985860
C      -3.32297399      3.02989044      4.02520452
H       3.70222462      0.92150205     -5.17390483
H      -3.22284586      4.08411855      4.65345486
H      -3.07902304      2.08208479      4.77238148
H      -4.46783087      2.92148322      3.58512315
H      11.95150688     -5.76756633    -13.28894542
H      12.90362892     -7.01741024    -14.64730179
H      12.28787766     -7.75985849    -12.80789989
H       9.00707412      5.91003933     16.63520084
H       7.27629461      4.44359037     14.29311094
H      -1.12905274     -7.31637729     11.80675001
H      11.06422067      3.30580740     16.18287801
H      -8.70101793     -4.16259184     22.46177845
H       6.78100962      6.00659841     11.12595411
H      -2.36325948     13.39212657     23.36573642
H       9.97413630      5.67393703     12.55451634
H      10.21695424     -0.85971170     -6.04415039
H      -2.54609935     11.47239390     11.03750204
H      12.45566884     -0.23830064     -3.40311858
H      -0.86715312      2.00469082    -10.18954860
H      10.13301898     -6.45013504      5.59748242
H      25.95114173     -1.25922372     -0.91414506
H       9.09342949      4.23051192     12.17820820
C      17.30322965     -4.04092092     16.91429424
C      -1.19266103     -6.09038335     11.80190152
C       9.03916914      4.95612989     15.83916205
C       8.23442615      5.23920949     14.33530024
C      10.60994257      4.41234293     15.99326040
C       7.90159480      6.15994100     11.56423886
C       8.79731994      5.31675168     12.70523442
C      -1.99119233     12.56837488     11.12131677
C      -1.84390843     14.35645660     22.97263680
C      10.37997935     -0.70792972     -4.83191702
C      11.90082699     -0.04720629     -4.48505607
C      13.07699393     -0.52906371     -5.42311813
C      25.65424051     -0.29178792     -1.55745192
C       8.94936705     -0.03885749     -4.43994445
C       9.96372016     -5.43444686      6.23437756
H      25.20112132     -0.42093169     -2.66014452
H      -6.76572579     -5.60043037     -4.09964924
H      16.35524265     -3.75935048     17.46515407
H      -8.57271924     -3.49036836     22.83601772
H      -0.18941362     -5.66083808     12.36414361
H      11.66580109      5.00555594     15.99897449
H       8.41102321      4.22598534     16.62548485
H       8.12309749      7.15983181     10.91731187
H      -1.32455729     15.32078666     22.57953739
H       7.60052950      6.29313747     14.52137326
H      10.21576414     -1.85902772     -4.42103160
H      -2.14305449     13.18700230     10.06758102
H      12.07995107      1.16910958     -4.53717698
H      -1.02687648      4.06449954    -10.37934093
H      11.13976713     -5.20713380      6.39754049
H      25.81045847      0.80479166     -1.09806617
H      -2.48655863     13.20937223     12.04860079
   94
energy=      0.00000000
C      -8.69226271     -4.50961437     -4.44459102
C      -7.54520888     -5.02588788     -3.44473452
H      -9.44211765     -4.08280167     -5.23999218
C     -18.91955235     -0.16244778     -3.18197887
H     -18.22674294     -0.86148126     -3.92207910
H      -7.02961867     -4.06177074     -2.88662240
C       8.88821860     -2.40208236      8.32649518
H      -7.93148442     -5.77640312     -2.55298528
H      -7.27585245     -5.66043188    -16.87510334
H      -7.26814126     -6.42982587    -16.74714467
C       1.80740076    -11.79285361     -5.09264461
H       1.37670235    -10.75860327     -5.40730372
C       8.52982651     -2.97720476      6.90178105
H       2.23809898    -12.82710409     -4.77798574
H       9.23961616     -2.24172176      6.21586342
H       7.49300209     -2.34045797      6.70869433
C       8.57987659     -4.66997157      6.74759667
H       7.65060329     -5.08788983      6.04142559
C       5.55250652      0.42464458     -4.00916061
H       8.20941310     -5.27084873      7.76778970
H       5.54656972      0.87219424     -5.15771628
H       5.88809943      1.44004589     -3.39323684
C       4.13783163     -0.35953393     -3.50250579
H       3.88550766     -0.35697884     -2.29389103
C       6.77725769      9.35277083    -15.75254447
H       4.05740353     -1.58477593     -3.63120107
H       6.13125099     10.16089785    -16.21192283
H      -0.78406109     12.43966165     11.34235302
C      12.37234461     -6.91729667    -13.67192055
H     -18.33528361      0.85678928     -2.81362485
H     -19.19648550     -0.82101752     -2.17920272
C      -3.10033549      3.75614053    -11.30010124
H     -19.92163337      0.17830309     -3.81098744
C      -2.53438143     -5.57793971     12.53342591
H      -4.26558618      3.69117039    -11.02455721
H      -1.16041057     -5.71854583     10.63518906
H      -3.51063146     -5.20316815     13.06581861
C       2.77003574      0.16166429     -4.18694317
H      -2.50866017      3.02657893      3.09390949
C      -3.30944052      3.02459996      4.02925324
H       1.80625600      0.57654139     -4.71767812
H      -3.20931895      4.07882917      4.65750278
H      -3.06548412      2.07679287      4.77642660
H      -4.45429885      2.91619888      3.58917411
H      11.94284700     -5.83658463    -13.37948360
H      12.89496904     -7.08642857    -14.73783996
H      12.27921779     -7.82887681    -12.89843808
H       9.02108563      5.92646584     16.64375673
H       7.24510009      4.46399534     14.31804154
H      -1.13387713     -7.31716791     11.80917127
H      11.05924299      3.30198840     16.10723689
H      -8.70101793     -4.16259184     22.46177845
H       6.82753171      5.96984282     11.08116157
H      -2.36291169     13.39637997     23.39419157
H       9.96768292      5.70673460     12.59960419
H       8.60539201     -1.17388317     -5.62116277
H      -2.54110779     11.50732051     11.04825392
H      17.13543744      0.25457624     -4.19733325
H      -2.43751038      2.75777266    -11.34295144
H      10.15313213     -6.43649671      5.58414979
H      28.39631622     -1.45123591     -0.08528841
H       9.10519225      4.23844594     12.22480982
C      17.30322965     -4.04092092     16.91429424
C      -1.19749470     -6.09117441     11.80433548
C       9.03620799      4.97049113     15.84983682
C       8.20999404      5.25170158     14.35741960
C      10.60693222      4.41630626     15.96466056
C       7.92271017      6.15623781     11.56730578
C       8.79577634      5.32869034     12.73564037
C      -1.98619607     12.60329839     11.13207811
C      -1.84356060     14.36071001     23.00109204
C       8.13874807     -1.29543576     -4.52702571
C      17.14962446      0.75854767     -5.27608416
C      17.83340322     -0.00762152     -6.42323090
C      28.09941500     -0.48380011     -0.72859526
C       6.94351863     -0.38023637     -4.07075894
C       9.97198212     -5.44228619      6.25030910
H      27.64629582     -0.61294388     -1.83128786
H      -6.70842078     -5.65455414     -4.08586991
H      16.35524265     -3.75935048     17.46515407
H      -8.57271924     -3.49036836     22.83601772
H      -0.19426440     -5.66161483     12.36659717
H      11.66558182      5.00500318     15.96634514
H       8.42178937      4.24832898     16.65413569
H       8.14551302      7.16763761     10.93874195
H      -1.32420950     15.32504006     22.60799255
H       7.54792866      6.28902682     14.54138633
H       8.52394140     -2.20158017     -3.85341284
H      -2.13806236     13.22191675     10.07833764
H      16.71518028      1.84525182     -5.49659672
H      -2.59738489      4.81950699    -11.53291921
H      11.14392658     -5.21456383      6.44146595
H      28.25563296      0.61277947     -0.26920952
H      -2.48155304     13.24429464     12.05936787
