   94
energy=      0.00000000
C       6.11623863     -7.27675812    -14.01009863
C      -3.56858173    -13.19936374    -10.05527369
H       6.79622653     -6.54962319    -13.34165467
C      -1.07586144     -0.86419611      8.29386435
H      -5.83398111      8.54469481     -3.01023782
H       3.05845557     -3.24578639      9.07023995
C       0.20370607     -1.18000057      9.31269028
H       5.78162941     -8.34585551    -13.58232122
H      -9.00629938     -6.97077983    -19.18209263
H      -8.99858819     -7.74017383    -19.05413396
C       6.79638864      0.09125250     -2.53717336
H      17.20219850      4.49918250     15.05404277
C       8.63972655    -10.47364140      5.10331450
H       8.08916480     10.90965459     -2.79981877
H       8.91764410     -9.72458736      4.25241995
H       2.50425844    -10.90118632     17.33758517
C       7.25688303    -10.93831072      7.58219403
H       6.14205034    -10.55478346      7.22224717
C       7.33530992     11.14278002     -0.58957032
H       6.92194637    -11.74446357      8.45010734
H      16.64855012     13.65407322      6.37431069
H       6.76737684     11.74806627      0.23991177
C       8.11140475     10.31391522     -1.72663185
H      14.44711266     -4.37780461     -6.56034811
C      14.40488092     -5.57311890     -6.69251676
H      13.21199046     -5.37639078     -6.63961730
H       7.59844255      9.21170391     -1.89730825
H      -3.07358194     10.19064936     10.33173393
C      15.69715363     -6.58048185     -6.91537765
H      -2.18538401     -0.59378502      8.71980829
H      -5.90240332      8.58208666     -1.07722355
C       5.72980147     -2.83251797     -2.11328374
H      -0.13039287     -2.26684272      9.79343042
C       1.47819573    -10.71751696     17.93036419
H       5.58643131     -2.95807774     -0.90167252
H     -10.96213609    -12.27297242     15.66815272
H       1.07348491     -9.60107587     18.09678088
C      -5.24717734     -1.11765127     -5.88913936
H      -2.90747795      8.82227735     -1.77260072
C      -3.44044701     11.24492791     -2.20123570
H      -6.39130319     -0.97144750     -5.80251391
H      -3.63687298     11.92010410     -1.18751917
H      -2.29207245     11.54031972     -2.53691277
H      -4.05138000     11.83508548     -3.09432394
H      16.42912219     -5.83720324     -7.50119855
H      17.47417563     -8.45463877     -7.59338091
H      17.68342493     -8.08516926     -6.15118270
H       2.78206019      0.58486385      7.04544137
H       0.13264596     -0.40433940     10.27100524
H       0.85684386    -11.65028868     18.35672652
H       6.86550718      0.67022696     -3.57492290
H      -9.42675544     -2.95204824     23.99740376
H       4.34725348     15.16486320     22.65560149
H      16.31936122     13.00158610      6.64688218
H       3.25941377     -1.98119541     10.72768483
H      27.34947999      7.72515486     -1.91711422
H      -4.93089105      9.31681407     10.64570919
H      28.03965355      7.87353058     -1.58538466
H      -1.31420418     -1.81288781      5.95616109
H       8.69090285    -12.48058848      6.09475333
H       5.77085995     -6.93479564    -15.10632002
H       4.31212120     -1.94573504      9.31408167
C      -1.20099169     -0.85385811      6.67481032
C     -10.36016020    -12.21606716     16.66242232
C       2.33623384     -0.14348988      7.84420064
C       1.83018818     -1.19204957      8.92666093
C       7.51245911      0.64709570     -1.26159484
C       6.66392978     18.45793159     11.45805926
C       3.10681590     -2.09427134      9.50925586
C      -4.04241431      9.62877642      9.90328527
C       7.61213867     17.63174347     10.62864389
C      -5.22798374      8.88543705     -2.02725322
C      -4.00204172     -1.78778817     -6.47272944
C       6.09060398     -1.30326056     -2.41919415
C      16.65800437     -7.96286778     -6.81919344
C      -3.78611546      9.63373208     -1.99284246
C       8.19958520    -11.39845523      6.30670134
H       9.28723473     10.13595643     -1.42186046
H      -3.34055824    -13.96610294    -10.85623579
H      16.08146568     -9.03584514     -6.69286406
H      -9.29845674     -2.27982476     24.37164303
H      -9.75818431    -12.15916191     17.65669192
H      17.02636410      5.25263561     14.95509535
H       8.06876856      0.95260692     -0.28568605
H       5.04347153     15.37147220     22.94019443
H       5.93741921     19.09110341     12.09382905
H      -3.27443336     -2.43010276     -7.10229010
H      -4.12272602      9.37902553      8.73318169
H      -7.60795419     21.24264930      9.77839801
H       4.69759587     -3.29411439     -2.58469665
H      -1.19858797      0.12077184      5.96688797
H       7.81494489    -10.09057218      8.28205779
H       6.63712414     -3.50036363     -2.59749302
H      -7.74116572     21.25126849     10.54689030
   94
energy=      0.00000000
C       6.11624901     -7.27675128    -14.01010249
C      -3.56733802    -13.21076468    -10.05907527
H       6.79623691     -6.54961635    -13.34165852
C      -1.09438991     -0.86043958      8.33384214
H      -6.77206989      7.14043445     -2.36076969
H       3.03765978     -3.25985216      9.13287676
C       0.18316359     -1.17495067      9.35598181
H       5.78163978     -8.34584867    -13.58232507
H      -9.00629938     -6.97077983    -19.18209263
H      -8.99858819     -7.74017383    -19.05413396
C       6.77266103      0.08143652     -2.57466121
H      17.20340372      4.48094162     15.07218373
C       8.64057050    -10.47502454      5.10245936
H       8.27511207     10.89118242     -2.77603542
H       8.92438262     -9.73342438      4.24711845
H       2.50425844    -10.90118632     17.33758517
C       7.25552882    -10.93684827      7.58368497
H       6.14102547    -10.54165925      7.23559200
C       7.52118708     11.12461326     -0.56561957
H       6.93562090    -11.76366170      8.43801654
H      16.75729120     13.70873775      6.45819134
H       6.95363846     11.72989237      0.26413079
C       8.29728569     10.29574775     -1.70267796
H      14.54353454     -4.44093211     -6.52314930
C      14.55882118     -5.63006067     -6.71314051
H      13.35602716     -5.66946866     -6.68303673
H       7.78442012      9.19353482     -1.87363428
H      -3.01380475     10.25839066     10.97037863
C      15.86806999     -6.56971977     -7.00893622
H      -2.20273631     -0.58361272      8.75850635
H      -6.84922497      7.17547235     -0.39643161
C       5.70402183     -2.84749440     -2.15444725
H      -0.15440482     -2.25869331      9.84081687
C       1.47819573    -10.71751696     17.93036419
H       5.56104515     -2.99232519     -0.94492472
H     -10.96213609    -12.27297242     15.66815272
H       1.07348491     -9.60107587     18.09678088
C      -5.25863766     -1.88670076     -6.29898579
H      -3.75561698      7.45020822     -1.15002724
C      -4.47816131      9.67590674     -1.26553494
H      -6.37667914     -1.64681376     -6.12241600
H      -4.50847809     10.64696263     -0.62421275
H      -0.34949382     18.14944669     -5.80383429
H      -1.08322745     18.27349340     -6.03760207
H      16.53819565     -5.79499828     -7.63995342
H      17.44188571     -8.45702622     -7.73283785
H      17.63332382     -8.04380522     -6.03472999
H       2.74702551      0.60081937      7.10031222
H       0.11525789     -0.39476661     10.31090815
H       0.85684386    -11.65028868     18.35672652
H       6.81176205      0.66439896     -3.61170020
H      -9.42675544     -2.95204824     23.99740376
H       4.34725348     15.16486320     22.65560149
H      16.42810230     13.05625062      6.73076283
H       3.24146984     -2.01731607     10.77263578
H      27.34947999      7.72515486     -1.91711422
H      -4.87137946      9.38443106     11.28440244
H      28.03965355      7.87353058     -1.58538466
H      -1.33286574     -1.82127538      6.00083567
H       8.68940080    -12.47777418      6.09435579
H       5.77087033     -6.93478881    -15.10632387
H       4.28217399     -1.92272776      9.33205296
C      -1.22227660     -0.85844676      6.71477653
C     -10.36016020    -12.21606716     16.66242232
C       2.31130214     -0.13781007      7.89523739
C       1.81006443     -1.19351757      8.97304050
C       7.48909891      0.64783960     -1.30419914
C       6.66395184     18.45793497     11.45808112
C       3.08491060     -2.10099924      9.55221336
C      -3.98275424      9.69650652     10.54219495
C       7.61212910     17.63174200     10.62863440
C      -6.19096922      7.45874985     -1.36098576
C      -3.98729887     -2.52627676     -6.86173932
C       6.08880932     -1.32299129     -2.45237375
C      16.70773323     -8.00741204     -6.84938988
C      -4.73106986      8.12716043     -1.31322454
C       8.19791905    -11.39595422      6.30756720
H       9.47303038     10.11809314     -1.39740062
H      -3.33931452    -13.97750389    -10.86003736
H      16.01309467     -9.00863483     -6.67406051
H      -9.29845674     -2.27982476     24.37164303
H      -9.75818431    -12.15916191     17.65669192
H      17.02756931      5.23439473     14.97323631
H       8.03926416      0.96977833     -0.33018594
H       5.04347153     15.37147220     22.94019443
H       5.93740672     19.09110150     12.09381668
H      -3.20960028     -3.14495891     -7.45444136
H      -4.06306153      9.44675959      9.37210117
H      -7.60795419     21.24264930      9.77839801
H       4.65923632     -3.25274630     -2.65003896
H      -1.22657013      0.11170728      6.00062995
H       7.79923519    -10.08105590      8.28500114
H       6.60192303     -3.54072299     -2.62032372
H      -7.74116572     21.25126849     10.54689030
