   94
energy=      0.00000000
C       6.90957451     -7.25737769    -13.22221970
C      -3.33980010    -13.05152339    -10.13445385
H       7.58956240     -6.53024255    -12.55377599
C      -0.98089507     -0.93661726      8.16478149
H      -5.64554022      8.37610043     -3.06476106
H       2.85189776     -2.75833760      8.46631202
C       0.28270841     -1.33254661      9.15147491
H       6.57496539     -8.32647506    -12.79444209
H      -9.00629938     -6.97077983    -19.18209263
H      -8.99858819     -7.74017383    -19.05413396
C       4.56202196      0.43209249     -3.81878815
H      16.72377474      5.80178540     13.90396666
C       8.62140093    -10.42329455      5.10832838
H       8.23744992     10.88219334     -2.23314066
H       8.84986170     -9.62213848      4.29022889
H       2.50425844    -10.90118632     17.33758517
C       7.27476354    -10.96909157      7.56620883
H       6.14836739    -10.88118556      7.07781010
C       7.48601537     11.10483839     -0.02853481
H       6.68069121    -11.24933817      8.59845181
H      11.29413214     15.62086396      8.91250327
H       6.90485099     11.71056335      0.79141879
C       8.26190164     10.27609220     -1.16583177
H      16.85665692      2.91566089     -5.08201493
C      15.75282822      2.69569544     -4.97145247
H       0.94540509      0.24680861     -3.20995252
H       7.74565714      9.17400015     -1.32709997
H      -3.15329537     10.12667634     10.37486308
C      17.10977585    -10.83155276     -8.05914894
H      -2.04917761     -0.62940867      8.65274522
H      -5.64438041      8.24968930     -1.13748149
C       3.19483654     -3.02598394     -3.42704878
H      -0.02554423     -2.40349416      9.70459237
C       1.47819573    -10.71751696     17.93036419
H       3.38181133     -3.03248193     -2.20411100
H     -10.96213609    -12.27297242     15.66815272
H       1.07348491     -9.60107587     18.09678088
C       0.97727582     -0.80176651     -3.81489014
H      -2.65356827      8.53871013     -1.75101593
C      -3.22066577     10.94446459     -2.25509649
H      -0.17676717     -0.83266634     -4.17697269
H      -3.43799825     11.61880065     -1.24499084
H      -2.08156132     11.25163938     -2.60967941
H      -3.83879158     11.52115458     -3.15205671
H      17.55401813    -10.10657671     -8.90994593
H      17.16870358    -11.96377562     -8.45947995
H      17.01844197    -10.63430813     -5.55299321
H       3.03636660      0.49185928      6.85557387
H       0.28856550     -0.52953415     10.08289406
H       0.85684386    -11.65028868     18.35672652
H       4.98410263      0.64735854     -4.90604379
H      -9.42675544     -2.95204824     23.99740376
H       4.85193188     15.53102288     20.76400105
H      10.43201849     13.91225611      9.62631285
H       3.30826285     -1.54739995     10.50703869
H      26.59648769      7.39426669     -2.17327341
H      -4.80690995      9.34819558     10.65172022
H      27.28666125      7.54264242     -1.84154386
H      -1.21419377     -1.75835859      5.80084483
H       8.72414815    -12.47907913      6.06752247
H       6.56419611     -6.91541473    -14.31844102
H       4.31927455     -2.20385533      9.55315245
C      -1.07361681     -0.83065544      6.55217996
C     -10.36016020    -12.21606716     16.66242232
C       2.49365198     -0.31946805      7.49441855
C       1.85429972     -1.24747023      8.61881995
C       5.29097313      0.67176053     -2.46062992
C       9.48024343     15.96742583     10.47191907
C       3.13477054     -1.96312628      9.35519111
C      -4.02989410      9.58026572      9.77483893
C      10.47073184     15.10665063      9.60959234
C      -4.98992229      8.60741292     -2.08162720
C       2.32826593     -1.72341097     -4.10932113
C       3.30341231     -0.47768879     -3.88407048
C      16.52699465    -10.38188916     -6.62128000
C      -3.53692160      9.33160466     -2.02040766
C       8.22059598    -11.40277130      6.28459953
H       9.44052861     10.08785225     -0.87854975
H      -3.11177660    -13.81826260    -10.93541594
H      15.52319762     -9.74584105     -6.43674715
H      -9.29845674     -2.27982476     24.37164303
H      -9.75818431    -12.15916191     17.65669192
H      16.54794034      6.55523851     13.80501923
H       5.91288803      0.74187330     -1.48221561
H       5.54814993     15.73763188     21.04859399
H       8.75035135     16.60707767     11.11710471
H       2.09624825     -2.04467140     -5.28324323
H      -4.11355089      9.32799513      8.60002041
H      -7.60795419     21.24264930      9.77839801
H       2.81766042     -4.19868878     -3.44082865
H      -0.99751774      0.18653563      5.91263254
H       8.05494294    -10.36575342      8.30282254
H       4.31825365     -3.27031493     -3.90279268
H      -7.74116572     21.25126849     10.54689030
   94
energy=      0.00000000
C       6.90957555     -7.25737927    -13.22222241
C      -3.33980010    -13.05152339    -10.13445385
H       7.58956344     -6.53024424    -12.55377857
C      -1.00162452     -0.91703081      8.15858123
H      -5.63758546      8.35328214     -3.06382518
H       3.03068688     -2.95098480      8.56865750
C       0.27369722     -1.27257793      9.15626975
H       6.57496638     -8.32647664    -12.79444490
H      -9.00629938     -6.97077983    -19.18209263
H      -8.99858819     -7.74017383    -19.05413396
C       4.62151654      0.44331073     -3.84620431
H      16.72377501      5.80178502     13.90396682
C       8.62513723    -10.43199749      5.10729953
H       8.23734705     10.87939632     -2.23528860
H       8.86002196     -9.63653684      4.28528124
H       2.50425844    -10.90118632     17.33758517
C       7.27291647    -10.96469969      7.56834353
H       6.14736118    -10.82653159      7.08878119
C       7.48521860     11.10490586     -0.02916541
H       6.71286671    -11.34162402      8.59033894
H      11.29400384     15.62077208      8.91219061
H       6.90771713     11.71047887      0.79347912
C       8.26118994     10.27611145     -1.16636646
H      16.85665692      2.91566089     -5.08201493
C      15.75282822      2.69569544     -4.97145247
H       0.84573792      0.20262796     -3.16577737
H       7.74584818      9.17396880     -1.33016711
H      -3.10319237     10.14462760     10.32846709
C      17.24382768    -10.53140878     -8.27411694
H      -2.08815839     -0.62940870      8.62447127
H      -5.65001922      8.24939592     -1.13437116
C       3.16332329     -3.03747768     -3.41917734
H      -0.03902012     -2.36074965      9.66603691
C       1.47819573    -10.71751696     17.93036419
H       3.34382709     -3.03540775     -2.19520843
H     -10.96213609    -12.27297242     15.66815272
H       1.07348491     -9.60107587     18.09678088
C       0.97864924     -0.82717347     -3.78774731
H      -2.66428751      8.53796889     -1.76439378
C      -3.21842644     10.94926558     -2.25392428
H      -0.17460432     -0.88837743     -4.14494983
H      -3.43001646     11.62562559     -1.24398661
H      -2.07698517     11.25237338     -2.60507053
H      -3.83373761     11.52837121     -3.15121608
H      17.70065793     -9.96868842     -9.18506134
H      16.72651991    -11.74782163     -7.49521301
H      16.99807399    -10.70977970     -5.69788038
H       3.01390830      0.50527070      6.82631572
H       0.23973932     -0.50401879     10.11844753
H       0.85684386    -11.65028868     18.35672652
H       5.04433870      0.74708158     -4.91278535
H      -9.42675544     -2.95204824     23.99740376
H       4.85192863     15.53102301     20.76400835
H      10.43174852     13.91232935      9.62612434
H       3.31983851     -1.60720962     10.49301900
H      26.59648769      7.39426669     -2.17327341
H      -4.86331319      9.31628426     10.62470807
H      27.28666125      7.54264242     -1.84154386
H      -1.22314356     -1.76433464      5.79031982
H       8.71842681    -12.48184589      6.07271292
H       6.56419701     -6.91541656    -14.31844376
H       4.34418944     -2.20927682      9.49590213
C      -1.09156511     -0.83399364      6.54184161
C     -10.36016020    -12.21606716     16.66242232
C       2.44867861     -0.23546319      7.53324154
C       1.86796223     -1.18114752      8.67553868
C       5.31709655      0.69783205     -2.46983274
C       9.48099625     15.96750426     10.47272837
C       3.15068531     -1.99357973      9.33294177
C      -4.02855115      9.58862467      9.81122943
C      10.47097168     15.10671146      9.60982770
C      -4.99386518      8.60575101     -2.07815917
C       2.34925599     -1.71062678     -4.11875870
C       3.38494398     -0.49781634     -3.97096937
C      16.57403838    -10.73280809     -6.84848284
C      -3.54441942      9.33755553     -2.02282682
C       8.21815162    -11.40391402      6.28786182
H       9.43907560     10.09066140     -0.87426696
H      -3.11177660    -13.81826260    -10.93541594
H      15.65801413     -9.97343688     -6.53884054
H      -9.29845674     -2.27982476     24.37164303
H      -9.75818431    -12.15916191     17.65669192
H      16.54794061      6.55523813     13.80501939
H       5.90978846      0.76514810     -1.47112088
H       5.54814668     15.73763201     21.04860129
H       8.74977012     16.60697455     11.11658355
H       2.12198190     -2.01111741     -5.29873433
H      -4.11046019      9.33756022      8.63825760
H      -7.60795419     21.24264930      9.77839801
H       2.74269489     -4.19652643     -3.45107969
H      -1.02158062      0.17783454      5.89207289
H       8.02630842    -10.31468606      8.29378532
H       4.28783348     -3.31925051     -3.86855240
H      -7.74116572     21.25126849     10.54689030
