   94
energy=      0.00000000
C       6.63731929     -6.76899465    -12.36750941
C      -3.34806237    -13.02074229    -10.14185477
H       7.31711420     -6.04126586    -11.69957701
C      -0.24829050     -0.79725361      8.36120126
H      -5.53080119      8.53592942     -2.36355278
H      -3.58188526    -12.23264112     -9.31819913
C       0.83785783     -0.66106003      9.61273024
H       6.30279143     -7.83794323    -11.93918822
H      -8.99341417     -6.98433826    -19.16294311
H      -8.98570298     -7.75373226    -19.03498444
C       3.96005572     -0.11091376     -3.29484366
H      16.26525229      6.32974144     13.57266113
C       8.30430008     -9.93993991      5.45710460
H       8.56179742     12.65022876      2.13463208
H       8.44830528     -9.28163842      4.49599005
H       2.50425844    -10.90118632     17.33758517
C       6.59372531    -10.69395871      7.45228777
H       5.49835820    -10.77832509      6.95015797
C       8.19946685     12.76969984      4.57318536
H       6.27743672    -10.47359496      8.59684735
H      10.03112560     13.58928035      5.96047971
H       7.08385449     13.26040678      4.50126134
C       8.66064572     11.98700285      3.17086187
H      16.85665692      2.91566089     -5.08201493
C      15.75282822      2.69569544     -4.97145247
H       2.04691661      0.98857167     -2.65175522
H       8.07294844     10.91712751      2.98251211
H      -2.55030205     10.61210351     11.84190089
C      16.93488446    -10.70801750     -8.04352739
H      -1.44752026     -0.69763510      8.56390640
H      -5.42751597      8.35529360     -0.45169550
C       0.91084819     -2.25274556     -2.34989427
H       0.85875177     -1.83422382      9.99678652
C       1.47819573    -10.71751696     17.93036419
H       0.35645546     -2.15114996     -1.28177828
H     -10.96213609    -12.27297242     15.66815272
H       1.07348491     -9.60107587     18.09678088
C      -0.23377494     -0.47640040     -4.06670409
H      -2.35269724      8.62868550     -1.00667559
C      -3.03149013     10.88716143     -1.57442784
H      -1.23411505     -0.00292654     -4.46533431
H      -3.24557818     11.57686470     -0.57242104
H      -1.89471236     11.21223594     -1.92621658
H      -3.63433540     11.49001162     -2.46475338
H      17.61058749    -10.58377724     -9.01782160
H      17.38748574    -11.63909391     -8.63291797
H      16.92966413    -10.68058690     -5.74162968
H       3.56305999      1.38124187      7.83107859
H       0.31270279      0.19190802     10.33046730
H       0.85684386    -11.65028868     18.35672652
H       4.56444100     -0.37502096     -4.29743807
H      -9.42675544     -2.95204824     23.99740376
H       6.31473425     15.06792036     16.37399237
H       9.23185899     11.95865175      6.62307981
H       3.17629992     -0.30990072     12.22967483
H      26.59648769      7.39426669     -2.17327341
H      -4.58410010      9.53297911     11.50146453
H      27.28666125      7.54264242     -1.84154386
H       0.50428078     -2.05600394      6.27883833
H       8.37390983    -12.00850051      6.47859802
H       6.29241253     -6.42581614    -13.46349421
H       4.54917333     -0.77635533     11.04535672
C       0.01922339     -1.07678051      6.78459466
C     -10.36016020    -12.21606716     16.66242232
C       3.08628569      0.72813055      8.67216808
C       2.41041229     -0.16607758      9.78809411
C       5.03423035      0.22793799     -2.19257551
C       8.19558535     13.86373458      7.18027194
C       3.40533362     -0.41197138     11.05173319
C      -3.56720108     10.07254131     11.67168271
C       8.94933406     13.00724228      6.04190453
C      -4.71803343      8.32043335     -1.46206054
C       1.14381198     -1.14264494     -3.55391811
C       2.34483094     -0.06743523     -3.16293749
C      16.38091244    -10.05997078     -6.62196276
C      -3.34160773      9.26104466     -1.34820931
C       8.09145913    -10.84643029      6.76923932
H       9.82489562     11.61920620      3.00227534
H      -3.11423959    -13.80884348    -10.96551044
H      15.32869746     -9.66555189     -6.07694902
H      -9.29845674     -2.27982476     24.37164303
H      -9.75818431    -12.15916191     17.65669192
H      16.08941789      7.08319455     13.47371370
H       5.83995889      0.55228998     -1.41249110
H       7.01095230     15.27452936     16.65858531
H       7.64034506     14.50799064      7.99200007
H       1.35765622     -1.70273162     -4.62953351
H      -4.56158762      7.11997630     -1.69845928
H      -7.60753443     21.24150729      9.77855226
H       1.27259787     -3.40209773     -2.27434061
H      -0.17366616     -0.28537735      5.89981668
H       9.04324520    -10.56877164      7.49717270
H      17.20544261     -9.21813350     -6.35578645
H      -7.74074597     21.25012648     10.54704455
   94
energy=      0.00000000
C       6.63308548     -6.77047332    -12.39746305
C      -3.35565392    -13.02553851    -10.14010643
H       7.31306020     -6.04320681    -11.72916423
C      -0.22849477     -0.78913096      8.35365815
H      -5.66958113      8.54792077     -2.38095480
H      -3.58947678    -12.23743733     -9.31645078
C       0.82061133     -0.66080727      9.63854695
H       6.29853192     -7.83955107    -11.96956571
H      -8.99345256     -6.98429977    -19.16300410
H      -8.98574137     -7.75369376    -19.03504543
C       3.95835946     -0.10894573     -3.30162353
H      16.71999876      5.80709950     13.90170215
C       8.30393322     -9.93915012      5.45881650
H       8.12930965     11.00680924     -2.05741084
H       8.44439152     -9.27812499      4.49907610
H       2.50425844    -10.90118632     17.33758517
C       6.59420380    -10.69351805      7.45122151
H       5.49920222    -10.78486987      6.94946343
C       7.51093937     11.11637487      0.13506639
H       6.27740229    -10.46327646      8.59366687
H      11.27879245     15.59824292      8.89753885
H       6.67771510     11.72585076      0.69280880
C       8.21454018     10.30236663     -1.05672106
H      16.85665692      2.91566089     -5.08201493
C      15.75282822      2.69569544     -4.97145247
H       2.04448754      1.00755714     -2.67036868
H       7.62932317      9.22791270     -1.15456807
H      -2.55066600     10.61269128     11.84233250
C      17.05982975    -10.73405245     -8.03629873
H      -1.43537633     -0.71836379      8.51372947
H      -5.57363988      8.35280739     -0.46085219
C       0.91708219     -2.25968202     -2.34422611
H       0.82373984     -1.82562740     10.04676118
C       1.47819573    -10.71751696     17.93036419
H       0.35045360     -2.15424208     -1.28309309
H     -10.96213609    -12.27297242     15.66815272
H       1.07348491     -9.60107587     18.09678088
C      -0.22205698     -0.49168964     -4.05786195
H      -2.49856008      8.62277008     -1.01428427
C      -3.18499921     10.88253141     -1.58617016
H      -1.22621525     -0.01014104     -4.43505356
H      -3.40208779     11.57152871     -0.58431971
H      -2.05160138     11.21488979     -1.94153616
H      -3.79184938     11.48023048     -2.47729931
H      17.52771490    -10.30761045     -9.06118961
H      17.20004180    -11.84202748     -8.48775659
H      16.86361376    -10.80464215     -5.62023322
H       3.56670969      1.38480819      7.84935907
H       0.27597103      0.15567089     10.38505398
H       0.85684386    -11.65028868     18.35672652
H       4.55625358     -0.36983546     -4.30918780
H      -9.42675544     -2.95204824     23.99740376
H       4.88782363     15.52944948     20.68300944
H      10.41812856     13.86853715      9.61012019
H       3.22119463     -0.25347694     12.21176009
H      26.59648769      7.39426669     -2.17327341
H      -4.58446404      9.53356688     11.50189614
H      27.28666125      7.54264242     -1.84154386
H       0.48116519     -2.06266754      6.27587603
H       8.37440217    -12.01008828      6.47817515
H       6.28786058     -6.42822302    -13.49364176
H       4.54906946     -0.81662793     11.01301692
C       0.04446645     -1.05853455      6.77603427
C     -10.36016020    -12.21606716     16.66242232
C       3.07159340      0.72615323      8.67553045
C       2.39634101     -0.16632235      9.79295704
C       5.02722500      0.20904746     -2.18921799
C       9.37976109     15.91863526     10.32892885
C       3.41907493     -0.40971349     11.03453382
C      -3.56756502     10.07312908     11.67211432
C      10.40509917     15.05937684      9.50939751
C      -4.86699548      8.32013892     -1.47330454
C       1.15893144     -1.15053852     -3.54734366
C       2.34481762     -0.05717942     -3.16328312
C      16.59647545    -10.08217218     -6.58039831
C      -3.48725486      9.25535613     -1.35697652
C       8.09226948    -10.84809937      6.76941802
H       9.40620239     10.01644628     -0.99005046
H      -3.12183110    -13.81363969    -10.96376208
H      15.42237793     -9.78215116     -6.33302139
H      -9.29845674     -2.27982476     24.37164303
H      -9.75818431    -12.15916191     17.65669192
H      16.54416436      6.56055261     13.80275473
H       5.82360579      0.51968885     -1.39479840
H       5.58404169     15.73605848     20.96760238
H       8.79199041     16.55633728     11.10641415
H       1.39247712     -1.71191310     -4.61844776
H      -4.72724622      7.11770649     -1.70943144
H      -7.60794186     21.24261576      9.77840254
H       1.27147933     -3.41087766     -2.26156873
H      -0.15025476     -0.28069903      5.87863561
H       9.04493505    -10.57403238      7.49756019
H      17.18442471     -9.02958238     -6.33274461
H      -7.74115339     21.25123495     10.54689483
