   94
energy=      0.00000000
C       6.91156870     -6.92986716     -7.48565443
C       5.31870701     -7.44442858     -7.04569154
H       7.20745177     -6.23873589     -6.49463109
C     -10.16968116     -0.97812121      5.78662609
H     -18.89185999     -7.18329685     -1.80818867
H       4.47974101     -6.57494279     -6.73502343
C       9.19925482     -1.63211787      7.68280342
H       5.12802964     -8.23214186     -6.10773588
H      -7.46506857     -5.91556660    -16.97636143
H      -7.45735738     -6.68496059    -16.84840276
C       9.80616287      1.87625609      6.07731940
H      10.70096520      2.48039857      6.66879444
C       8.44200772     -2.25265269      6.30208826
H      11.00228081      0.07113908      4.65156544
H       9.64509258     -2.35840822      6.20091967
H       0.32150055     -6.93137088     11.13960832
C       8.08263934     -3.82057572      5.75272305
H       7.20803283     -4.19948891      6.55323033
C       4.65812433      4.49463921     -3.77389292
H       8.75746789     -4.82278901      6.00634614
H       5.70440139      4.85268027     -4.34156056
H       4.13621761      5.55537156     -4.16919665
C       4.45379352      2.90005742     -6.24978309
H       5.07072912      4.17680726     -8.37703156
C       4.23349025      3.73402437     -7.63312487
H       5.13431979      1.92392973     -6.51138222
H       3.19612000      4.07960695     -8.13623961
H      -1.67522236     13.86417483     12.14530767
C       8.48523322     -7.48534648     -7.95577808
H     -10.56103991      0.14113743      5.63681892
H     -19.27118577     -7.16726916     -1.12682601
C       7.22754690     -1.50410844      5.36578610
H     -10.83134575     -1.85898474      5.32335166
C      -0.70363004     -6.68637720     11.73167766
H       6.04478585     -1.43919103      5.10436108
H      -2.93895578     -7.63588269     11.98706673
H      -0.70038860     -5.47997091     11.64755763
C       3.93403652      3.21850831     -4.68705956
H       5.56576794      5.58451994     -1.83290182
C       3.59075157      4.64328864     -0.96592806
H       2.69401064      3.19415644     -4.70539136
H       3.58495433      5.50837857     -0.07782361
H       3.24251716      3.67624522     -0.27632941
H       2.42663877      4.87960550     -1.30841604
H       8.83367593     -6.94659500     -9.02011351
H       8.41100907     -8.68940262     -8.24554606
H      10.72703107     -8.20853791     -6.70753596
H       7.79256247     -0.02679548      9.38722368
H      11.06586492     -1.13217795      8.62471177
H      -1.57102359     -8.91443488     12.38132992
H       7.63001723      1.18300956      6.82065917
H      -8.70101793     -4.16259184     22.46177845
H       8.20294145     13.22024184     11.17403155
H      -2.34916350     13.47718722     24.28698232
H      10.71868442     -0.52918281     11.47707777
H      10.42298306      1.97269251      2.33136112
H      -3.43227189     12.93183102     11.85119647
H      12.15716756      2.31923886      3.11686066
H       1.04104793      1.58673869    -14.94132023
H       7.14531150     -4.58857327      3.42791269
H       6.58094330     -6.32149710     -8.51841905
H      11.32478798      0.79420941     10.69046218
C      -8.83793724     -1.27961619      6.56198183
C      -1.79777092     -7.70452891     12.45119710
C       8.72784739      0.48759471      8.74207486
C       9.94433130     -0.67836953      8.86708288
C       8.77600501      1.20305166      7.22202558
C       9.13832463     13.77367504     11.58991039
C      10.68836333     -0.18090262     10.31327883
C      -2.87735699     14.02780680     11.93502706
C      -1.82981241     14.44151727     23.89388281
C       6.07729527      3.44080600     -1.50451262
C      11.07032737      1.84857790      3.34018403
C      10.59095332      1.20649179      4.75734887
C      10.00153910     -7.39356313     -7.23572439
C       4.92546702      4.53524358     -2.05545714
C       7.98450050     -4.00847232      4.08161507
H       7.11306770      3.55242015     -0.88650038
H       4.57136429     -8.06941784     -7.81581564
H      -7.84953394     -1.50338191      7.13744095
H      -8.57271924     -3.49036836     22.83601772
H      -1.92087216     -7.53967942     13.66782229
H       9.10920905      2.79355857      5.64897245
H       8.39592533      1.44991670      9.44634073
H      10.07370782     14.32710824     12.00578923
H      -1.31046131     15.40584731     23.50078330
H       3.81924548      2.11393734     -4.14352287
H       6.19420765      2.23688618     -1.53825366
H      -3.02922606     14.64641905     10.88128340
H       6.94131535     -0.92335469      4.33796146
H       0.98130135      2.36116026    -15.01274560
H       8.61815082     -3.53294785      3.15091631
H      10.82305205     -6.50616815     -7.12145538
H      -3.37270765     14.66880232     12.86232070
   94
energy=      0.00000000
C       7.02278670     -6.87830109     -7.61629629
C       5.47081488     -7.49700031     -7.17385161
H       7.31511195     -6.14198421     -6.65762861
C     -10.29702606     -0.92717073      5.83905519
H     -18.89185999     -7.18329685     -1.80818867
H       4.57170350     -6.70400251     -6.83562562
C       9.93203306     -1.54790073      7.85243187
H       5.34617271     -8.29527846     -6.23365875
H      -7.50398437     -5.95364196    -16.98469800
H      -7.49627318     -6.72303595    -16.85673933
C      10.49483730      2.26660791      6.43819763
H      11.39639391      2.82169924      7.07303894
C       9.57722355     -2.44373761      6.49000892
H      11.74776616      0.48304020      5.07958536
H      10.69725492     -2.13551522      6.16851934
H      -0.06724683     -7.29849723     12.23401591
C       8.80452349     -3.83564334      6.52073572
H       7.75785783     -4.06340335      7.12961934
C       4.74899170      4.86385192     -4.08691921
H       9.39061351     -4.90485332      6.70615563
H       5.80085925      5.21112724     -4.65106499
H       4.23922760      5.92897390     -4.48603221
C       4.53314223      3.26713828     -6.56495249
H       5.15112301      4.56337159     -8.67872970
C       4.31276260      4.09405561     -7.95240191
H       5.20869142      2.28744245     -6.82635328
H       3.27359849      4.40210614     -8.47590562
H      -1.67522236     13.86417483     12.14530767
C       8.54104016     -7.54282567     -8.11764734
H     -10.68838481      0.19208792      5.68924802
H     -19.27118577     -7.16726916     -1.12682601
C       0.67074550     -5.42855728      1.94462523
H     -10.95869065     -1.80803426      5.37578076
C      -1.09237436     -7.05350319     12.82609041
H      -0.36479431     -5.76079256      2.34582492
H      -3.32769924     -8.00301048     13.08147711
H      -1.08912997     -5.84709657     12.74197535
C       4.01795825      3.59297540     -5.00208799
H       5.63931133      5.95744482     -2.13729989
C       3.67059885      5.00572342     -1.27962286
H       2.77781944      3.57991517     -5.02111756
H       3.66709808      5.85225543     -0.37376045
H       3.31298084      4.02959452     -0.60774709
H       2.51122608      5.26298379     -1.62367183
H       8.89052071     -7.16409822     -9.24842782
H       8.43768735     -8.74595485     -8.39771938
H      10.72313612     -8.23793991     -6.76716605
H       8.36585888      0.32033867      9.56595581
H      11.59469187     -0.99463144      8.78438234
H      -1.95976601     -9.28156069     13.47574579
H       8.24990135      1.51452503      7.00552419
H      -8.70101793     -4.16259184     22.46177845
H       8.20294145     13.22024184     11.17403155
H      -2.34916350     13.47718722     24.28698232
H      11.32545601     -0.49204255     11.61936090
H      11.12547993      2.26162018      2.68436883
H      -3.43227189     12.93183102     11.85119647
H      12.86639671      2.64691226      3.44586917
H       1.01165366      1.58308530    -15.15073293
H       8.14622031     -3.55216599      4.27396818
H       6.71995499     -6.10304354     -8.54232904
H      12.03142369      0.81506175     10.83835368
C      -8.96528214     -1.22866571      6.61441093
C      -2.18651523     -8.07165490     13.54560988
C       9.35542057      0.75193502      8.95049683
C      10.50467788     -0.50071759      9.03600991
C       9.38270137      1.52684127      7.46031277
C       9.13832463     13.77367504     11.58991039
C      11.30140485     -0.09505355     10.47326539
C      -2.87735699     14.02780680     11.93502706
C      -1.82981241     14.44151727     23.89388281
C       6.16364520      3.81184296     -1.81982111
C      11.77914409      2.18824385      3.69342775
C      11.29654642      1.60156104      5.13212159
C      10.02574309     -7.43069308     -7.34215035
C       5.00790435      4.90427967     -2.36693186
C       8.92812288     -3.09538705      5.11496785
H       7.20745622      3.92428447     -1.21534755
H       4.76924775     -8.14644185     -7.96513008
H      -7.97687884     -1.45243143      7.18987005
H      -8.57271924     -3.49036836     22.83601772
H      -2.30961911     -7.90680378     14.76223457
H       9.89926792      3.25977314      6.02536571
H       9.13263188      1.70505982      9.71718512
H      10.07370782     14.32710824     12.00578923
H      -1.31046131     15.40584731     23.50078330
H       3.89890876      2.48889817     -4.45842981
H       6.27745960      2.60745317     -1.84848240
H      -3.02922606     14.64641905     10.88128340
H       1.15960888     -4.87566759      1.05075176
H       0.95190685      2.35750676    -15.22215893
H       9.32274562     -2.94445170      3.95621918
H      10.82276280     -6.52577072     -7.20329984
H      -3.37270765     14.66880232     12.86232070
