   94

C      10.83133376     -8.23528285     -9.00310541
C      -0.18131205    -11.29260759    -10.07393078
H      10.94068877     -7.32087930     -8.17628900
C      -0.25131623     -0.95396446      8.29167760
H      -5.25005680      7.37779214     -2.32618301
H      -0.41513886    -10.50450656     -9.25027611
C       0.95142043     -1.04228461      9.39929859
H      10.02940433     -8.94118071     -8.37530559
H      -8.82389101     -7.11496087    -18.93572149
H      -8.81617982     -7.88435486    -18.80776282
C       4.54932315     -0.68803040     -4.21732824
H      16.26525229      6.32974144     13.57266113
C       8.30796009     -9.94083070      5.44786920
H       8.57522229     12.65625615      2.16800157
H       8.48279186     -9.29899074      4.48054326
H       2.50425844    -10.90118632     17.33758517
C       6.58980007    -10.69755768      7.46015726
H       5.49085902    -10.76317057      6.96338940
C       8.16750105     12.77313201      4.60459056
H       6.28023080    -10.51515319      8.61341735
H       9.92417955     13.64754661      5.98105025
H       7.07924170     13.31830103      4.50138532
C       8.65833779     11.99965532      3.20847115
H      16.85665692      2.91566089     -5.08201493
C      15.75282822      2.69569544     -4.97145247
H       2.85325364      0.15390252     -3.46370508
H       8.07892324     10.92603889      3.02093186
H      -2.53866815     10.59090038     11.83149567
C      12.21395393     -8.98966996     -9.67152317
H      -1.28703220     -0.59062787      8.81927704
H      -5.09048689      7.46585777     -0.73657755
C       1.62321681     -2.78703179     -3.42597176
H       0.95478175     -2.16882937      9.85271645
C       1.47819573    -10.71751696     17.93036419
H       1.26300123     -2.76627093     -2.27366421
H     -10.96213609    -12.27297242     15.66815272
H       1.07348491     -9.60107587     18.09678088
C       0.27995963     -0.96191978     -5.33358430
H      -1.93846616      7.84172794     -1.24997757
C      -2.48602324     10.07072179     -1.73164568
H      -0.72421018     -0.77852489     -5.94680472
H      -2.65690496     10.77138067     -0.72864070
H      -1.30797839     10.27408490     -2.04586386
H      -2.98352737     10.79233581     -2.59717187
H      12.48682966     -8.65591869    -10.83544355
H      12.04692002    -10.15692173    -10.06109577
H      14.01456106     -9.64958716     -7.87768036
H       3.43038700      1.25135018      7.83207426
H       1.44125381      1.04787295     10.40221496
H       0.85684386    -11.65028868     18.35672652
H       7.05386675     -0.46482079     -4.46827193
H      -9.42675544     -2.95204824     23.99740376
H       6.32350619     15.05683013     16.32113122
H       9.32529057     11.88592423      6.54212977
H       3.04568092     -0.52488571     12.29413485
H      26.59648769      7.39426669     -2.17327341
H      -4.57246620      9.51177598     11.49105931
H      27.28666125      7.54264242     -1.84154386
H       0.58383873     -2.02990578      6.20247446
H       8.36467284    -11.99796475      6.47246932
H      10.04640250     -7.62910734     -9.74503551
H       4.33266011     -0.64237071     11.02456302
C      -0.26351011     -1.25774391      6.65496813
C     -10.36016020    -12.21606716     16.66242232
C       2.83791952      0.75829842      8.71869386
C       2.05200170      0.07738878      9.94860086
C       6.06166207     -0.39615730     -3.80802036
C       8.17099942     13.69783943      7.29806374
C       3.15867788     -0.36668342     11.10131559
C      -3.55556718     10.05133818     11.66127749
C       8.91590795     12.95154942      6.08053853
C      -4.24320328      7.41832317     -1.62661392
C       1.57000655     -1.62079585     -4.59426940
C       2.94940148     -0.75140711     -4.24063635
C      13.62284637     -8.94330256     -8.77943241
C      -2.93627452      8.46673720     -1.55850626
C       8.08385156    -10.83620094      6.76591592
H       9.82959605     11.65296814      3.04201965
H       0.05250681    -12.08070892    -10.89758741
H      -1.26859723     -1.80376475      6.19467042
H      -9.29845674     -2.27982476     24.37164303
H      -9.75818431    -12.15916191     17.65669192
H      16.08941789      7.08319455     13.47371370
H       6.52872976     -0.01734628     -2.77037938
H       7.01972430     15.26343915     16.60572420
H       7.70911405     14.64354074      7.82100400
H       1.14583637     -2.33514178     -5.47328659
H      -3.83001175      6.27938766     -1.86928855
H      -7.60020280     21.22156798      9.78123602
H       2.10040891     -3.89613452     -3.51414337
H      -0.12573638     -0.24957697      5.95722266
H       9.03057183    -10.54128615      7.49363022
H      14.56102462     -8.17890910     -8.81674949
H      -7.73341433     21.23018717     10.54972831
   94

C      10.83134692     -8.23531871     -9.00313523
C      -0.18134238    -11.29270649    -10.07398853
H      10.94075336     -7.32046142     -8.17682742
C      -0.25138583     -0.95376895      8.29182203
H      -5.24348630      7.38823755     -2.33565485
H      -0.41517105    -10.50460721     -9.25033304
C       0.95174270     -1.04215366      9.39897881
H      10.02980049     -8.94114207     -8.37476249
H      -8.82389151     -7.11496104    -18.93572188
H      -8.81618030     -7.88435503    -18.80776319
C       4.56670655     -0.68980898     -4.24053258
H      16.26525216      6.32974254     13.57266179
C       8.30787365     -9.94086717      5.44808998
H       8.57471582     12.65606203      2.16592578
H       8.48179964     -9.29858813      4.48089780
H       2.50425840    -10.90118666     17.33758564
C       6.58991025    -10.69747202      7.45994799
H       5.49107369    -10.76328972      6.96296763
C       8.16870420     12.77266776      4.60233767
H       6.28013028    -10.51432640      8.61302804
H       9.92934112     13.64515063      5.98009580
H       7.07935312     13.31606556      4.50094649
C       8.65837283     11.99884906      3.20603127
H      16.85667854      2.91566806     -5.08201613
C      15.75284986      2.69570531     -4.97145272
H       2.85382705      0.15882868     -3.47487116
H       8.07860791     10.92528714      3.01891820
H      -2.53866835     10.59090177     11.83149734
C      12.21400218     -8.98960774     -9.67158259
H      -1.28696629     -0.59036477      8.81965294
H      -5.08359390      7.46837011     -0.72981776
C       1.62590846     -2.78726976     -3.42447704
H       0.95591060     -2.16904895      9.85151799
C       1.47819570    -10.71751727     17.93036465
H       1.25805528     -2.76558935     -2.27455812
H     -10.96213626    -12.27297256     15.66815294
H       1.07348485     -9.60107620     18.09678142
C       0.29065243     -0.96189756     -5.32358870
H      -1.93570806      7.83911653     -1.24673157
C      -2.48771023     10.06912067     -1.73169430
H      -0.71344140     -0.76843361     -5.93321972
H      -2.66009681     10.76921222     -0.72857800
H      -1.31076367     10.27669399     -2.04693903
H      -2.98946048     10.78647890     -2.59832935
H      12.48696998     -8.65564067    -10.83541963
H      12.04693536    -10.15678644    -10.06136022
H      14.01449573     -9.64992455     -7.87776892
H       3.43078442      1.25175980      7.83227231
H       1.44126055      1.04821079     10.40197989
H       0.85684379    -11.65028900     18.35672691
H       6.95120138     -0.50005204     -4.55204117
H      -9.42675557     -2.95204828     23.99740397
H       6.32253824     15.05805102     16.32696042
H       9.32218116     11.88768348      6.54530944
H       3.04517236     -0.52405895     12.29433179
H      26.59648823      7.39426686     -2.17327341
H      -4.57246647      9.51177741     11.49106106
H      27.28666177      7.54264257     -1.84154382
H       0.58394569     -2.02976126      6.20272102
H       8.36496898    -11.99824783      6.47271113
H      10.04598594     -7.62976201     -9.74511540
H       4.33190992     -0.64413810     11.02450757
C      -0.26366281     -1.25786489      6.65518364
C     -10.36016035    -12.21606731     16.66242253
C       2.83815052      0.75878053      8.71881881
C       2.05203239      0.07768031      9.94849256
C       6.03747346     -0.38417724     -3.73888736
C       8.17196346     13.70493723      7.29028875
C       3.15832201     -0.36681157     11.10139894
C      -3.55556743     10.05133962     11.66127921
C       8.91824704     12.95284932      6.07750046
C      -4.24275315      7.41982821     -1.62633356
C       1.58541149     -1.62346113     -4.59550286
C       2.96392822     -0.75101310     -4.24538429
C      13.62283176     -8.94343647     -8.77938297
C      -2.93319164      8.46428384     -1.55668663
C       8.08407548    -10.83646880      6.76602831
H       9.82956015     11.65183804      3.03981708
H       0.05247796    -12.08080668    -10.89764557
H      -1.26858197     -1.80443762      6.19518157
H      -9.29845687     -2.27982480     24.37164324
H      -9.75818445    -12.15916205     17.65669212
H      16.08941759      7.08319560     13.47371431
H       6.55416258     -0.00397922     -2.73267249
H       7.01875598     15.26466027     16.61155412
H       7.70521311     14.63896765      7.82937822
H       1.18233421     -2.33526000     -5.48747481
H      -3.83704728      6.27841734     -1.86936182
H      -7.60020287     21.22156827      9.78123618
H       2.09907794     -3.89836372     -3.50715728
H      -0.12630188     -0.24975674      5.95727707
H       9.03091386    -10.54192141      7.49373837
H      14.56100973     -8.17903072     -8.81645360
H      -7.73341441     21.23018744     10.54972847
   94

C      10.83136334     -8.23534432     -9.00315848
C      -0.18137406    -11.29280360    -10.07404480
H      10.94081733     -7.32003232     -8.17735996
C      -0.25145481     -0.95357407      8.29196415
H      -5.23678332      7.39862001     -2.34509609
H      -0.41520421    -10.50470541     -9.25038882
C       0.95206439     -1.04202288      9.39865808
H      10.03019990     -8.94109545     -8.37421615
H      -8.82389190     -7.11496106    -18.93572184
H      -8.81618069     -7.88435505    -18.80776317
C       4.58754027     -0.69018191     -4.26042855
H      16.26525210      6.32974368     13.57266244
C       8.30778739     -9.94090393      5.44831094
H       8.57421109     12.65586822      2.16385848
H       8.48080907     -9.29818703      4.48125305
H       2.50425834    -10.90118701     17.33758612
C       6.59002042    -10.69738667      7.45973924
H       5.49128826    -10.76340894      6.96254670
C       8.16990271     12.77219875      4.60009486
H       6.28003005    -10.51350089      8.61263896
H       9.93449396     13.64272208      5.97914217
H       7.07946685     13.31382490      4.50050341
C       8.65840882     11.99804449      3.20360032
H      16.85667041      2.91566512     -5.08201609
C      15.75284182      2.69570156     -4.97145319
H       2.85553168      0.16324873     -3.48678628
H       8.07829471     10.92453668      3.01691317
H      -2.53866858     10.59090308     11.83149890
C      12.21404962     -8.98954003     -9.67163873
H      -1.28689987     -0.59010215      8.82002615
H      -5.07665013      7.47086521     -0.72307029
C       1.62913373     -2.78705527     -3.42310433
H       0.95703780     -2.16926706      9.85031929
C       1.47819563    -10.71751758     17.93036510
H       1.25334705     -2.76459967     -2.27571668
H     -10.96213638    -12.27297265     15.66815305
H       1.07348476     -9.60107653     18.09678194
C       0.30221800     -0.96182478     -5.31334044
H      -1.93298067      7.83650401     -1.24350130
C      -2.48940344     10.06751263     -1.73174651
H      -0.70185432     -0.75842456     -5.91921635
H      -2.66328430     10.76702889     -0.72851302
H      -1.31356835     10.27928690     -2.04801254
H      -2.99536523     10.78060809     -2.59947459
H      12.48710988     -8.65535774    -10.83539246
H      12.04695048    -10.15664587    -10.06162122
H      14.01442937     -9.65025557     -7.87785453
H       3.43118126      1.25216922      7.83247051
H       1.44126702      1.04854795     10.40174472
H       0.85684368    -11.65028932     18.35672730
H       6.83073487     -0.53586399     -4.63033342
H      -9.42675569     -2.95204832     23.99740414
H       6.32157149     15.05927051     16.33278234
H       9.31901365     11.88951263      6.54852663
H       3.04466494     -0.52323339     12.29452742
H      26.59648809      7.39426669     -2.17327354
H      -4.57246673      9.51177870     11.49106261
H      27.28666162      7.54264242     -1.84154394
H       0.58405318     -2.02961645      6.20296478
H       8.36526496    -11.99853085      6.47295316
H      10.04557362     -7.63040852     -9.74519066
H       4.33115811     -0.64590288     11.02445308
C      -0.26381463     -1.25798537      6.65539646
C     -10.36016048    -12.21606740     16.66242265
C       2.83838116      0.75926208      8.71894380
C       2.05206272      0.07797110      9.94838413
C       6.01875880     -0.37293378     -3.67461113
C       8.17295426     13.71226599      7.28240723
C       3.15796615     -0.36694000     11.10148178
C      -3.55556769     10.05134095     11.66128078
C       8.92056911     12.95416214      6.07448243
C      -4.24234762      7.42135468     -1.62606777
C       1.60230163     -1.62554827     -4.59684961
C       2.98131936     -0.75146675     -4.25001437
C      13.62281570     -8.94356355     -8.77932987
C      -2.93013384      8.46183581     -1.55488512
C       8.08429915    -10.83673663      6.76614094
H       9.82952554     11.65071054      3.03762653
H       0.05244779    -12.08090292    -10.89770211
H      -1.26856534     -1.80510922      6.19568879
H      -9.29845699     -2.27982484     24.37164341
H      -9.75818457    -12.15916214     17.65669224
H      16.08941735      7.08319670     13.47371490
H       6.57980707      0.00837782     -2.69904054
H       7.01778886     15.26587999     16.61737676
H       7.70136467     14.63412261      7.83777221
H       1.21952060     -2.33471236     -5.50086559
H      -3.84414499      6.27750844     -1.86942816
H      -7.60020291     21.22156851      9.78123631
H       2.09780918     -3.90030216     -3.50038226
H      -0.12686565     -0.24993642      5.95732854
H       9.03125549    -10.54255641      7.49384666
H      14.56099208     -8.17914412     -8.81615344
H      -7.73341448     21.23018767     10.54972860
   94

C      10.83137946     -8.23535606     -9.00317511
C      -0.18140618    -11.29289877    -10.07409989
H      10.94087704     -7.31958879     -8.17788609
C      -0.25152211     -0.95337956      8.29210292
H      -5.22995027      7.40893995     -2.35450625
H      -0.41523746    -10.50480114     -9.25044370
C       0.95238678     -1.04189214      9.39833496
H      10.03059886     -8.94103669     -8.37366593
H      -8.82389217     -7.11496095    -18.93572150
H      -8.81618095     -7.88435495    -18.80776286
C       4.60987242     -0.68964839     -4.27469885
H      16.26525191      6.32974476     13.57266288
C       8.30770104     -9.94094002      5.44853143
H       8.57370763     12.65567376      2.16180010
H       8.47981940     -9.29778613      4.48160844
H       2.50425828    -10.90118729     17.33758650
C       6.59013054    -10.69730093      7.45953045
H       5.49150274    -10.76352752      6.96212603
C       8.17109669     12.77172462      4.59786293
H       6.27993008    -10.51267601      8.61224955
H       9.93963318     13.64026253      5.97819198
H       7.07958263     13.31157809      4.50005622
C       8.65844520     11.99724072      3.20117884
H      16.85664968      2.91565782     -5.08201598
C      15.75282119      2.69569196     -4.97145453
H       2.85739363      0.16757447     -3.49881384
H       8.07798331     10.92378653      3.01491674
H      -2.53866866     10.59090421     11.83150022
C      12.21409285     -8.98946461     -9.67169070
H      -1.28683186     -0.58983994      8.82039586
H      -5.06965545      7.47334352     -0.71633326
C       1.63260971     -2.78657792     -3.42182146
H       0.95816441     -2.16948351      9.84911904
C       1.47819556    -10.71751783     17.93036547
H       1.24875806     -2.76345762     -2.27706054
H     -10.96213645    -12.27297270     15.66815310
H       1.07348468     -9.60107679     18.09678236
C       0.31434396     -0.96180719     -5.30300567
H      -1.93028487      7.83389225     -1.24028588
C      -2.49110273     10.06589900     -1.73180212
H      -0.68972463     -0.74848726     -5.90495188
H      -2.66646734     10.76483189     -0.72844552
H      -1.31639224     10.28186476     -2.04908428
H      -3.00124174     10.77472483     -2.60060755
H      12.48724622     -8.65506803    -10.83536122
H      12.04696215    -10.15649784    -10.06187800
H      14.01436054     -9.65058085     -7.87793841
H       3.43157884      1.25257720      7.83266501
H       1.44127451      1.04888463     10.40150736
H       0.85684359    -11.65028957     18.35672761
H       6.70178982     -0.57065059     -4.70028237
H      -9.42675578     -2.95204835     23.99740427
H       6.32060583     15.06048861     16.33859742
H       9.31578771     11.89141307      6.55177937
H       3.04415924     -0.52240877     12.29472002
H      26.59648765      7.39426638     -2.17327371
H      -4.57246683      9.51177979     11.49106390
H      27.28666118      7.54264215     -1.84154413
H       0.58416314     -2.02947091      6.20320440
H       8.36556065    -11.99881314      6.47319493
H      10.04516110     -7.63104164     -9.74525921
H       4.33040525     -0.64766508     11.02439765
C      -0.26396369     -1.25810516      6.65560561
C     -10.36016056    -12.21606745     16.66242270
C       2.83861294      0.75974302      8.71906593
C       2.05209412      0.07826158      9.94827318
C       6.00621561     -0.36269045     -3.62007437
C       8.17396924     13.71981796      7.27443008
C       3.15761095     -0.36706848     11.10156238
C      -3.55556780     10.05134208     11.66128210
C       8.92286959     12.95548952      6.07148815
C      -4.24198924      7.42290655     -1.62581551
C       1.62002809     -1.62730110     -4.59820351
C       2.99999361     -0.75205946     -4.25419872
C      13.62279611     -8.94368377     -8.77927359
C      -2.92710200      8.45939473     -1.55310145
C       8.08452250    -10.83700368      6.76625309
H       9.82949169     11.64958490      3.03544853
H       0.05241709    -12.08099749    -10.89775735
H      -1.26854579     -1.80577943      6.19619197
H      -9.29845708     -2.27982487     24.37164354
H      -9.75818466    -12.15916219     17.65669230
H      16.08941699      7.08319772     13.47371529
H       6.60216045      0.01868718     -2.67051462
H       7.01682282     15.26709831     16.62319259
H       7.69758032     14.62900260      7.84616275
H       1.25706813     -2.33370656     -5.51356983
H      -3.85130711      6.27666518     -1.86948713
H      -7.60020292     21.22156869      9.78123641
H       2.09654350     -3.90203289     -3.49380646
H      -0.12742581     -0.25011583      5.95737611
H       9.03159660    -10.54319045      7.49395450
H      14.56097072     -8.17925060     -8.81585041
H      -7.73341450     21.23018784     10.54972870
   94

C      10.83139237     -8.23535361     -9.00318633
C      -0.18143783    -11.29299198    -10.07415419
H      10.94093041     -7.31913059     -8.17840700
C      -0.25158706     -0.95318501      8.29223775
H      -5.22298677      7.41920466     -2.36388576
H      -0.41526986    -10.50489450     -9.25049802
C       0.95271097     -1.04176122      9.39800827
H      10.03099473     -8.94096454     -8.37311156
H      -8.82389226     -7.11496076    -18.93572099
H      -8.81618106     -7.88435477    -18.80776238
C       4.63241020     -0.68874060     -4.28368795
H      16.26525145      6.32974571     13.57266297
C       8.30761454     -9.94097482      5.44875109
H       8.57320502     12.65547740      2.15974933
H       8.47882903     -9.29738399      4.48196385
H       2.50425825    -10.90118746     17.33758670
C       6.59024070    -10.69721431      7.45932102
H       5.49171728    -10.76364513      6.96170482
C       8.17228772     12.77124549      4.59564087
H       6.27983027    -10.51185037      8.61185900
H       9.94475721     13.63777218      5.97724651
H       7.07970053     13.30932258      4.49960431
C       8.65848168     11.99643666      3.19876568
H      16.85662946      2.91565062     -5.08201619
C      15.75280105      2.69568252     -4.97145637
H       2.85896102      0.17202112     -3.51051381
H       8.07767334     10.92303562      3.01292744
H      -2.53866847     10.59090509     11.83150122
C      12.21412984     -8.98938101     -9.67173854
H      -1.28676144     -0.58957796      8.82076192
H      -5.06260875      7.47580717     -0.70960525
C       1.63609672     -2.78600660     -3.42060586
H       0.95929217     -2.16969838      9.84791532
C       1.47819554    -10.71751797     17.93036566
H       1.24419997     -2.76229496     -2.27852078
H     -10.96213648    -12.27297270     15.66815310
H       1.07348465     -9.60107694     18.09678259
C       0.32670866     -0.96195145     -5.29274032
H      -1.92761869      7.83128083     -1.23708236
C      -2.49280903     10.06427981     -1.73186093
H      -0.67733382     -0.73859794     -5.89057622
H      -2.66964845     10.76262152     -0.72837579
H      -1.31923715     10.28443017     -2.05015530
H      -3.00709397     10.76882697     -2.60172853
H      12.48737716     -8.65477097    -10.83532595
H      12.04696832    -10.15634179    -10.06213086
H      14.01428836     -9.65090217     -7.87802189
H       3.43197831      1.25298320      7.83285340
H       1.44128388      1.04922125     10.40126615
H       0.85684355    -11.65028972     18.35672778
H       6.57066635     -0.60367578     -4.76146316
H      -9.42675584     -2.95204838     23.99740433
H       6.31964007     15.06170673     16.34441269
H       9.31250061     11.89338715      6.55506627
H       3.04365528     -0.52158413     12.29490858
H      26.59648720      7.39426608     -2.17327387
H      -4.57246667      9.51178066     11.49106490
H      27.28666073      7.54264189     -1.84154430
H       0.58427685     -2.02932418      6.20343897
H       8.36585609    -11.99909442      6.47343608
H      10.04474442     -7.63166017     -9.74532060
H       4.32965104     -0.64942650     11.02434001
C      -0.26410893     -1.25822427      6.65581060
C     -10.36016060    -12.21606746     16.66242271
C       2.83884705      0.76022363      8.71918333
C       2.05212761      0.07855234      9.94815797
C       5.99967915     -0.35335817     -3.57651853
C       8.17500721     13.72758980      7.26636346
C       3.15725663     -0.36719677     11.10163965
C      -3.55556764     10.05134298     11.66128311
C       8.92514549     12.95683454      6.06851916
C      -4.24167875      7.42448787     -1.62557523
C       1.63801240     -1.62892585     -4.59948185
C       3.01879446     -0.75233128     -4.25779091
C      13.62277188     -8.94379836     -8.77921499
C      -2.92409362      8.45695990     -1.55133407
C       8.08474567    -10.83726963      6.76636431
H       9.82945820     11.64845980      3.03328159
H       0.05238665    -12.08109034    -10.89781169
H      -1.26852235     -1.80644884      6.19669157
H      -9.29845715     -2.27982490     24.37164361
H      -9.75818470    -12.15916221     17.65669231
H      16.08941635      7.08319863     13.47371531
H       6.61984187      0.02680920     -2.64630181
H       7.01585666     15.26831666     16.62900864
H       7.69386868     14.62360197      7.85453180
H       1.29465983     -2.33242719     -5.52566619
H      -3.85853817      6.27589101     -1.86953959
H      -7.60020286     21.22156880      9.78123649
H       2.09524367     -3.90363406     -3.48741141
H      -0.12798186     -0.25029503      5.95741910
H       9.03193730    -10.54382345      7.49406151
H      14.56094548     -8.17935249     -8.81554583
H      -7.73341446     21.23018794     10.54972877
   94

C      10.83140052     -8.23533812     -9.00319339
C      -0.18146837    -11.29308323    -10.07420798
H      10.94097655     -7.31865882     -8.17892409
C      -0.25164948     -0.95299016      8.29236841
H      -5.21589168      7.42941934     -2.37323522
H      -0.41530076    -10.50498557     -9.25055200
C       0.95303746     -1.04162994      9.39767743
H      10.03138623     -8.94087952     -8.37255314
H      -8.82389217     -7.11496050    -18.93572037
H      -8.81618098     -7.88435452    -18.80776180
C       4.65487017     -0.68778243     -4.28954537
H      16.26525064      6.32974650     13.57266262
C       8.30752795     -9.94100817      5.44896986
H       8.57270296     12.65527848      2.15770518
H       8.47783671     -9.29697983      4.48231942
H       2.50425827    -10.90118748     17.33758667
C       6.59035096    -10.69712664      7.45911060
H       5.49193204    -10.76376172      6.96128256
C       8.17347736     12.77076202      4.59342805
H       6.27973051    -10.51102293      8.61146678
H       9.94986404     13.63525185      5.97630751
H       7.07982069     13.30705642      4.49914748
C       8.65851817     11.99563187      3.19636003
H      16.85661548      2.91564550     -5.08201664
C      15.75278710      2.69567585     -4.97145812
H       2.86030748      0.17654853     -3.52185700
H       8.07736457     10.92228363      3.01094415
H      -2.53866796     10.59090570     11.83150186
C      12.21415992     -8.98928969     -9.67178267
H      -1.28668828     -0.58931607      8.82112443
H      -5.05550818      7.47825711     -0.70288531
C       1.63949272     -2.78541888     -3.41945982
H       0.96042232     -2.16991181      9.84670679
C       1.47819556    -10.71751799     17.93036565
H       1.23964222     -2.76116667     -2.28007606
H     -10.96213648    -12.27297268     15.66815309
H       1.07348467     -9.60107696     18.09678259
C       0.33913217     -0.96230969     -5.28262738
H      -1.92498006      7.82866863     -1.23388847
C      -2.49452325     10.06265457     -1.73192286
H      -0.66483891     -0.72873620     -5.87616799
H      -2.67283001     10.76039761     -0.72830421
H      -1.32210487     10.28698518     -2.05122662
H      -3.01292545     10.76291220     -2.60283779
H      12.48750208     -8.65446684    -10.83528699
H      12.04696829    -10.15617812    -10.06238049
H      14.01421250     -9.65122102     -7.87810583
H       3.43238014      1.25338721      7.83303489
H       1.44129541      1.04955815     10.40102035
H       0.85684358    -11.65028973     18.35672778
H       6.43941767     -0.63474555     -4.81405175
H      -9.42675586     -2.95204839     23.99740435
H       6.31867309     15.06292622     16.35023470
H       9.30915037     11.89543728      6.55838558
H       3.04315281     -0.52075860     12.29509283
H      26.59648689      7.39426585     -2.17327398
H      -4.57246622      9.51178129     11.49106562
H      27.28666041      7.54264169     -1.84154441
H       0.58439468     -2.02917601      6.20366803
H       8.36615133    -11.99937472      6.47367646
H      10.04432130     -7.63226504     -9.74537517
H       4.32889492     -0.65118885     11.02427976
C      -0.26425013     -1.25834277      6.65601124
C     -10.36016060    -12.21606745     16.66242270
C       2.83908399      0.76070420      8.71929538
C       2.05216353      0.07884371      9.94803779
C       5.99815999     -0.34480114     -3.54259252
C       8.17606660     13.73557611      7.25821560
C       3.15690306     -0.36732475     11.10171322
C      -3.55556717     10.05134362     11.66128380
C       8.92739373     12.95820049      6.06557748
C      -4.24141629      7.42610130     -1.62534583
C       1.65598464     -1.63051448     -4.60066693
C       3.03738527     -0.75222295     -4.26089843
C      13.62274264     -8.94390859     -8.77915477
C      -2.92110612      8.45453002     -1.54958191
C       8.08496880    -10.83753448      6.76647445
H       9.82942485     11.64733458      3.03112454
H       0.05235699    -12.08118150    -10.89786539
H      -1.26849477     -1.80711804      6.19718795
H      -9.29845717     -2.27982491     24.37164363
H      -9.75818470    -12.15916220     17.65669230
H      16.08941537      7.08319937     13.47371490
H       6.63326450      0.03312124     -2.62518491
H       7.01488925     15.26953638     16.63483152
H       7.69023888     14.61791717      7.86285960
H       1.33210966     -2.33098271     -5.53718967
H      -3.86584158      6.27518823     -1.86958672
H      -7.60020273     21.22156884      9.78123653
H       2.09390238     -3.90514541     -3.48118672
H      -0.12853415     -0.25047418      5.95745708
H       9.03227776    -10.54445558      7.49416762
H      14.56091648     -8.17945163     -8.81524047
H      -7.73341435     21.23018799     10.54972881
   94

C      10.83140332     -8.23531092     -9.00319713
C      -0.18149754    -11.29317247    -10.07426135
H      10.94101514     -7.31817492     -8.17943812
C      -0.25170952     -0.95279500      8.29249492
H      -5.20866544      7.43958150     -2.38255472
H      -0.41532985    -10.50507430     -9.25060573
C       0.95336610     -1.04149831      9.39734247
H      10.03177287     -8.94078276     -8.37199123
H      -8.82389186     -7.11496018    -18.93571966
H      -8.81618070     -7.88435420    -18.80776114
C       4.67735522     -0.68690735     -4.29480938
H      16.26524948      6.32974713     13.57266183
C       8.30744128     -9.94104013      5.44918782
H       8.57220132     12.65507740      2.15566834
H       8.47684233     -9.29657364      4.48267524
H       2.50425833    -10.90118737     17.33758644
C       6.59046131    -10.69703796      7.45889918
H       5.49214700    -10.76387735      6.96085924
C       8.17466603     12.77027514      4.59122577
H       6.27963078    -10.51019360      8.61107287
H       9.95494822     13.63270472      5.97537852
H       7.07994313     13.30477984      4.49868669
C       8.65855456     11.99482707      3.19396283
H      16.85660811      2.91564262     -5.08201712
C      15.75277971      2.69567215     -4.97145938
H       2.86172378      0.18098992     -3.53308041
H       8.07705697     10.92153123      3.00896742
H      -2.53866713     10.59090604     11.83150216
C      12.21418312     -8.98919142     -9.67182350
H      -1.28661250     -0.58905424      8.82148353
H      -5.04835203      7.48069156     -0.69617273
C       1.64280261     -2.78482312     -3.41839971
H       0.96155487     -2.17012383      9.84549339
C       1.47819564    -10.71751788     17.93036545
H       1.23509547     -2.76006341     -2.28174035
H     -10.96213644    -12.27297263     15.66815305
H       1.07348474     -9.60107685     18.09678238
C       0.35157103     -0.96287328     -5.27268657
H      -1.92236902      7.82605563     -1.23070439
C      -2.49624541     10.06102337     -1.73198795
H      -0.65227722     -0.71889262     -5.86174355
H      -2.67601219     10.75816021     -0.72823082
H      -1.32499545     10.28953008     -2.05229828
H      -3.01873632     10.75698095     -2.60393535
H      12.48762105     -8.65415634    -10.83524475
H      12.04696225    -10.15600759    -10.06262737
H      14.01413302     -9.65153808     -7.87819053
H       3.43278413      1.25378934      7.83320969
H       1.44130898      1.04989534     10.40077007
H       0.85684367    -11.65028962     18.35672761
H       6.30813986     -0.66373188     -4.85779431
H      -9.42675584     -2.95204840     23.99740430
H       6.31770478     15.06414724     16.35606415
H       9.30573847     11.89756474      6.56173413
H       3.04265175     -0.51993213     12.29527290
H      26.59648670      7.39426571     -2.17327403
H      -4.57246548      9.51178170     11.49106606
H      27.28666022      7.54264156     -1.84154446
H       0.58451628     -2.02902640      6.20389147
H       8.36644639    -11.99965411      6.47391610
H      10.04389100     -7.63285735     -9.74542343
H       4.32813672     -0.65295233     11.02421702
C      -0.26438763     -1.25846067      6.65620751
C     -10.36016055    -12.21606740     16.66242266
C       2.83932354      0.76118474      8.71940225
C       2.05220172      0.07913570      9.94791279
C       6.00012153     -0.33698920     -3.51608422
C       8.17714378     13.74376290      7.25000250
C       3.15655014     -0.36745244     11.10178322
C      -3.55556639     10.05134401     11.66128417
C       8.92960991     12.95958978      6.06266742
C      -4.24120273      7.42774789     -1.62512708
C       1.67388659     -1.63209856     -4.60179207
C       3.05584957     -0.75191973     -4.26376328
C      13.62270851     -8.94401526     -8.77909337
C      -2.91813957      8.45210496     -1.54784547
C       8.08519192    -10.83779832      6.76658357
H       9.82939154     11.64620988      3.02897809
H       0.05232831    -12.08127091    -10.89791853
H      -1.26846333     -1.80778712      6.19768108
H      -9.29845715     -2.27982492     24.37164359
H      -9.75818466    -12.15916216     17.65669226
H      16.08941404      7.08319996     13.47371405
H       6.64358891      0.03804379     -2.60647923
H       7.01392046     15.27075764     16.64066193
H       7.68670308     14.61195180      7.87111908
H       1.36933820     -2.32943337     -5.54817003
H      -3.87321746      6.27455838     -1.86962905
H      -7.60020253     21.22156882      9.78123655
H       2.09252839     -3.90657713     -3.47513228
H      -0.12908311     -0.25065338      5.95748986
H       9.03261801    -10.54508692      7.49427287
H      14.56088392     -8.17954888     -8.81493478
H      -7.73341417     21.23018797     10.54972882
   94

C      10.83140084     -8.23527361     -9.00319827
C      -0.18152531    -11.29325955    -10.07431423
H      10.94104631     -7.31768074     -8.17994954
C      -0.25176756     -0.95259971      8.29261758
H      -5.20130978      7.44968391     -2.39184403
H      -0.41535704    -10.50516052     -9.25065916
C       0.95369642     -1.04136643      9.39700388
H      10.03215450     -8.94067576     -8.37142666
H      -8.82389134     -7.11495979    -18.93571884
H      -8.81618021     -7.88435382    -18.80776038
C       4.69989493     -0.68614614     -4.30138285
H      16.26524803      6.32974760     13.57266062
C       8.30735448     -9.94107083      5.44940502
H       8.57170008     12.65487518      2.15364063
H       8.47584651     -9.29616592      4.48303127
H       2.50425841    -10.90118714     17.33758601
C       6.59057171    -10.69694840      7.45868699
H       5.49236209    -10.76399211      6.96043514
C       8.17585341     12.76978597      4.58903647
H       6.27953114    -10.50936295      8.61067756
H       9.96000188     13.63013575      5.97446428
H       7.08006787     13.30249460      4.49822376
C       8.65859074     11.99402357      3.19157613
H      16.85660533      2.91564132     -5.08201742
C      15.75277690      2.69567056     -4.97145997
H       2.86342892      0.18520592     -3.54443504
H       8.07675064     10.92077965      3.00699880
H      -2.53866603     10.59090615     11.83150213
C      12.21419998     -8.98908713     -9.67186145
H      -1.28653448     -0.58879257      8.82183940
H      -5.04113888      7.48310696     -0.68946691
C       1.64606938     -2.78420724     -3.41743688
H       0.96268903     -2.17033440      9.84427598
C       1.47819575    -10.71751766     17.93036509
H       1.23058163     -2.75895195     -2.28353274
H     -10.96213636    -12.27297256     15.66815298
H       1.07348485     -9.60107663     18.09678198
C       0.36405058     -0.96359628     -5.26290798
H      -1.91978705      7.82344280     -1.22753183
C      -2.49797493     10.05938679     -1.73205628
H      -0.63962634     -0.70906367     -5.84728930
H      -2.67919369     10.75590966     -0.72815540
H      -1.32790779     10.29206410     -2.05336971
H      -3.02452453     10.75103551     -2.60502108
H      12.48773453     -8.65384043    -10.83519964
H      12.04695083    -10.15583119    -10.06287178
H      14.01405026     -9.65185351     -7.87827596
H       3.43318974      1.25418973      7.83337861
H       1.44132424      1.05023263     10.40051596
H       0.85684380    -11.65028939     18.35672730
H       6.17696261     -0.69046488     -4.89234315
H      -9.42675578     -2.95204840     23.99740421
H       6.31673568     15.06536912     16.36189774
H       9.30226922     11.89976949      6.56510734
H       3.04215213     -0.51910517     12.29544914
H      26.59648658      7.39426561     -2.17327402
H      -4.57246450      9.51178191     11.49106621
H      27.28666010      7.54264147     -1.84154447
H       0.58464093     -2.02887555      6.20410965
H       8.36674124    -11.99993260      6.47415509
H      10.04345375     -7.63343840     -9.74546605
H       4.32737662     -0.65471609     11.02415221
C      -0.26452200     -1.25857797      6.65639965
C     -10.36016048    -12.21606733     16.66242259
C       2.83956518      0.76166510      8.71950454
C       2.05224179      0.07942805      9.94778360
C       6.00392580     -0.32998642     -3.49499891
C       8.17823349     13.75212842      7.24174635
C       3.15619781     -0.36757992     11.10185003
C      -3.55556536     10.05134417     11.66128423
C       8.93178890     12.96100399      6.05979468
C      -4.24103961      7.42942788     -1.62491914
C       1.69171548     -1.63371001     -4.60290213
C       3.07427461     -0.75162927     -4.26659054
C      13.62266990     -8.94411886     -8.77903106
C      -2.91519583      8.44968556     -1.54612614
C       8.08541494    -10.83806116      6.76669177
H       9.82935817     11.64508717      3.02684422
H       0.05230062    -12.08135845    -10.89797104
H      -1.26842860     -1.80845582      6.19817088
H      -9.29845709     -2.27982492     24.37164350
H      -9.75818459    -12.15916209     17.65669220
H      16.08941242      7.08320038     13.47371279
H       6.65189454      0.04184773     -2.59007064
H       7.01295085     15.27197978     16.64649656
H       7.68327515     14.60571636      7.87927790
H       1.40632017     -2.32782315     -5.55865423
H      -3.88066380      6.27400277     -1.86966667
H      -7.60020226     21.22156873      9.78123655
H       2.09113430     -3.90793073     -3.46925006
H      -0.12962906     -0.25083263      5.95751771
H       9.03295795    -10.54571741      7.49437732
H      14.56084807     -8.17964460     -8.81462903
H      -7.73341394     21.23018788     10.54972881
   94

C      10.83139349     -8.23522829     -9.00319758
C      -0.18155182    -11.29334429    -10.07436645
H      10.94107079     -7.31717870     -8.18045892
C      -0.25182401     -0.95240448      8.29273700
H      -5.19382656      7.45971930     -2.40110289
H      -0.41538242    -10.50524401     -9.25071216
C       0.95402788     -1.04123440      9.39666239
H      10.03253139     -8.94056049     -8.37086032
H      -8.82389059     -7.11495930    -18.93571786
H      -8.81617951     -7.88435334    -18.80775946
C       4.72244683     -0.68549455     -4.31034115
H      16.26524632      6.32974793     13.57265905
C       8.30726756     -9.94110045      5.44962151
H       8.57119921     12.65467296      2.15162384
H       8.47484995     -9.29575717      4.48338745
H       2.50425852    -10.90118682     17.33758544
C       6.59068214    -10.69685812      7.45847424
H       5.49257726    -10.76410611      6.96001060
C       8.17703922     12.76929580      4.58686258
H       6.27943166    -10.50853159      8.61028118
H       9.96501701     13.62755043      5.97356959
H       7.08019499     13.30020273      4.49776072
C       8.65862657     11.99322281      3.18920197
H      16.85660452      2.91564076     -5.08201734
C      15.75277610      2.69566999     -4.97145979
H       2.86549569      0.18913678     -3.55606654
H       8.07644572     10.92003021      3.00503980
H      -2.53866472     10.59090607     11.83150182
C      12.21421143     -8.98897802     -9.67189704
H      -1.28645470     -0.58853110      8.82219246
H      -5.03386746      7.48549954     -0.68276744
C       1.64933462     -2.78356193     -3.41656974
H       0.96382398     -2.17054350      9.84305561
C       1.47819590    -10.71751737     17.93036459
H       1.22611702     -2.75780286     -2.28546164
H     -10.96213626    -12.27297247     15.66815290
H       1.07348500     -9.60107632     18.09678143
C       0.37661827     -0.96441828     -5.25327097
H      -1.91723555      7.82083133     -1.22437255
C      -2.49971119     10.05774542     -1.73212794
H      -0.62684592     -0.69924645     -5.83278153
H      -2.68237315     10.75364633     -0.72807770
H      -1.33084070     10.29458652     -2.05444030
H      -3.03028803     10.74507820     -2.60609487
H      12.48784334     -8.65352032    -10.83515223
H      12.04693496    -10.15565013    -10.06311409
H      14.01396474     -9.65216742     -7.87836193
H       3.43359644      1.25458863      7.83354280
H       1.44134081      1.05056979     10.40025892
H       0.85684398    -11.65028908     18.35672689
H       6.04636746     -0.71483521     -4.91776361
H      -9.42675569     -2.95204839     23.99740408
H       6.31576637     15.06659121     16.36773203
H       9.29874793     11.90205074      6.56849985
H       3.04165401     -0.51827821     12.29562206
H      26.59648646      7.39426552     -2.17327399
H      -4.57246332      9.51178194     11.49106614
H      27.28665998      7.54264139     -1.84154443
H       0.58476785     -2.02872372      6.20432334
H       8.36703586    -12.00021023      6.47439352
H      10.04301033     -7.63401022     -9.74550405
H       4.32661479     -0.65647928     11.02408590
C      -0.26465393     -1.25869471      6.65658825
C     -10.36016038    -12.21606724     16.66242250
C       2.83980833      0.76214513      8.71960314
C       2.05228327      0.07972051      9.94765112
C       6.00819878     -0.32387737     -3.47784642
C       8.17932996     13.76064714      7.23347135
C       3.15584600     -0.36770733     11.10191421
C      -3.55556412     10.05134416     11.66128404
C       8.93392591     12.96244440      6.05696473
C      -4.24092848      7.43114152     -1.62472210
C       1.70947114     -1.63538598     -4.60402655
C       3.09266966     -0.75148443     -4.26946875
C      13.62262750     -8.94421997     -8.77896807
C      -2.91227685      8.44727270     -1.54442530
C       8.08563779    -10.83832307      6.76679916
H       9.82932470     11.64396794      3.02472477
H       0.05227376    -12.08144395    -10.89802273
H      -1.26839130     -1.80912394      6.19865762
H      -9.29845701     -2.27982492     24.37164338
H      -9.75818449    -12.15916200     17.65669211
H      16.08941055      7.08320067     13.47371117
H       6.65887281      0.04468352     -2.57604053
H       7.01198099     15.27320211     16.65233198
H       7.67996837     14.59922557      7.88730312
H       1.44306146     -2.32618350     -5.56869353
H      -3.88817831      6.27352273     -1.86969963
H      -7.60020193     21.22156858      9.78123651
H       2.08973281     -3.90920766     -3.46353807
H      -0.13017248     -0.25101192      5.95754137
H       9.03329754    -10.54634701      7.49448105
H      14.56080942     -8.17973906     -8.81432335
H      -7.73341364     21.23018774     10.54972877
   94

C      10.83135352     -8.23513031     -9.00318205
C      -0.18156192    -11.29342002    -10.07441688
H      10.94107660     -7.31657652     -8.18100274
C      -0.25194816     -0.95220184      8.29289944
H      -5.18085303      7.47373867     -2.41887230
H      -0.41538673    -10.50531891     -9.25076172
C       0.95447188     -1.04109611      9.39615600
H      10.03289479     -8.94039538     -8.37025524
H      -8.82389101     -7.11496087    -18.93572149
H      -8.81617982     -7.88435486    -18.80776282
C       4.77427223     -0.68558963     -4.34953087
H      16.26525229      6.32974144     13.57266113
C       8.30692347     -9.94104540      5.44988916
H       8.57026653     12.65488111      2.14916280
H       8.47368069     -9.29530390      4.48378980
H       2.50425844    -10.90118632     17.33758517
C       6.59080939    -10.69662826      7.45817895
H       5.49284760    -10.76417039      6.95943310
C       8.17823914     12.76826617      4.58420518
H       6.27929603    -10.50762564      8.60979559
H       9.97178560     13.62426279      5.97326507
H       7.08027206     13.29740902      4.49775846
C       8.65855574     11.99225825      3.18604984
H      16.85665692      2.91566089     -5.08201493
C      15.75282822      2.69569544     -4.97145247
H       2.87771987      0.18614593     -3.57997297
H       8.07593698     10.91905385      3.00257853
H      -2.53866815     10.59090038     11.83149567
C      12.21418433     -8.98883612     -9.67191811
H      -1.28639037     -0.58812453      8.82262462
H      -5.01998879      7.48839792     -0.66927614
C       1.65481985     -2.78026822     -3.41583666
H       0.96521151     -2.17080157      9.84151000
C       1.47819573    -10.71751696     17.93036419
H       1.22126628     -2.75586022     -2.28849727
H     -10.96213609    -12.27297242     15.66815272
H       1.07348491     -9.60107587     18.09678088
C       0.39555825     -0.96028505     -5.23395889
H      -1.91448385      7.81720619     -1.22009491
C      -2.50231721     10.05541030     -1.73232336
H      -0.60692941     -0.68757615     -5.81161283
H      -2.68655683     10.74979728     -0.72754148
H      -1.33502469     10.29818882     -2.05566828
H      -3.03863355     10.73604694     -2.60800370
H      12.48794127     -8.65313743    -10.83507722
H      12.04687630    -10.15543163    -10.06336050
H      14.01386586     -9.65249796     -7.87845783
H       3.43409245      1.25507844      7.83371755
H       1.44138697      1.05100899     10.39990120
H       0.85684386    -11.65028868     18.35672652
H       5.80688753     -0.75074515     -4.93629232
H      -9.42675544     -2.95204824     23.99740376
H       6.31478886     15.06785132     16.37366327
H       9.29457240     11.90553913      6.57417439
H       3.04099722     -0.51732774     12.29580393
H      26.59648769      7.39426669     -2.17327341
H      -4.57246620      9.51177598     11.49105931
H      27.28666125      7.54264242     -1.84154386
H       0.58495782     -2.02856776      6.20468951
H       8.36751516    -12.00052679      6.47481168
H      10.04246873     -7.63458910     -9.74550906
H       4.32569821     -0.65851718     11.02388296
C      -0.26479539     -1.25882780      6.65682435
C     -10.36016020    -12.21606716     16.66242232
C       2.84007461      0.76279200      8.71971398
C       2.05232299      0.08006129      9.94747459
C       6.00466551     -0.31214766     -3.43883716
C       8.17977809     13.77083288      7.22319769
C       3.15536723     -0.36802206     11.10194819
C      -3.55556718     10.05133818     11.66127749
C       8.93684900     12.96424227      6.05339516
C      -4.24215401      7.43414134     -1.62473083
C       1.73933038     -1.63405136     -4.60628406
C       3.13460915     -0.75757310     -4.28221716
C      13.62255751     -8.94432529     -8.77889797
C      -2.90926404      8.44413608     -1.54219402
C       8.08589784    -10.83861360      6.76691800
H       9.82923753     11.64260832      3.02229717
H       0.05225894    -12.08152127    -10.89807302
H      -1.26830313     -1.80993143      6.19920568
H      -9.29845674     -2.27982476     24.37164303
H      -9.75818431    -12.15916191     17.65669192
H      16.08941789      7.08319455     13.47371370
H       6.66998024      0.05100800     -2.54989982
H       7.01100691     15.27446031     16.65825623
H       7.67625530     14.59135583      7.89703805
H       1.50246185     -2.32299186     -5.58236026
H      -3.90082550      6.27297218     -1.86887874
H      -7.60020280     21.22156798      9.78123602
H       2.08772819     -3.90899399     -3.45619333
H      -0.13071415     -0.25124992      5.95755078
H       9.03376789    -10.54724074      7.49457565
H      14.56074608     -8.17983963     -8.81399954
H      -7.73341433     21.23018717     10.54972831
