   94

C      -6.06429204     -0.93021026     -2.20072026
C      -4.47027535     -1.25519841     -1.60692306
H      -6.05076697     -0.17295448     -3.19082716
C      -7.36229200     -0.50188456     -1.12957950
H      -6.36899940     -1.80611911     -3.03156249
H      -4.12674500     -0.11509185     -1.27899964
C      -2.86793095     -1.74069689     -1.86837111
H      -4.71674342     -2.23942741     -0.89851973
H      -6.11714691     -3.88520723    -11.51204565
H      -6.10943573     -4.65460122    -11.38408698
C      -1.62215670     -1.53085571     -2.97983919
H      -2.19090781     -1.07528638     -3.98370673
C      -0.08113246     -0.78280269     -2.69835126
H      -1.57573999     -2.66612920     -3.48669989
H      -0.00524772      0.23016271     -3.42225074
H       0.69673577     -1.37453380     -3.48051305
C       0.71591116     -0.41850507     -1.18527214
H       1.90987874     -0.15185672     -1.45666011
C       0.11036683      0.58632042      0.13144975
H       1.25989079     -1.45970880     -0.76999033
H      -0.36218560      1.61147725     -0.37890082
H       1.04086727      1.37695412      0.38718587
C      -0.78257940      0.21588906      1.62168956
H       0.02274117      0.36870079      2.55497534
C       3.21431922      3.53425931    -10.57049663
H      -0.52214224     -0.96658793      1.87661617
H       2.56831241      4.34238680    -11.02987537
H       0.40871873      9.57322849     12.03413867
C      11.52596592     -4.33336412     -8.82089930
H      -7.24667983      0.61405489     -0.59376274
H      -7.39021984     -1.04163525     -0.01079608
C      -8.97137742     -0.59826823     -1.57035159
H      -9.74279965      0.24458098     -1.97261668
C      -4.59563443     -1.02388115     11.20173797
H      -9.74583534     -1.52994831     -1.57826894
H      -4.59429912     -0.03339553     10.59373208
H      -4.47635175     -1.75177332     12.09989297
C      -2.42314409      0.53655420      2.23209484
H      -2.75790835      1.46983721      1.49599837
C      -3.62353444      0.93513512      3.45275474
H      -2.88478534     -0.60257747      2.13638903
H      -3.67671068      1.99666338      4.09373990
H      -3.85097009      0.25206983      4.46626890
H      -4.85378623      1.02173751      3.25138641
H      11.09666256     -3.25257562     -8.52846129
H      12.04865113     -4.50248626     -9.88678928
H      11.43288370     -5.24491278     -8.04737216
H       7.76481643     -3.63025930     13.90954740
H       4.64823458     -3.64890629     15.34400763
H       7.91861323     -4.24604736     11.04441416
H      10.77654782     -4.00216162     11.76334162
H       3.87383768     -3.90573209     13.78420682
H       7.36194978      7.44532172      0.66829901
H      -1.30638532     10.03892604     15.00075293
H       9.07864418      7.11222572      3.77739469
H      14.78373935     -2.68509765      2.03555967
H      -1.07497657      8.72228184     12.43523763
H      17.53433114     -1.52978934      2.73169665
H      17.03020451     -2.11857340     -0.27021176
H      11.67374080     -2.18727312      4.28166868
H      19.94529236     -1.86959618      0.57893533
H       7.68071752      5.97114144      3.24982338
C       7.42357089     -2.81977222     13.03547523
C       8.27613954     -3.18903128     11.59056398
C       5.75782823     -2.60592755     13.13528522
C       4.61131264     -3.04488795     14.27259302
C       9.94647978     -3.13140546     11.62438346
C       7.96269244      7.80536124      1.65417410
C       7.99994087      7.16037218      3.18203307
C      -0.68523881      9.89590941     12.50953743
C      -1.07768873     10.68973202     13.97233894
C      15.22052902     -1.72493879      2.67382515
C      16.66650551     -1.08945759      1.95977707
C      17.44655357     -1.15479899      0.39991478
C      19.15262865     -1.04030505      0.10389861
C      13.71031905     -1.29877875      3.12309771
C      12.28018582     -1.25738263      3.82849622
H      19.65223942     -1.11370523     -1.03060975
H      -2.43985009     -2.49629398     -1.00348626
H       7.85176805     -1.82495344     13.64248465
H       4.18693029     -2.04290413     14.85796685
H       7.95965598     -2.57173435     10.56165679
H      10.71482341     -2.19683300     11.55801371
H       5.23476029     -1.97666778     12.22228967
H       8.51711194      8.78078598      1.20397634
H      -0.26098891     11.47817631     14.46820354
H       7.28033758      7.77557244      3.97385761
H      15.40704475     -1.99830277      3.86276255
H      -0.95319299     10.53915603     11.48500342
H      16.61091573      0.11782696      2.26077176
H      16.86492136     -0.38570827     -0.39141806
H      11.59026693     -0.31453940      4.07523280
H      19.77753261     -0.01461249      0.41989429
H      -2.10023086     11.38979190     14.00631205
   94

C      -6.06356581     -0.93263831     -2.20905696
C      -4.46995146     -1.25844461     -1.61469528
H      -6.04866505     -0.17609082     -3.19967926
C      -7.36224661     -0.50168129     -1.13974015
H      -6.36786951     -1.81007430     -3.03837647
H      -4.12505919     -0.11876796     -1.28710471
C      -2.86976146     -1.74854958     -1.88131346
H      -4.71708442     -2.23655545     -0.89814333
H      -6.11862924     -3.88713646    -11.51750913
H      -6.11091760     -4.65652919    -11.38954278
C      -1.62234379     -1.53120527     -2.98971874
H      -2.19034537     -1.07649206     -3.99446502
C      -0.08458483     -0.77896210     -2.70053514
H      -1.57066815     -2.66375416     -3.50211373
H      -0.01047613      0.23729466     -3.41986900
H       0.69860917     -1.36313276     -3.48279282
C       0.70894998     -0.41964672     -1.18450219
H       1.90541318     -0.15685280     -1.44714138
C       0.10764912      0.58931573      0.12946126
H       1.24270434     -1.46478146     -0.76645342
H      -0.36869954      1.61094623     -0.38472237
H       1.03342996      1.38471943      0.38689969
C      -0.77740168      0.21588667      1.62133244
H       0.01743775      0.38439606      2.56120248
C       3.21429714      3.53435736    -10.57069862
H      -0.51262693     -0.96481374      1.88274710
H       2.56828187      4.34248997    -11.03005590
H       0.41644515      9.58106187     12.05005428
C      11.50470984     -4.34689113     -8.86357647
H      -7.24675042      0.61506400     -0.60551154
H      -7.39179891     -1.03860723     -0.01963640
C      -8.97075057     -0.59901772     -1.58239004
H      -9.74177090      0.24313830     -1.98685262
C      -4.93125891     -0.93657612     11.13978970
H      -9.74481451     -1.53102732     -1.59028677
H      -4.93525140      0.04895885     10.52375906
H      -4.81692938     -1.67848424     12.02707436
C      -2.42015018      0.53547151      2.21673108
H      -2.75405179      1.46924409      1.47999907
C      -3.60707779      0.93787040      3.44533399
H      -2.88647457     -0.60122590      2.10888332
H      -3.64222214      2.00133375      4.08394403
H      -3.82120172      0.25334509      4.46035991
H      -4.83747175      1.02592451      3.24659153
H      11.07538828     -3.26610527     -8.57115545
H      12.02740622     -4.51601673     -9.92946044
H      11.41162163     -5.25844143     -8.09005226
H       7.25001982     -3.84933715     14.37546913
H       4.26582734     -3.69417590     15.75059137
H       8.22401481     -4.28263689     11.01792081
H      11.08547978     -4.05981269     11.73305232
H       3.48160708     -3.93829397     14.18202296
H       7.36227379      7.44653801      0.66764013
H      -1.30265420     10.03823640     15.00021296
H       9.08015024      7.11490939      3.77321379
H      14.85335059     -2.66699987      1.93327981
H      -1.08383619      8.72695536     12.42500056
H      17.60283417     -1.48350361      2.64241595
H      17.08943406     -2.09376974     -0.36546582
H      11.74213424     -2.15688119      4.16818997
H      20.00275805     -1.84444544      0.47785928
H       7.67872513      5.97254159      3.25212471
C       7.80053028     -2.70205116     12.92003878
C       8.60378123     -3.21392390     11.52047700
C       5.41566903     -2.69943831     13.53947500
C       4.24540927     -3.10033867     14.67245405
C      10.27077302     -3.17852709     11.57516410
C       7.96269180      7.80634755      1.65376368
C       7.99929868      7.16123425      3.18155562
C      -0.68660558      9.89743449     12.50911404
C      -1.07702305     10.69102415     13.97229390
C      15.29003879     -1.70859736      2.57415388
C      16.73158213     -1.06014330      1.86492331
C      17.50562111     -1.12863680      0.30271688
C      19.21078532     -1.01377922      0.00406904
C      13.78206128     -1.27374207      3.01944298
C      12.35035424     -1.22610872      3.71923060
H      19.70873539     -1.08583069     -1.13115743
H      -2.44445359     -2.51449875     -1.02408869
H       8.20772846     -1.75226916     13.59004370
H       3.82223801     -2.08245192     15.23197956
H       8.27438652     -2.61633169     10.48511654
H      11.04956051     -2.25408358     11.49428669
H       4.89852416     -2.07311060     12.61709904
H       8.51818240      8.78130184      1.20381962
H      -0.25934791     11.48033607     14.46526387
H       7.27816894      7.77393587      3.97391567
H      15.47562300     -2.00109784      3.75872527
H      -0.95962485     10.53297206     11.48108284
H      16.67115926      0.14683042      2.16621664
H      16.91977452     -0.36288818     -0.48877023
H      11.66934187     -0.27530140      3.95965551
H      19.83506572      0.01254392      0.31906848
H      -2.09936004     11.39128919     14.00785112
   94

C      -6.06265411     -0.93504962     -2.21711327
C      -4.46947300     -1.26159696     -1.62209269
H      -6.04637504     -0.17921862     -3.20825546
C      -7.36203460     -0.50146476     -1.14964964
H      -6.36653586     -1.81401827     -3.04490707
H      -4.12323464     -0.12236552     -1.29476668
C      -2.87147916     -1.75628472     -1.89394736
H      -4.71716798     -2.23356834     -0.89747083
H      -6.12009297     -3.88905594    -11.52292868
H      -6.11238134     -4.65844767    -11.39495623
C      -1.62243013     -1.53152435     -2.99925610
H      -2.18963464     -1.07766649     -4.00490750
C      -0.08797274     -0.77515045     -2.70232460
H      -1.56548931     -2.66131118     -3.51713814
H      -0.01564569      0.24436647     -3.41708982
H       0.70053118     -1.35174351     -3.48459816
C       0.70201251     -0.42086238     -1.18332797
H       1.90090497     -0.16196736     -1.43720258
C       0.10502239      0.59215616      0.12796857
H       1.22546859     -1.46987381     -0.76258722
H      -0.37510612      1.61026492     -0.38998035
H       1.02608106      1.39228920      0.38707569
C      -0.77199509      0.21580593      1.62158579
H       0.01222988      0.39977678      2.56779888
C       3.21427662      3.53443768    -10.57084206
H      -0.50301092     -0.96312773      1.88933955
H       2.56825567      4.34257408    -11.03018417
H       0.42402886      9.58834853     12.06590473
C      11.48345126     -4.36040267     -8.90620158
H      -7.24664473      0.61606923     -0.61697912
H      -7.39321590     -1.03557948     -0.02824289
C      -8.96993881     -0.59975762     -1.59424274
H      -9.74053598      0.24169102     -2.00096364
C      -5.26610452     -0.84764602     11.07586395
H      -9.74360507     -1.53210098     -1.60218573
H      -5.27630824      0.13142876     10.44963967
H      -5.15683089     -1.60405563     11.95149135
C      -2.41681221      0.53419293      2.20213423
H      -2.75004770      1.46844393      1.46484777
C      -3.58997473      0.94004377      3.43895295
H      -2.88771393     -0.59995119      2.08211099
H      -3.60707224      2.00526245      4.07499683
H      -3.79048846      0.25394122      4.45531670
H      -4.82052005      1.02941478      3.24288450
H      11.05411498     -3.27961933     -8.61379269
H      12.00614743     -4.52953453     -9.97208474
H      11.39036342     -5.27195184     -8.13267620
H       6.77690345     -3.86063006     14.76298247
H       3.86252901     -3.74100252     16.15217806
H       8.53646024     -4.32719171     10.98836660
H      11.41526400     -4.10915819     11.67489953
H       3.07739387     -3.96740755     14.56683847
H       7.36261939      7.44744115      0.66733096
H      -1.29880700     10.03724483     14.99957122
H       9.08166280      7.11713056      3.76937544
H      14.92270235     -2.64862573      1.83076920
H      -1.09229595      8.73121875     12.41482784
H      17.67079141     -1.43717723      2.55286470
H      17.14861092     -2.06892051     -0.46083843
H      11.81047851     -2.12629869      4.05504196
H      20.06011083     -1.81928265      0.37684978
H       7.67679682      5.97348393      3.25476414
C       8.16906464     -2.74629125     12.86808760
C       8.94038383     -3.25437987     11.45876010
C       5.06515202     -2.77336133     13.97736073
C       3.85031558     -3.14772253     15.07281367
C      10.60633875     -3.22549726     11.50333928
C       7.96272363      7.80697593      1.65371516
C       7.99868592      7.16164240      3.18141081
C      -0.68774438      9.89848586     12.50864284
C      -1.07619864     10.69196744     13.97213880
C      15.35934127     -1.69197785      2.47420846
C      16.79645345     -1.03070563      1.76988379
C      17.56460741     -1.10243896      0.20542619
C      19.26887327     -0.98723745     -0.09574894
C      13.85369545     -1.24869397      2.91600468
C      12.42044658     -1.19467266      3.61021764
H      19.76521155     -1.05796329     -1.23166741
H      -2.44904227     -2.53250902     -1.04447171
H       8.52560321     -1.77825573     13.53126063
H       3.41838818     -2.12252804     15.61093026
H       8.58545194     -2.65901842     10.43235764
H      11.38445597     -2.30027125     11.42897508
H       4.62368866     -2.13861003     13.02609085
H       8.51924850      8.78149215      1.20404448
H      -0.25757671     11.48216695     14.46221359
H       7.27603762      7.77181559      3.97432948
H      15.54421467     -2.00349276      3.65408500
H      -0.96567281     10.52632891     11.47716865
H      16.73127555      0.17594627      2.07147442
H      16.97460548     -0.34003480     -0.58622843
H      11.74844671     -0.23601127      3.84437292
H      19.89252924      0.03971063      0.21826811
H      -2.09832640     11.39244607     14.00921789
   94

C      -6.06162785     -0.93744157     -2.22491941
C      -4.46890933     -1.26465478     -1.62915527
H      -6.04396796     -0.18233178     -3.21658315
C      -7.36171642     -0.50123969     -1.15932522
H      -6.36506700     -1.81794693     -3.05118634
H      -4.12134508     -0.12588159     -1.30202911
C      -2.87315704     -1.76389510     -1.90633567
H      -4.71705985     -2.23047409     -0.89655016
H      -6.12154343     -3.89096678    -11.52831207
H      -6.11383215     -4.66035773    -11.40033487
C      -1.62248749     -1.53181121     -3.00851706
H      -2.18885210     -1.07881511     -4.01509968
C      -0.09137112     -0.77135336     -2.70381119
H      -1.56026977     -2.65880208     -3.53183060
H      -0.02083206      0.25138509     -3.41401500
H       0.70243420     -1.34035869     -3.48600734
C       0.69500535     -0.42209717     -1.18184345
H       1.89625891     -0.16713635     -1.42693549
C       0.10232567      0.59490123      0.12684610
H       1.20809918     -1.47492305     -0.75847906
H      -0.38158200      1.60948640     -0.39479748
H       1.01865132      1.39973638      0.38758232
C      -0.76659048      0.21571955      1.62229498
H       0.00691802      0.41491874      2.57459521
C       3.21425980      3.53450211    -10.57093938
H      -0.49349681     -0.96146005      1.89622438
H       2.56823526      4.34264098    -11.03027169
H       0.43137001      9.59513855     12.08171380
C      11.46221091     -4.37388914     -8.94872917
H      -7.24642923      0.61706658     -0.62818308
H      -7.39453205     -1.03256047     -0.03663457
C      -8.96900236     -0.60049220     -1.60591997
H      -9.73915404      0.24023687     -2.01495507
C      -5.59932128     -0.75731924     11.01014826
H      -9.74226483     -1.53317479     -1.61396971
H      -5.61643918      0.21347632     10.37124139
H      -5.49507502     -1.52854194     11.87342907
C      -2.41333834      0.53276526      2.18831295
H      -2.74610125      1.46749413      1.45056452
C      -3.57247092      0.94162003      3.43363579
H      -2.88870497     -0.59870511      2.05604297
H      -3.57155471      2.00840885      4.06693988
H      -3.75918904      0.25383255      4.45114789
H      -4.80317346      1.03219808      3.24024217
H      11.03286459     -3.29310792     -8.65632677
H      11.98489232     -4.54303109    -10.01461811
H      11.36913116     -5.28543303     -8.17519671
H       6.35208823     -3.77737503     15.07436593
H       3.50219681     -3.79571890     16.55033535
H       8.85469979     -4.37504643     10.94570177
H      11.74556753     -4.15378039     11.61880774
H       2.68550187     -4.00852515     14.96314462
H       7.36302271      7.44810463      0.66724430
H      -1.29490027     10.03593519     14.99888027
H       9.08324723      7.11898524      3.76575187
H      14.99158020     -2.63006292      1.72867078
H      -1.10046337      8.73509026     12.40475932
H      17.73800299     -1.39097033      2.46341067
H      17.20750796     -2.04410444     -0.55593786
H      11.87892518     -2.09581531      3.94394395
H      20.11715653     -1.79415708      0.27615863
H       7.67499883      5.97406923      3.25760646
C       8.51590740     -2.82625193     12.82116013
C       9.27309779     -3.30277882     11.40168694
C       4.68723005     -2.82706872     14.39290701
C       3.46430153     -3.19814001     15.47368166
C      10.93718798     -3.26987268     11.44807770
C       7.96283610      7.80732340      1.65389200
C       7.99816921      7.16169712      3.18146920
C      -0.68876681      9.89908863     12.50816066
C      -1.07529010     10.69256157     13.97193210
C      15.42822942     -1.67516782      2.37462997
C      16.86087000     -1.00130406      1.67506741
C      17.62329955     -1.07629182      0.10843863
C      19.32667105     -0.96074007     -0.19527995
C      13.92498398     -1.22387888      2.81357840
C      12.49040649     -1.16346605      3.50267080
H      19.82143166     -1.03015239     -1.33187511
H      -2.45368791     -2.55031803     -1.06469987
H       8.81635513     -1.86386831     13.50903350
H       3.01819315     -2.17468867     16.00205845
H       8.89513431     -2.69709283     10.39125218
H      11.70965490     -2.34003158     11.37758134
H       4.31866951     -2.18872118     13.41848318
H       8.52035233      8.78143557      1.20451252
H      -0.25574439     11.48366672     14.45910384
H       7.27400818      7.76932744      3.97495494
H      15.61269262     -2.00556074      3.54948344
H      -0.97147285     10.51926019     11.47330660
H      16.79103715      0.20501715      1.97696017
H      17.02918936     -0.31723332     -0.68338992
H      11.82748181     -0.19705270      3.73044633
H      19.94970743      0.06682971      0.11775412
H      -2.09720573     11.39325893     14.01048846
   94

C      -6.06050112     -0.93981315     -2.23246465
C      -4.46827709     -1.26761476     -1.63586650
H      -6.04145649     -0.18542764     -3.22465031
C      -7.36130729     -0.50100978     -1.16875645
H      -6.36347480     -1.82185816     -3.05720537
H      -4.11940927     -0.12931361     -1.30887087
C      -2.87481288     -1.77137402     -1.91846554
H      -4.71677616     -2.22727679     -0.89537154
H      -6.12298157     -3.89286892    -11.53365839
H      -6.11527091     -4.66225931    -11.40567778
C      -1.62253713     -1.53206335     -3.01749435
H      -2.18801931     -1.07993813     -4.02503490
C      -0.09480472     -0.76756232     -2.70498955
H      -1.55502923     -2.65622614     -3.54618033
H      -0.02606117      0.25835761     -3.41064168
H       0.70429564     -1.32897117     -3.48701160
C       0.68788861     -0.42333154     -1.18003801
H       1.89143324     -0.17233450     -1.41633138
C       0.09949613      0.59756021      0.12610622
H       1.19056242     -1.47990577     -0.75411732
H      -0.38819782      1.60861784     -0.39915943
H       1.01107543      1.40707546      0.38842759
C      -0.76126592      0.21564548      1.62346965
H       0.00144477      0.42983222      2.58159952
C       3.21424350      3.53455067    -10.57099489
H      -0.48414727     -0.95979718      1.90339815
H       2.56821757      4.34269108    -11.03032222
H       0.43846712      9.60139485     12.09750507
C      11.44098854     -4.38735366     -8.99117355
H      -7.24612328      0.61805327     -0.63911393
H      -7.39576549     -1.02955485     -0.04480143
C      -8.96795506     -0.60122402     -1.61741337
H      -9.73763735      0.23877343     -2.02881966
C      -5.93065854     -0.66566104     10.94245030
H      -9.74080665     -1.53425179     -1.62562947
H      -5.95489899      0.29493682     10.28842480
H      -5.83168284     -1.45185603     11.79283611
C      -2.40980357      0.53120163      2.17534848
H      -2.74227371      1.46640867      1.43722218
C      -3.55470650      0.94258166      3.42942181
H      -2.88952282     -0.59746980      2.03072623
H      -3.53584547      2.01075252      4.05982613
H      -3.72755562      0.25300811      4.44787553
H      -4.78556771      1.03428688      3.23865440
H      11.01163627     -3.30657414     -8.69877301
H      11.96364197     -4.55650933    -10.05707424
H      11.34792387     -5.29888833     -8.21762845
H       5.94536128     -3.69232172     15.35403399
H       3.15676086     -3.85164421     16.94755966
H       9.17401377     -4.42182670     10.90331506
H      12.07170341     -4.19595520     11.56741998
H       2.30049896     -4.05070081     15.36304224
H       7.36347437      7.44860176      0.66727428
H      -1.29093329     10.03425600     14.99816742
H       9.08490200      7.12058919      3.76222561
H      15.06019292     -2.61139609      1.62681727
H      -1.10834985      8.73851260     12.39482804
H      17.80463126     -1.34490798      2.37393683
H      17.26624645     -2.01930960     -0.65091019
H      11.94752007     -2.06541170      3.83412120
H      20.17401100     -1.76906227      0.17568566
H       7.67332660      5.97440521      3.26053811
C       8.84619719     -2.89328086     12.76319041
C       9.60178342     -3.34871169     11.34619740
C       4.31024413     -2.88120275     14.80012265
C       3.08862809     -3.25052021     15.87464044
C      11.26341548     -3.31107901     11.40345101
C       7.96301605      7.80747816      1.65418413
C       7.99774082      7.16150677      3.18162538
C      -0.68968681      9.89919265     12.50769391
C      -1.07430388     10.69275783     13.97170105
C      15.49689856     -1.65824109      2.27524066
C      16.92500299     -0.97193578      1.58035081
C      17.68181687     -1.05018686      0.01161370
C      19.38429944     -0.93427821     -0.29462792
C      13.99612487     -1.19923162      2.71180162
C      12.56034463     -1.13242091      3.39600358
H      19.87751983     -1.00238598     -1.43188196
H      -2.45840760     -2.56791556     -1.08475817
H       9.08277084     -1.96020170     13.50215014
H       2.62802636     -2.22940354     16.39421566
H       9.20587445     -2.73500644     10.34894972
H      12.03044832     -2.37738566     11.33119217
H       4.00365349     -2.24088364     13.80932880
H       8.52149024      8.78121187      1.20510974
H      -0.25385708     11.48478936     14.45595654
H       7.27207237      7.76658172      3.97568325
H      15.68116532     -2.00729937      3.44477951
H      -0.97705500     10.51171377     11.46952350
H      16.85060584      0.23404130      1.88256549
H      17.08364254     -0.29446894     -0.78038624
H      11.90653824     -0.15834955      3.61716122
H      20.00671452      0.09391045      0.01743238
H      -2.09600516     11.39367785     14.01169270
   94

C      -6.05928829     -0.94216666     -2.23975583
C      -4.46758966     -1.27047850     -1.64223442
H      -6.03885545     -0.18850752     -3.23246311
C      -7.36082396     -0.50078207     -1.17795165
H      -6.36177300     -1.82575368     -3.06297167
H      -4.11744245     -0.13266179     -1.31530269
C      -2.87645804     -1.77871814     -1.93033970
H      -4.71632991     -2.22398306     -0.89394644
H      -6.12440786     -3.89476265    -11.53896789
H      -6.11669807     -4.66415269    -11.41098516
C      -1.62258852     -1.53227939     -3.02619031
H      -2.18714448     -1.08103630     -4.03471689
C      -0.09828502     -0.76377386     -2.70585864
H      -1.54977638     -2.65358384     -3.56018644
H      -0.03134366      0.26528563     -3.40697216
H       0.70610548     -1.31758018     -3.48760632
C       0.68064162     -0.42455381     -1.17790753
H       1.88640648     -0.17754780     -1.40538615
C       0.09649961      0.60014259      0.12575134
H       1.17284023     -1.48480631     -0.74949228
H      -0.39498513      1.60766830     -0.40306828
H       1.00331963      1.41431517      0.38961623
C      -0.75607599      0.21560505      1.62510442
H      -0.00423692      0.44453207      2.58881538
C       3.21422664      3.53458348    -10.57100932
H      -0.47500969     -0.95812176      1.91085065
H       2.56820160      4.34272463    -11.03033634
H       0.44532812      9.60710362     12.11330136
C      11.41978247     -4.40079736     -9.03354517
H      -7.24574854      0.61902428     -0.64978313
H      -7.39693446     -1.02656921     -0.05275157
C      -8.96681401     -0.60195781     -1.62872844
H      -9.73600327      0.23729687     -2.04255921
C      -6.26016891     -0.57282318     10.87260891
H      -9.73924781     -1.53533627     -1.63716450
H      -6.29123352      0.37574554     10.20136805
H      -6.16697257     -1.37398254     11.70971616
C      -2.40626953      0.52953490      2.16325652
H      -2.73859595      1.46521694      1.42481409
C      -3.53684121      0.94297219      3.42623745
H      -2.89022864     -0.59620839      2.00615461
H      -3.50013936      2.01233756      4.05359045
H      -3.69585723      0.25151365      4.44540848
H      -4.76785884      1.03574846      3.23800252
H      10.99042814     -3.32001909     -8.74114225
H      11.94239569     -4.56997018    -10.09946311
H      11.32673926     -5.31231946     -8.25998266
H       5.52455433     -3.64305696     15.65069103
H       2.80031285     -3.90483699     17.34613414
H       9.49378529     -4.46611619     10.86425090
H      12.39871588     -4.23920949     11.51572726
H       1.91142302     -4.08920796     15.76172320
H       7.36396873      7.44894871      0.66739874
H      -1.28690358     10.03218314     14.99745871
H       9.08662232      7.12197394      3.75876832
H      15.12866197     -2.59264624      1.52502546
H      -1.11596469      8.74146526     12.38505945
H      17.87078882     -1.29899377      2.28431581
H      17.32490203     -1.99452014     -0.74588487
H      12.01628790     -2.03503979      3.72494916
H      20.23074996     -1.74398664      0.07534174
H       7.67177273      5.97451925      3.26353478
C       9.18562398     -2.93429974     12.69513972
C       9.93352880     -3.39053202     11.28656958
C       3.93809989     -2.94163009     15.21082987
C       2.71087791     -3.30210046     16.27588173
C      11.59258817     -3.35226111     11.35442798
C       7.96325584      7.80746157      1.65456832
C       7.99739259      7.16109894      3.18185746
C      -0.69050607      9.89878042     12.50726738
C      -1.07324128     10.69253492     13.97147241
C      15.56546004     -1.64120245      2.17583889
C      16.98896767     -0.94257086      1.48560742
C      17.74023648     -1.02410741     -0.08518121
C      19.44183705     -0.90783787     -0.39388236
C      14.06723409     -1.17467443      2.61036279
C      12.63032129     -1.10143239      3.28975830
H      19.93355321     -0.97464755     -1.53177658
H      -2.46321211     -2.58529282     -1.10464507
H       9.34537184     -2.04100743     13.48952907
H       2.23793466     -2.28078066     16.78346864
H       9.52038568     -2.77415462     10.29937051
H      12.35618728     -2.41645687     11.27973161
H       3.68885153     -2.29986061     14.20728253
H       8.52265799      8.78083957      1.20581155
H      -0.25191332     11.48551153     14.45279656
H       7.27022308      7.76360397      3.97649447
H      15.74971318     -2.00867151      3.33979330
H      -0.98243350     10.50367202     11.46584510
H      16.91009725      0.26304506      1.78817726
H      17.13803569     -0.27172098     -0.87733998
H      11.98566705     -0.11980965      3.50406059
H      20.06362357      0.12096744     -0.08277900
H      -2.09472518     11.39368257     14.01286040
   94

C      -6.05801372     -0.94450612     -2.24681543
C      -4.46686665     -1.27325230     -1.64829288
H      -6.03619177     -0.19157456     -3.24004356
C      -7.36028956     -0.50056519     -1.18693023
H      -6.35998713     -1.82963705     -3.06850737
H      -4.11546569     -0.13592896     -1.32136879
C      -2.87810875     -1.78592755     -1.94198659
H      -4.71573952     -2.22060229     -0.89230924
H      -6.12582368     -3.89664870    -11.54424352
H      -6.11811499     -4.66603857    -11.41625981
C      -1.62265272     -1.53245976     -3.03462978
H      -2.18623832     -1.08211236     -4.04417146
C      -0.10182339     -0.75998753     -2.70644430
H      -1.54452184     -2.65087780     -3.57387005
H      -0.03668947      0.27216702     -3.40303685
H       0.70785315     -1.30618945     -3.48781321
C       0.67325097     -0.42575317     -1.17547952
H       1.88116488     -0.18276524     -1.39412701
C       0.09331208      0.60266609      0.12574426
H       1.15491960     -1.48960977     -0.74462347
H      -0.40196057      1.60665554     -0.40656916
H       0.99536130      1.42147015      0.39111614
C      -0.75107333      0.21562784      1.62714749
H      -0.01018088      0.45904622      2.59620460
C       3.21421038      3.53460117    -10.57098447
H      -0.46613341     -0.95640701      1.91853233
H       2.56818828      4.34274221    -11.03031564
H       0.45193473      9.61229737     12.12911951
C      11.39859414     -4.41421918     -9.07584249
H      -7.24533315      0.61997355     -0.66021455
H      -7.39806159     -1.02361088     -0.06050373
C      -8.96560428     -0.60269906     -1.63987628
H      -9.73427790      0.23580311     -2.05617850
C      -6.58788348     -0.47910313     10.80064274
H      -9.73761376     -1.53643299     -1.64857658
H      -6.62510965      0.45586018     10.11064213
H      -6.50106551     -1.29501285     11.62428571
C      -2.40279936      0.52781426      2.15197859
H      -2.73509251      1.46396355      1.41325492
C      -3.51904264      0.94288240      3.42391858
H      -2.89088313     -0.59487005      1.98226465
H      -3.46463554      2.01325964      4.04807031
H      -3.66434216      0.24943918      4.44357010
H      -4.75021422      1.03668154      3.23809884
H      10.96924202     -3.33344163     -8.78343269
H      11.92115449     -4.58341272    -10.14178335
H      11.30557875     -5.32572548     -8.30225794
H       5.08039654     -3.62129130     15.97544634
H       2.43184720     -3.95588746     17.74638992
H       9.81433438     -4.50867584     10.82731708
H      12.72904662     -4.28444870     11.46170416
H       1.51605234     -4.12543297     16.15988535
H       7.36451298      7.44914563      0.66761322
H      -1.28282762     10.02971821     14.99678396
H       9.08841909      7.12314138      3.75537465
H      15.19698841     -2.57382319      1.42333501
H      -1.12334426      8.74397330     12.37547304
H      17.93648948     -1.25325944      2.19455026
H      17.38345841     -1.96974048     -0.84084681
H      12.08525573     -2.00472153      3.61649666
H      20.28736791     -1.71892919     -0.02487570
H       7.67034662      5.97441421      3.26659217
C       9.54368420     -2.95407013     12.62022816
C      10.27064443     -3.43024241     11.22076713
C       3.56411365     -3.00434115     15.62428348
C       2.32676207     -3.35246714     16.67790365
C      11.92717184     -3.39476027     11.29681221
C       7.96356464      7.80727366      1.65503894
C       7.99713518      7.16047625      3.18216072
C      -0.69125116      9.89787831     12.50690382
C      -1.07212373     10.69190142     13.97127926
C      15.63390849     -1.62404818      2.07644967
C      17.05276186     -0.91321961      1.39085247
C      17.79854779     -0.99805795     -0.18193470
C      19.49927189     -0.88141939     -0.49303797
C      14.13829788     -1.15020764      2.50927577
C      12.70033720     -1.07051132      3.18398428
H      19.98951343     -0.94693298     -1.63155657
H      -2.46811598     -2.60244409     -1.12438449
H       9.61874444     -2.10951140     13.46735940
H       1.84365763     -2.32930664     17.17175927
H       9.83886779     -2.81476122     10.24244898
H      12.68875168     -2.45784915     11.22159573
H       3.36988563     -2.36231625     14.61052838
H       8.52386303      8.78031954      1.20661189
H      -0.24993122     11.48583809     14.44965659
H       7.26847176      7.76039793      3.97738361
H      15.81834296     -2.00965363      3.23456261
H      -0.98764883     10.49516409     11.46229740
H      16.96951912      0.29201698      1.69382072
H      17.19235015     -0.24899221     -0.97423182
H      12.06485408     -0.08145837      3.39120340
H      20.12042136      0.14800119     -0.18287451
H      -2.09338705     11.39328140     14.01403123
   94

C      -6.05670481     -0.94683599     -2.25367178
C      -4.46612822     -1.27594544     -1.65408825
H      -6.03349672     -0.19463246     -3.24741970
C      -7.35972712     -0.50036749     -1.19571363
H      -6.35814721     -1.83351229     -3.07383995
H      -4.11349978     -0.13911995     -1.32713033
C      -2.87978136     -1.79300533     -1.95344782
H      -4.71502351     -2.21714545     -0.89050500
H      -6.12723096     -3.89852801    -11.54948943
H      -6.11952354     -4.66791789    -11.42150571
C      -1.62273987     -1.53260698     -3.04284983
H      -2.18531163     -1.08317105     -4.05343597
C      -0.10542871     -0.75620616     -2.70678873
H      -1.53927615     -2.64811298     -3.58726440
H      -0.04210615      0.27899634     -3.39888272
H       0.70952918     -1.29480673     -3.48767131
C       0.66571256     -0.42692274     -1.17280161
H       1.87570404     -0.18798147     -1.38260250
C       0.08992562      0.60515028      0.12602429
H       1.13679515     -1.49430573     -0.73955036
H      -0.40912208      1.60559966     -0.40973219
H       0.98719473      1.42855556      0.39287258
C      -0.74629239      0.21574210      1.62952196
H      -0.01642916      0.47340461      2.60370664
C       3.21419669      3.53460479    -10.57092375
H      -0.45755330     -0.95462664      1.92637358
H       2.56817915      4.34274473    -11.03026316
H       0.45825606      9.61703778     12.14496870
C      11.37742661     -4.42761778     -9.11806064
H      -7.24490420      0.62089541     -0.67043433
H      -7.39916759     -1.02068615     -0.06807823
C      -8.96435181     -0.60345247     -1.65086685
H      -9.73248861      0.23428882     -2.06968066
C      -6.91388294     -0.38487454     10.72668118
H      -9.73593097     -1.53754586     -1.65986559
H      -6.95639481      0.53530683     10.01706548
H      -6.83400595     -1.21509738     11.53689654
C      -2.39943989      0.52609239      2.14140475
H      -2.73177070      1.46269627      1.40240765
C      -3.50145020      0.94243190      3.42225094
H      -2.89153039     -0.59340290      1.95895834
H      -3.42949683      2.01364834      4.04304402
H      -3.63318939      0.24690333      4.44214047
H      -4.73277607      1.03719757      3.23872823
H      10.94808150     -3.34684033     -8.82563910
H      11.89992064     -4.59683581    -10.18403046
H      11.28444560     -5.33910491     -8.34444923
H       4.62067688     -3.61151839     16.31741241
H       2.05771626     -4.00579757     18.14723977
H      10.13503519     -4.54959860     10.79275253
H      13.06156850     -4.33102376     11.40573535
H       1.11728785     -4.16067382     16.55795930
H       7.36511799      7.44919704      0.66790560
H      -1.27873233     10.02687964     14.99617091
H       9.09030759      7.12409783      3.75203288
H      15.26515369     -2.55494841      1.32187155
H      -1.13053699      8.74608914     12.36608083
H      18.00172528     -1.20774942      2.10469696
H      17.44187855     -1.94498330     -0.93573098
H      12.15444746     -1.97450608      3.50901943
H      20.34384037     -1.69389414     -0.12493997
H       7.66906177      5.97409924      3.26969790
C       9.91564000     -2.95974044     12.54109895
C      10.61120839     -3.46883204     11.15094058
C       3.18707643     -3.06683818     16.03800333
C       1.93871636     -3.40198384     17.08025798
C      12.26536989     -3.43822419     11.23307752
C       7.96395567      7.80691886      1.65558238
C       7.99698426      7.15964735      3.18252293
C      -0.69196072      9.89653935     12.50662080
C      -1.07098299     10.69088483     13.97115402
C      15.70221954     -1.60678999      1.97718935
C      17.11635659     -0.88391327      1.29615590
C      17.85671992     -0.97205236     -0.27858354
C      19.55657040     -0.85502952     -0.59205831
C      14.20927924     -1.12585877      2.40865801
C      12.77038203     -1.03971195      3.07887017
H      20.04535997     -0.91924386     -1.73118939
H      -2.47313278     -2.61936661     -1.14401359
H       9.89954296     -2.17641887     13.43845589
H       1.44679448     -2.37640009     17.55990258
H      10.15971186     -2.85623745     10.18119804
H      13.02575804     -2.50075571     11.15873098
H       3.04625949     -2.42582117     15.01638389
H       8.52511695      8.77965698      1.20749691
H      -0.24793998     11.48579283     14.44656996
H       7.26683423      7.75697535      3.97833603
H      15.88703735     -2.01023809      3.12921943
H      -0.99275362     10.48624726     11.45890220
H      17.02885260      0.32092553      1.59957418
H      17.24654771     -0.22629553     -1.07099260
H      12.14407212     -0.04335973      3.27876363
H      20.17707462      0.17500577     -0.28281981
H      -2.09202301     11.39250041     14.01524544
   94

C      -6.05538676     -0.94916034     -2.26035349
C      -4.46539101     -1.27856858     -1.65967080
H      -6.03080015     -0.19768466     -3.25462005
C      -7.35915566     -0.50019573     -1.20432141
H      -6.35628242     -1.83738283     -3.07899690
H      -4.11156095     -0.14224083     -1.33265386
C      -2.88148844     -1.79995666     -1.96476879
H      -4.71419676     -2.21362396     -0.88858164
H      -6.12863163     -3.90040158    -11.55470986
H      -6.12092560     -4.66979158    -11.42672695
C      -1.62285648     -1.53272538     -3.05089144
H      -2.18437241     -1.08421849     -4.06255113
C      -0.10910489     -0.75243575     -2.70694040
H      -1.53404744     -2.64529622     -3.60040686
H      -0.04759652      0.28576533     -3.39456280
H       0.71112745     -1.28344321     -3.48722769
C       0.65803338     -0.42806135     -1.16993033
H       1.87003052     -0.19319811     -1.37087170
C       0.08635218      0.60761257      0.12652143
H       1.11847146     -1.49889000     -0.73432189
H      -0.41644654      1.60451905     -0.41263718
H       0.97883465      1.43558347      0.39482173
C      -0.74173971      0.21596893      1.63214322
H      -0.02299964      0.48763134      2.61125427
C       3.21418759      3.53459554    -10.57083137
H      -0.44927957     -0.95276106      1.93430012
H       2.56817576      4.34273332    -11.03018262
H       0.46426303      9.62140269     12.16085027
C      11.35628331     -4.44099223     -9.16019624
H      -7.24448336      0.62178540     -0.68046637
H      -7.40026786     -1.01779938     -0.07549326
C      -8.96307930     -0.60422112     -1.66170683
H      -9.73065971      0.23275213     -2.08306576
C      -7.23836058     -0.29052379     10.65091440
H      -9.73422284     -1.53867705     -1.67102858
H      -7.28521225      0.61419132      9.92155119
H      -7.16587030     -1.13441561     11.44796028
C      -2.39621098      0.52441689      2.13139374
H      -2.72861442      1.46145805      1.39210652
C      -3.48415467      0.94175302      3.42100085
H      -2.89218861     -0.59176230      1.93612047
H      -3.39482695      2.01365033      4.03826127
H      -3.60248989      0.24403881      4.44088596
H      -4.71563951      1.03740940      3.23967194
H      10.92695045     -3.36021412     -8.86775789
H      11.87869686     -4.61023869    -10.22620137
H      11.26334336     -5.35245671     -8.38655303
H       4.15322018     -3.60564078     16.66683395
H       1.68209806     -4.05503264     18.54774712
H      10.45535028     -4.58834321     10.76121492
H      13.39473226     -4.37828752     11.34845997
H       0.71776653     -4.19539194     16.95573258
H       7.36579294      7.44911231      0.66825885
H      -1.27464659     10.02370143     14.99564047
H       9.09229934      7.12485734      3.74872639
H      15.33316398     -2.53605247      1.22074595
H      -1.13759021      8.74788345     12.35688533
H      18.06650705     -1.16250421      2.01480857
H      17.50013956     -1.92026072     -1.03048250
H      12.22388423     -1.94443119      3.40266215
H      20.40015505     -1.66888590     -0.22483103
H       7.66792719      5.97359105      3.27283481
C      10.29569994     -2.95589011     12.46012123
C      10.95296195     -3.50630250     11.07995697
C       2.80868434     -3.12855779     16.45093118
C       1.54945735     -3.45089573     17.48231428
C      12.60515987     -3.48209510     11.16594147
C       7.96443913      7.80640769      1.65618041
C       7.99695146      7.15862831      3.18292761
C      -0.69267115      9.89483365     12.50642834
C      -1.06985093     10.68952758     13.97112234
C      15.77039360     -1.58945004      1.87816093
C      17.17974329     -0.85468206      1.20158013
C      17.91473547     -0.94610395     -0.37507427
C      19.61371233     -0.82867478     -0.69091444
C      14.28016932     -1.10164520      2.30859227
C      12.84045861     -1.00907021      2.97453203
H      20.10106569     -0.89158192     -1.83064968
H      -2.47827148     -2.63605987     -1.16357345
H      10.18206736     -2.24817615     13.40294103
H       1.04939552     -2.42281374     17.94772617
H      10.48146693     -2.89770057     10.11862457
H      13.36507103     -2.54460000     11.09262738
H       2.71973374     -2.48970240     15.42362446
H       8.52643007      8.77886197      1.20844788
H      -0.24596952     11.48541439     14.44356460
H       7.26532207      7.75335523      3.97933277
H      15.95578914     -2.01042355      3.02388710
H      -0.99779673     10.47699628     11.45567352
H      17.08809584      0.34974014      1.50550782
H      17.30060396     -0.20364329     -1.16756291
H      12.22330872     -0.00555732      3.16683382
H      20.23356311      0.20197546     -0.38258777
H      -2.09066558     11.39138041     14.01653598
   94

C      -6.05580950     -0.95190235     -2.26848481
C      -4.46635141     -1.28244059     -1.66732990
H      -6.02925586     -0.20057022     -3.26279990
C      -7.36046043     -0.50031031     -1.21456790
H      -6.35584892     -1.84222580     -3.08502381
H      -4.11003521     -0.14699729     -1.34064221
C      -2.88715974     -1.81229547     -1.98321258
H      -4.71452336     -2.20571887     -0.88200397
H      -6.13027122     -3.90229797    -11.56012359
H      -6.12256003     -4.67169196    -11.43216492
C      -1.62551428     -1.53393619     -3.06341625
H      -2.18528420     -1.08843095     -4.07750071
C      -0.11830945     -0.74639150     -2.70590012
H      -1.52711082     -2.64151794     -3.62125702
H      -0.06010213      0.29635235     -3.38661622
H       0.71166693     -1.26443213     -3.48405979
C       0.64146258     -0.42853933     -1.16394546
H       1.85651609     -0.19940623     -1.34889914
C       0.07701630      0.61295730      0.12849471
H       1.08313864     -1.50483148     -0.72358528
H      -0.43277613      1.60300265     -0.41733956
H       0.95975073      1.44978256      0.40064754
C      -0.73595692      0.21710792      1.63798174
H      -0.04023306      0.51471998      2.62706992
C       3.21431922      3.53425932    -10.57049664
H      -0.43690930     -0.94889264      1.94924129
H       2.56831241      4.34238680    -11.02987537
H       0.47475267      9.63478640     12.19138421
C      11.33522949     -4.45454334     -9.20267678
H      -7.24634276      0.62246726     -0.69214163
H      -7.40398409     -1.01412695     -0.08407411
C      -8.96338532     -0.60586414     -1.67487705
H      -9.73086146      0.23045146     -2.09767577
C      -7.57516110     -0.19589393     10.57194905
H      -9.73392377     -1.54080534     -1.68352921
H      -7.62826812      0.69289312      9.82270058
H      -7.50828160     -1.05466878     11.35436152
C      -2.39255703      0.52282156      2.11366731
H      -2.72378621      1.46078725      1.37314212
C      -3.45752629      0.94198429      3.41652956
H      -2.89575407     -0.58645981      1.89226473
H      -3.33659237      2.01512590      4.02604767
H      -3.55129518      0.23941402      4.43533697
H      -4.68914193      1.03807212      3.23692523
H      10.90581847     -3.37379558     -8.91024478
H      11.85782466     -4.62372082    -10.26860321
H      11.24204696     -5.36611069     -8.42918578
H       3.57135584     -3.55588928     17.00570251
H       1.29952779     -4.11497891     18.97843774
H      10.79632553     -4.62449081     10.73419045
H      13.75405748     -4.43370029     11.28567527
H       0.28860159     -4.22704996     17.38123871
H       7.36687438      7.45103612      0.66696302
H      -1.26836001     10.01911979     14.99487326
H       9.09497116      7.12971711      3.74094815
H      15.40658100     -2.52160636      1.11978355
H      -1.15085903      8.75444357     12.33922044
H      18.13268220     -1.10356914      1.93332937
H      17.55629984     -1.89741201     -1.12103072
H      12.30251486     -1.91562157      3.28860110
H      20.45248073     -1.64752439     -0.32257528
H       7.66388128      5.97652393      3.27767433
C      10.74146625     -2.92773117     12.35297488
C      11.32800962     -3.54390712     10.98795078
C       2.41723457     -3.20710945     16.90795941
C       1.13756882     -3.50931477     17.91746937
C      12.97761115     -3.53088493     11.08534115
C       7.96538922      7.80760987      1.65516259
C       7.99589744      7.16026844      3.18210029
C      -0.69467129      9.89470949     12.50621901
C      -1.06842421     10.68895734     13.97183111
C      15.84265510     -1.57591067      1.77923690
C      17.24510079     -0.82306491      1.11113539
C      17.97106852     -0.92152789     -0.46853334
C      19.66870849     -0.80418779     -0.78749719
C      14.35700128     -1.07398242      2.20413008
C      12.91643901     -0.97636678      2.86484947
H      20.15459136     -0.86462987     -1.92782769
H      -2.49094653     -2.66698740     -1.19808243
H      10.48294060     -2.34285896     13.33689096
H       0.62188074     -2.47721176     18.35551456
H      10.82332589     -2.93577889     10.04554984
H      13.73631898     -2.59288742     11.01523895
H       2.42462908     -2.57740921     15.87411337
H       8.52884687      8.77955049      1.20807308
H      -0.24264642     11.48603010     14.43916680
H       7.26127317      7.75059311      3.97901439
H      16.02775782     -2.02712107      2.91370707
H      -1.00993963     10.46158351     11.44993435
H      17.14930372      0.38047447      1.41746281
H      17.35070526     -0.18463691     -1.26144819
H      12.31455747      0.03878258      3.04389111
H      20.28756450      0.22729080     -0.48017067
H      -2.08841366     11.39184780     14.01963969
