   94

C       7.14848730     -6.80115434     -7.69694795
C       5.71535921     -7.63689553     -7.24083903
H       7.41213346     -5.95354592     -6.82402929
C       3.66737414     -1.59780218      5.01702399
H     -18.89185999     -7.18329685     -1.80818867
H       4.71194634     -7.04744976     -6.81293104
C       4.90615419     -2.05152078      6.08394276
H       5.77619039     -8.46581271     -6.32019724
H      -7.81523282     -6.27941550    -16.91792814
H      -7.80752163     -7.04880949    -16.78996947
C       9.06746444      0.76451534      4.03035503
H      14.01585020      6.01792597     10.72756174
C       7.47785404     -3.53629144      3.92530642
H       9.19034654      5.58354300     -9.87476095
H       7.84828679     -3.12519121      2.89113984
H       2.84376395     -8.55019792     13.57056832
C       5.52619590     -3.68528110      6.02504337
H       4.66903188     -4.52991868      5.71022866
C       7.85886346      7.62390976    -10.13863577
H       5.47504394     -4.28911261      7.11599828
H       8.50220761      8.52269391    -10.62383150
H       6.77563311      8.00784891    -10.51336033
C       8.33423857      6.26651125     -9.31129289
H       8.15156802      0.77760052      1.32775238
C       7.37426258      0.84249306      2.24763627
H      10.73558661      2.49979907      4.45146610
H       7.40584788      5.47109435     -9.15817331
H      -1.80062433      9.99416139     11.37309875
C       8.54708013     -7.63285613     -8.26914196
H       2.75997859     -0.91855429      5.49454766
H     -19.27118577     -7.16726916     -1.12682601
C      -1.68865761     -8.80314934      0.34192248
H       4.09026987     -2.22266708      7.00679250
C       1.81769814     -8.36657331     14.16335207
H      -2.49965983     -9.27404584      1.03091964
H      -9.96785830    -12.03757324     15.59149176
H       1.41304483     -7.25010642     14.32973322
C      -3.95008094      0.02188444     -7.52418447
H       3.98950299     10.61022208      0.31350317
C       1.76311800      9.42916111      0.90264463
H      -4.45424832      0.92846258     -8.05155203
H       1.60405383      9.87300589      2.04103630
H       1.26891082      8.30453072      0.99520759
H       0.94074456      9.93316000      0.13655649
H       8.83256595     -7.43799301     -9.46133466
H       8.44881763     -8.82392576     -8.59840577
H      10.34825041     -8.23701144     -6.44770644
H       5.83942200      1.27872026      4.93164787
H       5.23029282      0.16337783      7.07395473
H       1.19636395     -9.29936383     14.58970520
H       6.52670701      1.27961259      1.51650173
H      -9.42675544     -2.95204824     23.99740376
H       5.00513434     13.89517612     17.50367904
H       3.58849648     13.48903336     20.58997732
H       6.42796820     -1.11495496      9.07597835
H      18.06949782      4.47561688     -0.64462133
H      -3.82588747      8.91956558     11.03409105
H      18.75967138      4.62399260     -0.31289178
H       3.81880872     -2.60217957      2.69181118
H       7.17015442     -5.38598302      4.97404468
H       6.88524901     -5.83248843     -8.43559905
H       7.87602726     -1.31344663      8.23771454
C       3.24833034     -1.78561785      3.40978257
C      -9.36552862    -11.98073653     16.58555099
C       6.63625253      0.41373602      5.29989601
C       5.91943127     -0.67701927      6.47106615
C       7.50944269      0.55815298      3.85957741
C       5.29623866     14.38938070     18.58910557
C       6.74946778     -1.02489257      7.90365595
C      -2.85975748      9.54737181     11.19450384
C       4.30926162     13.86900048     19.74553524
C       4.27206046      8.37104561      0.11308173
C      11.37156876      0.31975044      5.12695414
C      10.44348368      1.34879226      4.47354939
C       9.95049194     -7.55516116     -7.36615512
C       3.33338778      9.60058701      0.42225677
C       6.99559737     -4.20610344      5.30651745
H       8.84466946      6.39664990     -8.19263129
H       5.09170370     -8.28596163     -8.09417559
H       2.09397581     -2.16822019      3.19993833
H      -9.29845674     -2.27982476     24.37164303
H      -8.76390660    -11.92376274     17.58003083
H      13.84001580      6.77137908     10.62861431
H       7.38306433      1.11509126      5.97107521
H       6.46170507     14.09257096     18.83552534
H       5.23686467     15.61010513     18.47318648
H      -3.44591357     -0.88469371     -6.99681691
H       4.78018189      7.32391860      0.19070248
H      -7.32472034     20.53668088      9.86176873
H      -0.87765542     -8.33225296     -0.34707481
H       3.38572215     -0.79085651      2.69489454
H       8.04337450     -4.19799531      5.96389628
H      10.88589168     -6.78640736     -7.41418539
H      -7.45793187     20.54530008     10.63026102
   94

C       7.14833638     -6.80205736     -7.69914763
C       5.71565538     -7.63811639     -7.24227644
H       7.41198851     -5.95387517     -6.82680161
C       3.50682466     -1.72552944      5.09928410
H     -18.89199074     -7.18330195     -1.80821998
H       4.71232030     -7.04891737     -6.81385842
C       4.74460813     -2.16912804      6.17381144
H       5.77705112     -8.46707200     -6.32171431
H      -7.81529522     -6.27942969    -16.91804127
H      -7.80758422     -7.04882399    -16.79008441
C       9.48708045      1.03438113      3.79776807
H      14.12562555      6.14052343     10.92050653
C       7.31857578     -3.66934227      4.00943861
H       9.19042797      5.58226806     -9.88156500
H       7.68417466     -3.29526791      2.95963260
H       2.82706286     -8.68599413     13.78490483
C       5.36935148     -3.80047149      6.11098629
H       4.51217034     -4.64360386      5.79204961
C       7.86065580      7.62386535    -10.14431516
H       5.31860602     -4.40073674      7.20374871
H       8.50627633      8.52384492    -10.62470114
H       6.77596373      8.00828890    -10.51427340
C       8.33431501      6.26542707     -9.31793116
H       8.53272473      1.02174286      1.09120341
C       7.76190708      1.13659855      2.01136662
H      11.16869916      2.76134775      4.18862150
H       7.40941704      5.46711106     -9.15829793
H      -1.81158920      9.99549479     11.38526693
C       8.54719915     -7.63353966     -8.27093774
H       2.59401461     -1.05255413      5.57492642
H     -19.27130951     -7.16727391     -1.12685343
C      -1.82587577     -8.93242353      0.22705943
H       3.93285122     -2.33702932      7.10090770
C       1.80103701     -8.50240419     14.37776785
H      -2.63691222     -9.40339412      0.91595830
H     -10.04239862    -12.05751941     15.60097495
H       1.39638010     -7.38594399     14.54418262
C      -3.95069499      0.02203601     -7.52499485
H       3.91070485     10.68918234      0.28236462
C       1.68386933      9.51070130      0.87813069
H      -4.45482352      0.92869433     -8.05225565
H       1.52116512      9.95470203      2.01596005
H       1.18959404      8.38612427      0.97004550
H       0.86417588     10.01724580      0.11078784
H       8.83321268     -7.43803256     -9.46289181
H       8.44897739     -8.82439874     -8.60097430
H      10.34667581     -8.23813096     -6.44798693
H       5.62422938      1.16689640      4.99489773
H       5.07486741      0.05539271      7.17416041
H       1.17978384     -9.43522589     14.80416895
H       6.89828559      1.54738559      1.28341468
H      -9.42689831     -2.95198613     23.99755368
H       5.00640561     13.89629790     17.50531010
H       3.58978850     13.49002060     20.59157033
H       6.29731218     -1.21695425      9.16412943
H      18.62337223      4.64364963     -0.85049112
H      -3.83817989      8.92004949     11.04593353
H      19.31359831      4.79213046     -0.51891863
H       3.66777616     -2.72293665      2.77037296
H       7.01062008     -5.51137585      5.07408633
H       6.88456788     -5.83378953     -8.43812683
H       7.74161305     -1.41950565      8.30417040
C       3.09393454     -1.90908700      3.48883787
C      -9.44018265    -12.00070679     16.59510430
C       6.38814202      0.28384247      5.37816419
C       5.75260701     -0.79572464      6.57415913
C       7.92181406      0.92657762      3.63302447
C       5.29751556     14.39048552     18.59074219
C       6.61057861     -1.12751751      7.98957992
C      -2.86705560      9.53982571     11.20740535
C       4.31054307     13.87005937     19.74715230
C       4.19576584      8.45344727      0.08983593
C      11.79647522      0.57824769      4.87321824
C      10.87414905      1.61103694      4.21711286
C       9.95015410     -7.55659045     -7.36719945
C       3.25462102      9.68056164      0.39922899
C       6.83786383     -4.32791752      5.39577745
H       8.84032546      6.40281240     -8.19842936
H       5.09178065     -8.28729355     -8.09536647
H       1.94159578     -2.29683865      3.27567956
H      -9.29858082     -2.27976041     24.37178247
H      -8.83861063    -11.94377527     17.58961679
H      13.94944139      6.89378739     10.82073910
H       7.85075856      1.42973535      5.69183446
H       6.46298100     14.09368225     18.83717155
H       5.23813688     15.61120924     18.47482381
H      -3.44656532     -0.88465001     -6.99778360
H       4.71475244      7.41063439      0.14807096
H      -7.32512872     20.53756054      9.86176406
H      -1.01479605     -8.46129709     -0.46167998
H       3.22995027     -0.91522202      2.77183182
H       7.88670129     -4.31575143      6.05094072
H      10.88658053     -6.78911824     -7.41564179
H      -7.45833152     20.54616838     10.63025798
   94

C       7.14812126     -6.80266585     -7.70066695
C       5.71587622     -7.63900148     -7.24298616
H       7.41179201     -5.95392210     -6.82888194
C       3.34832892     -1.84514999      5.18432537
H     -18.89210818     -7.18330259     -1.80824830
H       4.71265146     -7.05002547     -6.81401410
C       4.57913952     -2.28921159      6.26669655
H       5.77785504     -8.46797273     -6.32248514
H      -7.81533812     -6.27943457    -16.91812504
H      -7.80762773     -7.04882937    -16.79017114
C       9.90301817      1.30293765      3.55588993
H      14.23308257      6.26076403     11.11109116
C       7.16202395     -3.78477831      4.09394522
H       9.19043958      5.58098877     -9.88839617
H       7.52428465     -3.42001739      3.03952549
H       2.81030981     -8.82184183     13.99914921
C       5.21156860     -3.91636907      6.19598281
H       4.35596348     -4.75837464      5.87044721
C       7.86239769      7.62381946    -10.15000230
H       5.16251557     -4.51581352      7.28891640
H       8.51030203      8.52498463    -10.62552870
H       6.77624587      8.00873800    -10.51512427
C       8.33432581      6.26432872     -9.32457434
H       8.90683587      1.26770993      0.84898700
C       8.14560079      1.40335723      1.77391272
H      11.58994673      3.02778222      3.92899819
H       7.41296874      5.46314011     -9.15839612
H      -1.82237498      9.99663089     11.39721277
C       8.54717402     -7.63396767     -8.27220296
H       2.43270425     -1.17460160      5.65716614
H     -19.27142085     -7.16727472     -1.12687834
C      -1.96249017     -9.06108799      0.11223950
H       3.76974557     -2.45592680      7.19586231
C       1.78435023     -8.63830800     14.59214499
H      -2.77361688     -9.53222886      0.80091171
H     -10.11689411    -12.07745149     15.61044574
H       1.37967473     -7.52186111     14.75860587
C      -3.95105312      0.02215321     -7.52547179
H       3.83276664     10.76544187      0.25134260
C       1.60529221      9.59058805      0.85411312
H      -4.45517188      0.92884778     -8.05267546
H       1.43901668     10.03498891      1.99128440
H       1.11069167      8.46618885      0.94555971
H       0.78845027     10.09983148      0.08545489
H       8.83368445     -7.43781641     -9.46392630
H       8.44897195     -8.82461140     -8.60302482
H      10.34494045     -8.23897003     -6.44770202
H       5.50308338      1.04386340      5.06047785
H       4.91087486     -0.05481223      7.27292274
H       1.16318551     -9.57115478     15.01861988
H       7.26360403      1.81348656      1.06860607
H      -9.42703883     -2.95193157     23.99769585
H       5.00769843     13.89731149     17.50684568
H       3.59110403     13.49094552     20.59308589
H       6.16440728     -1.32399371      9.25823612
H      19.17730783      4.81188891     -1.05691357
H      -3.85024856      8.92047075     11.05762433
H      19.86757374      4.96042884     -0.72545066
H       3.51629403     -2.83708131      2.85177041
H       6.85541185     -5.62634149      5.16356128
H       6.88380967     -5.83479320     -8.43996407
H       7.60477696     -1.50859572      8.36808032
C       2.94070293     -2.02588560      3.57183385
C      -9.51478303    -12.02065725     16.60463943
C       6.22158130      0.15680123      5.50056316
C       5.57887852     -0.91809411      6.68087706
C       8.33447027      1.21810400      3.39245405
C       5.29881206     14.39149005     18.59228038
C       6.46242349     -1.23503357      8.08051241
C      -2.87404447      9.53194955     11.22013947
C       4.31184547     13.87103281     19.74867924
C       4.12002447      8.53252483      0.06897896
C      12.21239697      0.84249035      4.62247399
C      11.29239210      1.87871437      3.96858400
C       9.94969197     -7.55780302     -7.36773878
C       3.17666446      9.75798076      0.37673361
C       6.68104545     -4.44182989      5.48103386
H       8.83590340      6.40895737     -8.20428819
H       5.09175850     -8.28828576     -8.09581422
H       1.78985928     -2.41630289      3.35447386
H      -9.29870296     -2.27970375     24.37191453
H      -8.91325667    -11.96376305     17.59918153
H      14.05695907      7.01399979     11.01100017
H       8.20852695      1.73178347      5.32997784
H       6.46427612     14.09469184     18.83872016
H       5.23943055     15.61221313     18.47636140
H      -3.44692670     -0.88458373     -6.99834986
H       4.64872043      7.49386559      0.10757096
H      -7.32551341     20.53840784      9.86175032
H      -1.15127609     -8.58966245     -0.57613113
H       3.07888912     -1.03094740      2.85632226
H       7.73026297     -4.42619200      6.13522621
H      10.88715116     -6.79162543     -7.41661245
H      -7.45870874     20.54700631     10.63024563
   94

C       7.14788094     -6.80296833     -7.70156848
C       5.71606170     -7.63956302     -7.24306918
H       7.41157319     -5.95367573     -6.83032960
C       3.19278380     -1.95911214      5.27034077
H     -18.89221347     -7.18329979     -1.80827319
H       4.71296653     -7.05079976     -6.81351165
C       4.41464597     -2.40740310      6.36066981
H       5.77863212     -8.46853901     -6.32262022
H      -7.81536434     -6.27943207    -16.91818494
H      -7.80765489     -7.04882753    -16.79023494
C      10.31006147      1.57902090      3.32100327
H      14.33893955      6.37920739     11.29915009
C       7.00805401     -3.89234480      4.17717085
H       9.19037438      5.57968872     -9.89523351
H       7.37197947     -3.51870672      3.12610615
H       2.79352433     -8.95758408     14.21314662
C       5.05417597     -4.03065189      6.27997313
H       4.20019949     -4.87111203      5.94702111
C       7.86409057      7.62375977    -10.15568165
H       5.00693148     -4.63057737      7.37233025
H       8.51429031      8.52609445    -10.62630327
H       6.77648296      8.00918381    -10.51590048
C       8.33426406      6.26320276     -9.33120490
H       9.28509252      1.51843323      0.59932719
C       8.53025588      1.66340123      1.52713457
H      11.99824447      3.30065037      3.67670963
H       7.41649647      5.45916974     -9.15844608
H      -1.83302559      9.99760575     11.40896548
C       8.54706020     -7.63411865     -8.27297568
H       2.27570804     -1.28919760      5.74026253
H     -19.27152071     -7.16727250     -1.12690020
C      -2.09860625     -9.18929020     -0.00252791
H       3.60695117     -2.57288180      7.29116459
C       1.76765980     -8.77412093     14.80633050
H      -2.90985801     -9.66064453      0.68584923
H     -10.19131942    -12.09736009     15.61990197
H       1.36295645     -7.65768722     14.97281789
C      -3.95120507      0.02223302     -7.52568908
H       3.75620594     10.83872500      0.22035217
C       1.52777187      9.66898331      0.83034282
H      -4.45533462      0.92893190     -8.05287261
H       1.35794928     10.11407507      1.96673944
H       1.03241751      8.54496045      0.92147340
H       0.71402757     10.18116417      0.06028495
H       8.83404299     -7.43732239     -9.46447444
H       8.44886801     -8.82454356     -8.60459394
H      10.34309768     -8.23949080     -6.44688700
H       5.42242004      0.92893422      5.13057599
H       4.75208403     -0.16077897      7.36943725
H       1.14660116     -9.70698211     15.23292956
H       7.62835382      2.07362363      0.84881527
H      -9.42717014     -2.95188573     23.99782307
H       5.00901571     13.89823234     17.50829377
H       3.59244400     13.49181970     20.59453075
H       6.02780223     -1.43174322      9.35600082
H      19.73105029      4.98020316     -1.26362654
H      -3.86211320      8.92085000     11.06918834
H      20.42136396      5.12877719     -0.93227808
H       3.36531295     -2.94756124      2.93443145
H       6.70120858     -5.73617770      5.24690684
H       6.88301920     -5.83548544     -8.44117238
H       7.46490151     -1.60134828      8.43782455
C       2.78901991     -2.13862643      3.65649097
C      -9.58930127    -12.04057772     16.61415228
C       6.06600384      0.02088034      5.62311383
C       5.40787131     -1.04031315      6.79005211
C       8.74670600      1.47791024      3.13627593
C       5.30013031     14.39240855     18.59372891
C       6.31260535     -1.34545417      8.17578435
C      -2.88077141      9.52379842     11.23272784
C       4.31317037     13.87193426     19.75012410
C       4.04537327      8.60800093      0.05061072
C      12.62195133      1.11141698      4.37228098
C      11.69826539      2.15331627      3.73357256
C       9.94915454     -7.55875595     -7.36780258
C       3.09997800      9.83260142      0.35461209
C       6.52484954     -4.55155399      5.56317153
H       8.83139491      6.41507576     -8.21019040
H       5.09169010     -8.28894851     -8.09563158
H       1.63938144     -2.53093190      3.43537101
H      -9.29881704     -2.27965606     24.37203253
H      -8.98781220    -11.98371478     17.60871844
H      14.16307400      7.13251265     11.19912689
H       8.51648226      1.98484055      4.95078813
H       6.46559281     14.09561455     18.84017961
H       5.24074739     15.61313105     18.47780775
H      -3.44705930     -0.88451368     -6.99860531
H       4.58330137      7.57365656      0.06941721
H      -7.32587545     20.53922595      9.86172746
H      -1.28723046     -8.71756696     -0.69050061
H       2.93078327     -1.14220122      2.94338298
H       7.57412290     -4.53416841      6.21710637
H      10.88763274     -6.79385936     -7.41709566
H      -7.45906465     20.54781693     10.63022390
   94

C       7.14765487     -6.80290063     -7.70185269
C       5.71625240     -7.63976857     -7.24257774
H       7.41135810     -5.95307197     -6.83113988
C       3.03664893     -2.07328178      5.35661938
H     -18.89231286     -7.18329526     -1.80829674
H       4.71329498     -7.05122029     -6.81241305
C       4.24988188     -2.52509996      6.45478182
H       5.77941418     -8.46875208     -6.32218298
H      -7.81537398     -6.27942227    -16.91822383
H      -7.80766593     -7.04881857    -16.79027878
C      10.71060940      1.86287454      3.09393009
H      14.44405261      6.49657920     11.48514150
C       6.85539823     -3.99671460      4.25944613
H       9.19020269      5.57830487     -9.90194331
H       7.22496214     -3.60647726      3.21595238
H       2.77671242     -9.09321711     14.42695604
C       4.89710046     -4.14422807      6.36352770
H       4.04512980     -4.98345595      6.02316933
C       7.86573069      7.62362260    -10.16125465
H       4.85207063     -4.74489404      7.45517900
H       8.51824023      8.52709537    -10.62695332
H       6.77667615      8.00955913    -10.51652216
C       8.33410386      6.26199405     -9.33769165
H       9.66452568      1.77288468      0.34989745
C       8.91498210      1.92852510      1.27921570
H      12.40459174      3.57565384      3.42385206
H       7.41997858      5.45514397     -9.15829886
H      -1.84357001      9.99843773     11.42054347
C       8.54690049     -7.63393008     -8.27324877
H       2.11811762     -1.40406898      5.82363578
H     -19.27161514     -7.16726892     -1.12692097
C      -2.23440330     -9.31725917     -0.11735043
H       3.44416289     -2.68947623      7.38675288
C       1.75096121     -8.90983757     15.02036474
H      -3.04579487     -9.78882753      0.57071585
H     -10.26567908    -12.11725253     15.62935674
H       1.34622799     -7.79341325     15.18685278
C      -3.95116748      0.02228081     -7.52568942
H       3.68132235     10.90899849      0.18934865
C       1.45159001      9.74599372      0.80665960
H      -4.45532424      0.92895941     -8.05288085
H       1.27820350     10.19208449      1.94215404
H       0.95500041      8.62256928      0.89760759
H       0.64120691     10.26136936      0.03511432
H       8.83433611     -7.43648740     -9.46452763
H       8.44872124     -8.82413407     -8.60567540
H      10.34118616     -8.23961174     -6.44553047
H       5.35384064      0.81552221      5.19663459
H       4.59396845     -0.26403320      7.46322709
H       1.13001828     -9.84270262     15.44712656
H       7.99294829      2.33462073      0.62724517
H      -9.42728999     -2.95184968     23.99793599
H       5.01035972     13.89906772     17.50965877
H       3.59380931     13.49264628     20.59590750
H       5.88964064     -1.53817474      9.45291966
H      20.28477238      5.14860359     -1.47063454
H      -3.87378797      8.92120392     11.08064345
H      20.97513308      5.29719188     -1.13938976
H       3.21420574     -3.05805962      3.01726494
H       6.54782674     -5.84363490      5.32795913
H       6.88224019     -5.83579904     -8.44174988
H       7.32307330     -1.69431409      8.50766054
C       2.63696666     -2.25156201      3.74133429
C      -9.66373870    -12.06047461     16.62365401
C       5.90167236     -0.11724256      5.74026537
C       5.23626998     -1.16153877      6.89903178
C       9.15581704      1.74062387      2.87879907
C       5.30147223     14.39324739     18.59509265
C       6.16215051     -1.45425198      8.27055614
C      -2.88727431      9.51541998     11.24518313
C       4.31451919     13.87276850     19.75149065
C       3.97221690      8.67992507      0.03456733
C      13.03071868      1.38254630      4.11889683
C      12.10161328      2.43051420      3.49887069
C       9.94857738     -7.55936343     -7.36737449
C       3.02486516      9.90438250      0.33274604
C       6.36912323     -4.65918495      5.64384781
H       8.82677096      6.42110721     -8.21600202
H       5.09162885     -8.28924787     -8.09488248
H       1.48865701     -2.64594887      3.51629566
H      -9.29892097     -2.27961831     24.37213692
H      -9.06227383    -12.00363529     17.61823580
H      14.26848832      7.24999600     11.38543005
H       8.81966073      2.19822109      4.57915966
H       6.46693307     14.09645701     18.84155476
H       5.24208890     15.61396936     18.47916797
H      -3.44698676     -0.88444537     -6.99860500
H       4.51964599      7.65044689      0.03357585
H      -7.32621481     20.54001629      9.86169487
H      -1.42285884     -8.84528140     -0.80494895
H       2.78245000     -1.25350384      3.03087434
H       7.41822370     -4.64053560      6.29798740
H      10.88803640     -6.79570153     -7.41703851
H      -7.45939930     20.54860166     10.63019218
   94

C       7.14746816     -6.80244801     -7.70156459
C       5.71647562     -7.63962100     -7.24158000
H       7.41116557     -5.95209230     -6.83135920
C       2.87816700     -2.19040795      5.44341261
H     -18.89240855     -7.18328960     -1.80832007
H       4.71365584     -7.05129888     -6.81079351
C       4.08350530     -2.64404486      6.54944973
H       5.78022399     -8.46862179     -6.32124712
H      -7.81536700     -6.27940507    -16.91824253
H      -7.80766086     -7.04880240    -16.79030354
C      11.11053413      2.15209846      2.86859311
H      14.54892627      6.61339448     11.66956986
C       6.70275733     -4.10013843      4.34162199
H       9.18991557      5.57679056     -9.90840393
H       7.07969054     -3.69267208      3.30685531
H       2.75984741     -9.22879476     14.64066078
C       4.73979595     -4.25840013      6.44719627
H       3.89038445     -5.09691244      6.09942306
C       7.86732509      7.62335660    -10.16663056
H       4.69746133     -4.85996355      7.53808500
H       8.52215842      8.52792078    -10.62742043
H       6.77683602      8.00980298    -10.51692055
C       8.33384028      6.26066237     -9.34391318
H      10.04368877      2.03015057      0.10055416
C       9.29994585      2.20135544      1.03078228
H      12.81488926      3.85164371      3.16781325
H       7.42341679      5.45101995     -9.15781489
H      -1.85403390      9.99913885     11.43196238
C       8.54673180     -7.63338098     -8.27304917
H       1.95764500     -1.52262343      5.90750696
H     -19.27170639     -7.16726455     -1.12694179
C      -2.36996599     -9.44507353     -0.23226193
H       3.28002363     -2.80821654      7.48296682
C       1.73421893     -9.04550237     15.23431234
H      -3.18150314     -9.91684529      0.45549601
H     -10.33998051    -12.13713663     15.63882198
H       1.32945531     -7.92908372     15.40077773
C      -3.95095244      0.02229854     -7.52549223
H       3.60816410     10.97657825      0.15831080
C       1.37686260      9.82179961      0.78293642
H      -4.45514903      0.92893664     -8.05271556
H       1.19986103     10.26916580      1.91740856
H       0.87860286      8.69917504      0.87380441
H       0.57007027     10.34060051      0.00983779
H       8.83460489     -7.43529225     -9.46411202
H       8.44857779     -8.82336373     -8.60629310
H      10.33924479     -8.23929393     -6.44366088
H       5.28230005      0.69841970      5.26063066
H       4.43235782     -0.36844402      7.55867137
H       1.11339316     -9.97836165     15.66126114
H       8.35783448      2.59983316      0.40444234
H      -9.42739881     -2.95182479     23.99803740
H       5.01173284     13.89982386     17.51094443
H       3.59520136     13.49342904     20.59721860
H       5.75163695     -1.64503968      9.54899224
H      20.83857872      5.31708511     -1.67787775
H      -3.88528366      8.92154021     11.09200185
H      21.52898273      5.46567393     -1.34672256
H       3.06253576     -3.16986578      3.10013107
H       6.39493730     -5.95052054      5.40878769
H       6.88149987     -5.83572000     -8.44174354
H       7.17992960     -1.78632104      8.57543231
C       2.48368399     -2.36627253      3.82620307
C      -9.73810070    -12.08035562     16.63315539
C       5.72165160     -0.25221629      5.85558995
C       5.06137062     -1.28290152      7.00932378
C       9.56467919      2.01892794      2.62191854
C       5.30284019     14.39401210     18.59637570
C       6.01090583     -1.56233444      8.36441535
C      -2.89358971      9.50685812     11.25751377
C       4.31589389     13.87354017     19.75278220
C       3.90075404      8.74876646      0.02036037
C      13.44129119      1.65507672      3.86269273
C      12.50824859      2.70891991      3.25900468
C       9.94799364     -7.55958227     -7.36647712
C       2.95141984      9.97359968      0.31101343
C       6.21339831     -4.76630404      5.72429548
H       8.82202660      6.42700900     -8.22160063
H       5.09160955     -8.28918814     -8.09364024
H       1.33695790     -2.76308566      3.59661735
H      -9.29901527     -2.27959172     24.37223028
H      -9.13664317    -12.02353149     17.62774210
H      14.37363744      7.36693286     11.57029534
H       9.13717672      2.39956281      4.21263816
H       6.46829929     14.09722468     18.84284945
H       5.24345728     15.61473360     18.48044630
H      -3.44672713     -0.88438326     -6.99837388
H       4.45859989      7.72507608     -0.00038127
H      -7.32653165     20.54078000      9.86165209
H      -1.55825398     -8.97289125     -0.91952453
H       2.63267055     -1.36641420      3.11858132
H       7.26224221     -4.74611011      6.37878589
H      10.88837842     -6.79708565     -7.41644067
H      -7.45971292     20.54936168     10.63014998
   94

C       7.14733531     -6.80163293     -7.70078545
C       5.71674906     -7.63915135     -7.24016126
H       7.41100845     -5.95075408     -6.83107368
C       2.71735968     -2.31058497      5.53078732
H     -18.89250001     -7.18328285     -1.80834333
H       4.71406030     -7.05107344     -6.80874374
C       3.91530747     -2.76479394      6.64484995
H       5.78107757     -8.46818236     -6.31990038
H      -7.81534374     -6.27938058    -16.91824151
H      -7.80764005     -7.04877911    -16.79030965
C      11.51239893      2.44456254      2.64137312
H      14.65386358      6.73003974     11.85292532
C       6.54922484     -4.20442507      4.42417849
H       9.18954007      5.57510182     -9.91444537
H       6.93346011     -3.78260268      3.39732960
H       2.74291020     -9.36433509     14.85428896
C       4.58187032     -4.37371176      6.53130450
H       3.73537597     -5.21182015      6.17609403
C       7.86890496      7.62290441    -10.17167837
H       4.54252457     -4.97622836      7.62142299
H       8.52607246      8.52849403    -10.62762004
H       6.77699762      8.00983665    -10.51700298
C       8.33350421      6.25916997     -9.34969931
H      10.42276569      2.28930454     -0.15000286
C       9.68539845      2.48100766      0.78033929
H      13.22944140      4.12854060      2.90905832
H       7.42685054      5.44675485     -9.15680898
H      -1.86444013      9.99971395     11.44323852
C       8.54658656     -7.63248121     -8.27243309
H       1.79440470     -1.64478001      5.99189121
H     -19.27179402     -7.16725944     -1.12696288
C      -2.50532867     -9.57274341     -0.34724824
H       3.11411597     -2.92970536      7.57982768
C       1.71740932     -9.18112682     15.44819117
H      -3.31701300    -10.04470698      0.34020937
H     -10.41422707    -12.15701638     15.64830540
H       1.31261389     -8.06471046     15.61460961
C      -3.95057708      0.02228532     -7.52511328
H       3.53657311     11.04205803      0.12723950
C       1.30353513      9.89668242      0.75907650
H      -4.45482160      0.92886665     -8.05238997
H       1.12284277     10.34553270      1.89242798
H       0.80326983      8.77501408      0.84992656
H       0.50050026     10.41908582     -0.01560724
H       8.83488531     -7.43374885     -9.46328321
H       8.44847683     -8.82224411     -8.60649852
H      10.33731393     -8.23853391     -6.44134347
H       5.20435401      0.57459757      5.32670159
H       4.26632250     -0.47605546      7.65825324
H       1.09669991    -10.11397123     15.87534617
H       8.72372599      2.86984858      0.17915252
H      -9.42749573     -2.95181246     23.99812794
H       5.01313694     13.90050838     17.51215584
H       3.59662098     13.49417282     20.59846764
H       5.61430659     -1.75319602      9.64485853
H      21.39247408      5.48562397     -1.88525440
H      -3.89660775      8.92185490     11.10327333
H      22.08292159      5.63420648     -1.55418600
H       2.91005259     -3.28309674      3.18310052
H       6.24184639     -6.05819943      5.49056537
H       6.88081354     -5.83527292     -8.44123816
H       7.03564763     -1.87798163      8.64136677
C       2.32909460     -2.48278824      3.91119364
C      -9.81238928    -12.10022506     16.64266339
C       5.52652400     -0.38314948      5.97140996
C       4.88299280     -1.40537220      7.12203497
C       9.97475175      2.31459320      2.36407821
C       5.30423612     14.39470955     18.59758345
C       5.85899710     -1.67093728      8.45792651
C      -2.89975268      9.49815046     11.26972738
C       4.31729603     13.87425529     19.75400347
C       3.83098204      8.81531340      0.00731304
C      13.85365409      1.92858620      3.60456295
C      12.91866930      2.98833985      3.01439851
C       9.94743515     -7.55940195     -7.36516676
C       2.87953982     10.04079550      0.28930230
C       6.05717267     -4.87413384      5.80527477
H       8.81719245      6.43273928     -8.22681448
H       5.09165403     -8.28880331     -8.09199140
H       1.18414334     -2.88222526      3.67651654
H      -9.29909927     -2.27957758     24.37231317
H      -9.21091919    -12.04340750     17.63724254
H      14.47879115      7.48368931     11.75411723
H       9.47330853      2.60827097      3.84461158
H       6.46969344     14.09792439     18.84406880
H       5.24485438     15.61543066     18.48164832
H      -3.44630377     -0.88433360     -6.99793102
H       4.40056376      7.79860767     -0.03313518
H      -7.32682694     20.54151888      9.86159925
H      -1.69345382     -9.10040348     -1.03421526
H       2.48132347     -1.48101402      3.20652329
H       7.10579883     -4.85191150      6.46001979
H      10.88867979     -6.79798582     -7.41534549
H      -7.46000643     20.55009865     10.63009747
   94

C       7.14726121     -6.80050329     -7.69961714
C       5.71708156     -7.63840986     -7.23841438
H       7.41089333     -5.94910021     -6.83039135
C       2.55496836     -2.43285995      5.61854910
H     -18.89258569     -7.18327502     -1.80836624
H       4.71451254     -7.05059880     -6.80636036
C       3.74589107     -2.88685250      6.74072784
H       5.78198424     -8.46748442     -6.31823577
H      -7.81530494     -6.27934917    -16.91822144
H      -7.80760422     -7.04874907    -16.79029768
C      11.91545194      2.73896546      2.41224246
H      14.75905577      6.84681463     12.03569475
C       6.39442766     -4.31062190      4.50725448
H       9.18915148      5.57319687     -9.91982550
H       6.78494071     -3.87841197      3.48658537
H       2.72589308     -9.49982723     15.06783022
C       4.42324196     -4.48996001      6.61593883
H       3.57976424     -5.32774568      6.25335625
C       7.87053425      7.62219852    -10.17620617
H       4.38696970     -5.09332634      7.70535758
H       8.53003764      8.52872374    -10.62742614
H       6.77722929      8.00955636    -10.51663839
C       8.33317570      6.25748124     -9.35480526
H      10.80194500      2.54935880     -0.40175083
C      10.07104532      2.76536921      0.52745662
H      13.64650059      4.40589086      2.64837657
H       7.43037028      5.44230480     -9.15502728
H      -1.87480996     10.00016375     11.45439042
C       8.54648930     -7.63126337     -8.27147574
H       1.62929657     -1.76938199      6.07660599
H     -19.27187657     -7.16725358     -1.12698399
C      -2.64050884     -9.70026579     -0.46228062
H       2.94693482     -3.05311612      7.67706296
C       1.70052275     -9.31669806     15.66198678
H      -3.45233954    -10.17240974      0.22488713
H     -10.48841941    -12.17689341     15.65781193
H       1.29569296     -8.20028053     15.82833035
C      -3.95006412      0.02223869     -7.52457088
H       3.46624040     11.10618088      0.09614907
C       1.23140190      9.97098714      0.73502478
H      -4.45435961      0.92875115     -8.05191998
H       1.04693291     10.42144612      1.86718686
H       0.72891313      8.85037725      0.82587866
H       0.43221841     10.49710478     -0.04124068
H       8.83520446     -7.43189114     -9.46211592
H       8.44844696     -8.82080915     -8.60636204
H      10.33542991     -8.23735809     -6.43866855
H       5.12321029      0.44258020      5.39724134
H       4.09682628     -0.58682307      7.76167855
H       1.07993014    -10.24951882     16.08936806
H       9.09074019      3.14364366     -0.04905121
H      -9.42757839     -2.95181415     23.99820646
H       5.01457313     13.90113010     17.51329965
H       3.59806824     13.49488285     20.59965943
H       5.47755845     -1.86228939      9.74040979
H      21.94643224      5.65419840     -2.09267404
H      -3.90776759      8.92213768     11.11446841
H      22.63692824      5.80277284     -1.76170209
H       2.75673652     -3.39747877      3.26619636
H       6.08803951     -6.16731486      5.57380504
H       6.88018592     -5.83450812     -8.44033919
H       6.89025747     -1.96968100      8.70586237
C       2.17345692     -2.60064289      3.99632413
C      -9.88660429    -12.12008510     16.65218254
C       5.32022431     -0.51024538      6.08799395
C       4.70238151     -1.52881197      7.23658235
C      10.38540079      2.62524521      2.10458100
C       5.30566123     14.39534774     18.59872292
C       5.70669292     -1.78015342      8.55106626
C      -2.90579838      9.48933167     11.28183326
C       4.31872641     13.87492080     19.75516065
C       3.76271533      8.88050668     -0.00528365
C      14.26662554      2.20253244      3.34498691
C      13.33112015      3.26835664      2.76658618
C       9.94692837     -7.55883909     -7.36352226
C       2.80895958     10.10666951      0.26752711
C       5.90020066     -4.98323638      5.88712788
H       8.81234841      6.43825148     -8.23139576
H       5.09177221     -8.28814715     -8.09002700
H       1.03038087     -3.00276912      3.75627796
H      -9.29917102     -2.27957733     24.37238447
H      -9.28509927    -12.06326560     17.64674021
H      14.58412685      7.60055232     11.93730947
H       9.82530778      2.82968559      3.47187605
H       6.47111682     14.09856416     18.84521951
H       5.24628129     15.61606854     18.48278114
H      -3.44574593     -0.88430417     -6.99729773
H       4.34540847      7.87209641     -0.06542144
H      -7.32710236     20.54223547      9.86153712
H      -1.82847779     -9.22781040     -1.14899122
H       2.32871412     -1.59691507      3.29462706
H       6.94870867     -4.95855596      6.54191329
H      10.88896262     -6.79841190     -7.41382890
H      -7.46028139     20.55081490     10.63003542
   94

C       7.14724143     -6.79912379     -7.69816775
C       5.71747256     -7.63745775     -7.23642919
H       7.41081984     -5.94719139     -6.82942651
C       2.39173356     -2.55629824      5.70645603
H     -18.89266384     -7.18326625     -1.80838839
H       4.71500986     -7.04993791     -6.80373521
C       3.57608999     -3.00939035      6.83668236
H       5.78294561     -8.46658730     -6.31634152
H      -7.81525151     -6.27931138    -16.91818309
H      -7.80755431     -7.04871280    -16.79026830
C      12.31803527      3.03452380      2.18194375
H      14.86460454      6.96392924     12.21833059
C       6.23843870     -4.41896499      4.59077885
H       9.18888243      5.57104818     -9.92425339
H       6.63397832     -3.97991687      3.57449282
H       2.70879251     -9.63525606     15.28126673
C       4.26405219     -4.60667506      6.70101744
H       3.42350727     -5.44408013      6.33123459
C       7.87231307      7.62117327    -10.17997595
H       4.23080285     -5.21066861      7.78986753
H       8.53413829      8.52851886    -10.62668324
H       6.77763450      8.00884466    -10.51566903
C       8.33299449      6.25557398     -9.35893221
H      11.18120305      2.80954127     -0.65403369
C      10.45657531      3.05245363      0.27260476
H      14.06428693      4.68300320      2.38625986
H       7.43412702      5.43763687     -9.15216944
H      -1.88516321     10.00048721     11.46543865
C       8.54645342     -7.62977733     -8.27026128
H       1.46312584     -1.89545920      6.16147271
H     -19.27195239     -7.16724708     -1.12700479
C      -2.77552223     -9.82764246     -0.57733169
H       2.77932243     -3.17728112      7.77434692
C       1.68355431     -9.45220083     15.87567891
H      -3.58749663    -10.29995505      0.10955880
H     -10.56255781    -12.19676865     15.66734529
H       1.27868651     -8.33577866     16.04191641
C      -3.94943884      0.02215542     -7.52388470
H       3.39676230     11.16971006      0.06505182
C       1.16014109     10.04507069      0.71076859
H      -4.45378331      0.92859104     -8.05132292
H       0.97181749     10.49718053      1.84170377
H       0.65532307      8.92556921      0.80161604
H       0.36483582     10.57494894     -0.06704697
H       8.83557729     -7.42976937     -9.46069391
H       8.44850257     -8.81910948     -8.60596379
H      10.33361934     -8.23581859     -6.43573836
H       5.04126121      0.30178843      5.47409014
H       3.92531076     -0.69996139      7.86758502
H       1.06308086    -10.38498958     16.30330838
H       9.45866723      3.41962612     -0.27973831
H      -9.42764394     -2.95183146     23.99827130
H       5.01604184     13.90169821     17.51438362
H       3.59954252     13.49556423     20.60079958
H       5.34105321     -1.97162373      9.83516516
H      22.50043342      5.82279615     -2.30007543
H      -3.91877207      8.92237612     11.12559948
H      23.19098586      5.97136339     -1.96921694
H       2.60271825     -3.51270532      3.34938446
H       5.93333205     -6.27791570      5.65850203
H       6.87961165     -5.83349254     -8.43915778
H       6.74375386     -2.06151656      8.76921268
C       2.01708147     -2.71938707      4.08154014
C      -9.96074572    -12.13993743     16.66171647
C       5.10692991     -0.63333302      6.20453876
C       4.52115511     -1.65247217      7.35150453
C      10.79535399      2.94691728      1.84372399
C       5.30711612     14.39593502     18.59980220
C       5.55421330     -1.88955136      8.64346248
C      -2.91176244      9.48043581     11.29384289
C       4.32018520     13.87554377     19.75626091
C       3.69560701      8.94527339     -0.01805745
C      14.67889313      2.47636641      3.08416572
C      13.74365930      3.54836134      2.51660804
C       9.94649020     -7.55793474     -7.36163366
C       2.73929492     10.17196075      0.24563064
C       5.74250444     -5.09363642      5.96985059
H       8.80763859      6.44350565     -8.23504274
H       5.09196186     -8.28728434     -8.08783293
H       0.87592330     -3.12422125      3.83607958
H      -9.29922808     -2.27959248     24.37244255
H      -9.35918156    -12.08310791     17.65623770
H      14.68974721      7.71772643     12.12027873
H      10.19011792      3.06180614      3.09375378
H       6.47257009     14.09915236     18.84630938
H       5.24773852     15.61665559     18.48385293
H      -3.44508493     -0.88430324     -6.99649660
H       4.29249598      7.94639543     -0.09788492
H      -7.32736012     20.54293290      9.86146690
H      -1.96334272     -9.35510871     -1.26382255
H       2.17518805     -1.71373572      3.38275468
H       6.79099965     -5.06621700      6.62445022
H      10.88924698     -6.79840833     -7.41198881
H      -7.46053982     20.55151324     10.62996506
   94

C       7.14765971     -6.79940886     -7.70070830
C       5.71854871     -7.63840767     -7.23809161
H       7.41122279     -5.94652014     -6.83289321
C       2.20949179     -2.69874185      5.80472065
H     -18.89185999     -7.18329685     -1.80818867
H       4.71617613     -7.05134812     -6.80455355
C       3.38301044     -3.14985224      6.94921450
H       5.78483451     -8.46763345     -6.31814998
H      -7.81523282     -6.27941550    -16.91792814
H      -7.80752163     -7.04880949    -16.78996947
C      12.76924862      3.36743964      1.93540848
H      14.97951479      7.09207608     12.41604937
C       6.06644408     -4.54552343      4.68327592
H       9.19195587      5.56606682     -9.92138378
H       6.46347762     -4.10638034      3.66701362
H       2.68997055     -9.77739982     15.50643091
C       4.08904948     -4.73692539      6.79485328
H       3.25283658     -5.57219308      6.41144805
C       7.87850467      7.61834864    -10.17489680
H       4.06020087     -5.34062057      7.88340795
H       8.54517962      8.52479629    -10.61739994
H       6.78178276      8.00321586    -10.50750885
C       8.33635897      6.25089971     -9.35494898
H      11.59579269      3.09363480     -0.93745891
C      10.87793165      3.37918120     -0.01887537
H      14.53274407      4.98518127      2.10976091
H       7.44520684      5.42729973     -9.13604036
H      -1.89733254     10.00199152     11.47791144
C       8.54732119     -7.62964134     -8.27231642
H       1.27640355     -2.04145138      6.25418143
H     -19.27118577     -7.16726916     -1.12682601
C      -2.92102848     -9.96455360     -0.69898412
H       2.59027086     -3.31949488      7.88974312
C       1.66390764     -9.59373336     16.09921025
H      -3.73203069    -10.43545003     -0.00998688
H     -10.63617044    -12.21636728     15.67652925
H       1.25920054     -8.47729060     16.26562464
C      -3.95008094      0.02188444     -7.52418447
H       3.32155253     11.24147646      0.03046548
C       1.08139338     10.13175999      0.68480919
H      -4.45424832      0.92846258     -8.05155203
H       0.88615027     10.58550147      1.81403647
H       0.57343555      9.01373684      0.77518864
H       0.29219005     10.66811544     -0.09500761
H       8.83707070     -7.42879500     -9.46244961
H       8.44960652     -8.81870307     -8.60905680
H      10.33234414     -8.23542883     -6.43585459
H       4.97131852      0.11102214      5.58571697
H       3.72850213     -0.82746751      8.00395901
H       1.04255692    -10.52650631     16.52557198
H       9.85517479      3.74079914     -0.52739251
H      -9.42675544     -2.95204824     23.99740376
H       5.01772734     13.90280771     17.51601301
H       3.60111331     13.49662780     20.60233373
H       5.20244327     -2.08627382      9.94950034
H      23.07013203      5.99563860     -2.51134100
H      -3.93103858      8.92291594     11.13749048
H      23.76030558      6.14401433     -2.17961144
H       2.43215520     -3.64334450      3.43997824
H       5.76424619     -6.40496177      5.75811966
H       6.87923097     -5.83437013     -8.44218514
H       6.58760550     -2.15511624      8.82966203
C       1.84419151     -2.85502458      4.17575957
C     -10.03415803    -12.15946911     16.67077714
C       4.82873758     -0.77140150      6.35833019
C       4.30868952     -1.79671824      7.50209337
C      11.25937911      3.33316678      1.54231991
C       5.30882792     14.39699615     18.60144790
C       5.39081943     -2.00746812      8.75428714
C      -2.91901484      9.47185320     11.30675683
C       4.32185056     13.87661619     19.75787741
C       3.62385734      9.02196015     -0.03554285
C      15.13718918      2.76924376      2.80721017
C      14.20947425      3.85244154      2.24841866
C       9.94685736     -7.55815743     -7.36288236
C       2.66226865     10.24693386      0.22146445
C       5.56950423     -5.21931049      6.06304568
H       8.80152690      6.45082026     -8.22965224
H       5.09270578     -8.28841017     -8.08912867
H       0.70573859     -3.26386462      3.92271209
H      -9.29845674     -2.27982476     24.37164303
H      -9.43221866    -12.10255678     17.66506845
H      14.80368038      7.84552919     12.31710195
H      10.61251064      3.35644737      2.55120098
H       6.47428093     14.10016798     18.84790879
H       5.24946931     15.61771850     18.48549896
H      -3.44591357     -0.88469371     -6.99681691
H       4.24143908      8.03795066     -0.14212261
H      -7.32753058     20.54354438      9.86115128
H      -2.11002629     -9.49365718     -1.38798138
H       2.00620103     -1.84733190      3.47988286
H       6.61851659     -5.18623651      6.71613716
H      10.89058865     -6.79983896     -7.41337830
H      -7.46074211     20.55216357     10.62964357
