   94
energy=      0.00000000
C      -4.59409611     -0.46576396     -0.72749055
C      -2.90171695     -0.48606725     -0.55424609
H      -4.90320870      0.31578499     -1.64677620
C      -5.58380183     -0.21279953      0.64575362
H      -4.95535829     -1.47540316     -1.35687579
H      -2.49971197      0.63449365     -0.23348920
C      -1.72601691     -0.69932651     -1.63382592
H      -2.49574508     -1.38969913      0.18795000
H      -5.95424153     -3.69409186    -11.07920866
H      -5.94653034     -4.46348585    -10.95125000
C      -0.24944095     -0.74279623     -2.26877412
H      -0.62413015      0.30202991     -2.81113670
C       1.43435352     -0.54195127     -2.25906991
H      -0.38726818     -1.96839126     -2.17121228
H       1.81003518      0.03888594     -3.30285276
H       1.94591692     -1.44771699     -2.95773735
C       2.09882892     -0.07809144     -0.71507941
H       3.02259403      0.71473050     -1.01102678
C       1.32334799      0.38445302      0.82172577
H       3.01205723     -0.92124038     -0.58248222
H       1.32089444      1.57299657      0.46791907
H       2.02423458     -0.46708570      1.37805210
C       0.23352591      0.59265421      2.24410242
H       0.75066849      1.67779318      2.55024074
C       3.69780863      3.05027801    -10.34491686
H       0.47976720     -0.53973870      2.66577200
H       3.05180188      3.85840561    -10.80429584
H      11.00172860     -3.07898185     -5.64314726
C      12.07661157     -2.69844546     -5.16000344
H      -5.31594679      0.90184591      1.11157008
H      -5.35500140     -1.08093091      1.50809593
C      -7.24172424     -0.12116506      0.70804568
H      -7.97283563      0.83284352      0.56443946
C      -1.21775089      0.81513453      3.30532330
H      -8.05666709     -0.98963124      0.91428868
H      -1.12173174      2.04282974      3.37010743
H      -0.93562292     -0.10586734      4.07703172
C      -2.88732308      0.86601506      3.96685639
H      -3.09967902      2.03095485      3.61466455
C      -4.45478976      0.95504617      4.77808038
H      -2.93426624     -0.34404716      4.20667700
H      -4.84842418      1.94758855      5.41482080
H      -4.88341873      0.09974721      5.57470916
H      -5.61699111      0.93590692      4.33739068
H      12.16732100     -1.56935593     -4.68427354
H      12.97559934     -2.68362468     -5.99705760
H      12.34820212     -3.43233358     -4.21492636
H       7.34379230      0.27143588      8.72913486
H       4.69583079      0.42468674     10.34620892
H       7.14886955     -0.17811808      5.80829092
H       9.85324592      0.04478080      7.03557840
H       4.62815977      0.07063167      7.45777593
H       9.58748231     -0.42735498      4.10310797
H       2.09855998      1.64493921     12.06729995
H      12.30052343     -0.23454008      5.26193276
H      12.04719625     -0.69406046      2.32877324
H       1.98295784      0.54201621      9.42778783
H      14.76029202     -0.52774355      3.48016580
H      14.63799943     -0.95936581      0.51663490
H      -0.91039391      1.05491546     14.31081169
H      17.44002579     -0.85564305      1.65890577
H      -1.75325357      0.41858633     11.10163148
C       6.85478399      1.05392717      7.88378333
C       7.63366291      0.83245784      6.36329386
C       5.13309513      1.07073801      8.01462369
C       4.34760270      1.30588159      9.52732910
C       9.34951384      0.81694851      6.19007386
C      10.09060575      0.57910370      4.64893963
C      11.80228726      0.54725710      4.42294346
C       2.65210135      1.56688363      9.68366537
C       2.18810407      2.41247789     11.09758000
C      12.55624170      0.30380853      2.88294828
C      14.27187499      0.26632985      2.64925543
C      15.08441473      0.02776807      1.13864534
C      16.80170089      0.00928775      1.03852064
C      -1.64639488      0.99995677     12.11795263
C      -1.51062354      1.77966552     13.52057041
H      17.37813855     -0.16117355     -0.04303779
H      -2.63634471      2.12121307     13.85007817
H       7.34999866      2.05016567      8.45647935
H       4.96961827      2.20589991     10.12294933
H       7.14498831      1.63051441      5.53306276
H       9.84346387      1.81725188      6.75648560
H       4.65696833      1.85936950      7.16973998
H       9.58376988      1.36975069      3.82290915
H       2.73188012      3.27056884     11.80167111
H      12.29642519      1.55293122      4.97790014
H      12.04690783      1.08253667      2.04856578
H       2.04200580      2.03194743      8.69985485
H      14.76112794      1.27719759      3.19542445
H      14.64026081      0.77788404      0.24379345
H      -0.94638803      2.86459487     13.61131034
H      17.44304443      1.02056440      1.36473746
H       1.30827878      3.26247953     10.92096873
   94
energy=      0.00000000
C      -4.95045648     -0.56201026     -1.13764662
C      -3.25247398     -0.54609917     -0.89478547
H      -5.25400321      0.14265796     -2.11730375
C      -6.02127445     -0.29856386      0.18541315
H      -5.28499295     -1.55384339     -1.80860711
H      -2.88670006      0.58509219     -0.57223362
C      -1.92850608     -0.70636530     -1.81555686
H      -2.88649099     -1.46787101     -0.15661140
H      -5.99889763     -3.73200143    -11.08079869
H      -5.99118644     -4.50139543    -10.95284003
C      -0.57298870     -0.82837667     -2.69193707
H      -1.03311153     -0.04748165     -3.53254040
C       1.09648561     -0.54938650     -2.42836147
H      -0.80232932     -2.02106969     -2.92223267
H       1.52993186      0.14054483     -3.37650539
H       1.71116491     -1.46509517     -3.01878695
C       1.76897452     -0.10120597     -0.88405921
H       2.69632762      0.70811585     -1.13379805
C       1.03009788      0.38854494      0.64654901
H       2.62377123     -0.99629834     -0.71009477
H       0.74827772      1.51842883      0.20453999
H       1.88761093     -0.26998672      1.25554125
C       0.02362492      0.50244692      2.11419384
H       0.74953837      1.41339240      2.55464928
C       3.28659908      3.45951178    -10.54978496
H      -0.06275076     -0.73108907      2.23818323
H       2.64059230      4.26763931    -11.00916380
H      10.49454665     -4.35934703     -8.57361591
C      11.57919244     -4.04095221     -8.08541403
H      -5.79518182      0.81365566      0.67715288
H      -5.82603189     -1.14300575      1.07576511
C      -7.68451043     -0.21892374      0.25572415
H      -8.44159056      0.71902624      0.13587579
C      -1.30856676      0.86739204      3.25348227
H      -8.51074818     -1.07274892      0.48501402
H      -1.19114188      2.09631731      3.39515184
H      -0.93635959      0.29427582      4.29965875
C      -3.04384014      0.79377288      3.59053148
H      -3.36983865      1.77029172      2.89823906
C      -4.46345409      0.94269030      4.60649228
H      -3.18311726     -0.43100097      3.44506319
H      -4.67264417      1.93444751      5.32290385
H      -4.78125563      0.10682614      5.46903120
H      -5.64370198      0.96198705      4.20650878
H      11.54209354     -2.89427383     -7.63840292
H      12.44326046     -4.08942774     -8.96126820
H      11.83751390     -4.82048910     -7.16798887
H       7.55848669      0.42001961      9.45234348
H       4.91639354      0.58494761     11.05559432
H       7.74927171      0.07049824      6.44883431
H      10.39334819      0.21654626      7.89061403
H       4.90742322      0.26770530      8.13371230
H      10.82039432     -0.30820482      3.83914993
H       2.14366756      1.96157396     12.85832778
H      13.49435453      0.00107749      5.18007264
H      13.60271488     -0.56751480      2.18347267
H       2.22785759      0.78097036     10.23457208
H      16.24761537     -0.34478638      3.41431063
H      16.15341981     -0.79680484      0.41341252
H      -4.28152255      1.11923764     16.38534077
H      18.94200341     -0.69548827      1.55632282
H      -5.04090128      0.50751883     13.13302166
C       7.11309970      1.24245439      8.62252790
C       8.02168680      1.03797446      7.18251718
C       5.39096631      1.25443014      8.73004638
C       4.59437815      1.48701650     10.24988155
C       9.65220054      1.10486229      7.52653455
C      11.55638412      0.65365938      3.90620907
C      13.19896311      0.69529708      4.19000851
C       2.90902177      1.80356354     10.46134374
C       2.38445723      2.65778532     11.85937748
C      14.06483815      0.46000403      2.72280814
C      15.78250654      0.43102863      2.55355748
C      16.59331068      0.19123055      1.03989229
C      18.30839032      0.17176003      0.93503898
C      -4.95041157      1.07933717     14.15376607
C      -4.85120648      1.83638986     15.56778305
H      18.88002469      0.00075281     -0.14956068
H      -5.97512865      2.12668854     15.96725760
H       7.55882214      2.27210369      9.17366993
H       5.23678024      2.34702189     10.87892939
H       7.73958740      1.74574924      6.19837905
H      10.37542745      2.07413045      7.62147873
H       4.94101103      2.02082482      7.85262504
H      10.81681520      1.55487775      3.57142641
H       3.01677564      3.53238182     12.46826828
H      13.49261133      1.66137443      4.91802987
H      13.60297106      1.26943947      1.89114204
H       2.33354998      2.28150783      9.46469390
H      16.24961389      1.43304915      3.13387779
H      16.15607873      0.94055304      0.14016988
H      -4.21836374      2.88716328     15.52098478
H      18.94531037      1.18537501      1.26134371
H       1.42980309      3.43790850     11.76108428
