   94
energy=      0.00000000
C       7.15017743     -6.80539434     -7.68906074
C       5.70773994     -7.63265730     -7.24683450
H       7.41383772     -5.96923340     -6.80524697
C       3.80670252     -1.04909194      4.90132175
H     -18.89185999     -7.18329685     -1.80818867
H       4.70213632     -7.03677362     -6.83306378
C       4.58739031     -1.78646874      6.24490248
H       5.75571904     -8.45936141     -6.32334522
H      -7.81523282     -6.27941550    -16.91792814
H      -7.80752163     -7.04880949    -16.78996947
C       8.76877861      1.53336146      6.13296009
H      14.01585003      6.01792577     10.72756143
C       7.06044829     -2.53092365      3.88637261
H       6.58298915      5.85774038     -4.85831488
H       7.23871325     -1.75872346      3.02088375
H       2.82035719     -8.53687346     13.57806579
C       5.38516845     -3.32785880      6.03723773
H       4.60229891     -4.28499431      5.91894804
C       5.51775691      7.86194117     -5.38361477
H       5.54572267     -4.08325454      7.01142467
H       6.33923719      8.63741778     -5.82212386
H       4.53843640      8.36957788     -5.88306833
C       5.68341477      6.55093729     -4.36128601
H      10.54966960      4.35859799    -14.26297634
C       9.89700599      4.00758961    -13.40909094
H       9.66437632      2.30003130      3.97394739
H       4.97503794      5.61816414     -4.77031259
H      -3.00408555     13.84794160     10.96389429
C       8.54669082     -7.64066111     -8.26143905
H       3.18818670     -0.03997135      5.19212132
H     -19.27118577     -7.16726916     -1.12682601
C      -1.51866549     -8.63375620      0.43502515
H       3.46359577     -2.18766121      6.58642155
C       1.79285249     -8.37802301     14.17329943
H      -2.32966778     -9.10465294      1.12402208
H      -9.97034981    -12.02712852     15.60339245
H       1.42066723     -7.24775990     14.31965463
C      -3.95008086      0.02188449     -7.52418446
H       6.19105106      8.00224143     -2.50341037
C       4.14714718      7.02421978     -1.86331413
H      -4.45424836      0.92846256     -8.05155204
H       4.05801911      7.64200489     -0.79259961
H       3.52334166      6.00229572     -1.54594522
H       3.16518431      7.59920051     -2.35149704
H       8.82392135     -7.46007198     -9.45791699
H       8.44595265     -8.83626064     -8.57265652
H      10.39202870     -8.24756378     -6.48453259
H       5.29382204      1.80148682      7.43802803
H       4.22305586     -0.47533540      8.12873919
H       1.18175430     -9.32143667     14.59430382
H       6.84442364      1.51641298      5.26067810
H      -9.42675544     -2.95204824     23.99740376
H       4.78385924     13.79171281     17.27412426
H       3.36678270     13.38625641     20.36001010
H       5.76728106     -1.92603764      9.84904636
H      18.06949782      4.47561687     -0.64462133
H      -4.76113507     12.91559780     10.66978309
H      18.75967138      4.62399260     -0.31289178
H       3.78071935     -1.87534087      2.40151219
H       7.02132822     -4.63031889      4.53373095
H       6.89862460     -5.82980168     -8.42278838
H       7.25925530     -1.81807446      8.94879997
C       3.36366604     -1.10830976      3.26739781
C      -9.30222126    -11.98348273     16.55487947
C       6.03431902      0.80856162      7.43590591
C       5.26338564     -0.75075289      7.50952133
C       7.22543734      1.23649854      6.36116042
C       5.07503143     14.28621610     18.35939653
C       6.10130642     -1.50768367      8.75866104
C      -4.20622018     14.01157358     10.75361368
C       4.08805888     13.76583130     19.51582798
C       6.80080637      5.98887486     -1.81142964
C      11.18429442      1.03774970      4.72873187
C       9.84011186      1.72173219      4.99756789
C       9.95902100     -7.54856483     -7.37364680
C       5.66600181      6.88414487     -2.66663716
C       6.80355078     -3.55073983      5.10079352
H       7.88480345      6.26328250     -1.34384071
H       5.08911253     -8.28100524     -8.10432520
H       2.19495693     -1.42675812      3.01699010
H      -9.29845674     -2.27982476     24.37164303
H      -8.76948275    -11.91360962     17.58683669
H      13.84001574      6.77137901     10.62861420
H       6.45542525      1.34847728      8.46991952
H       6.24074480     13.98974737     18.60505779
H       5.01537555     15.50697903     18.24402985
H      -3.44591361     -0.88469374     -6.99681691
H       6.84387084      4.83340778     -1.45003024
H      -4.35808925     14.63018583      9.69987001
H      -0.70766323     -8.16285954     -0.25397186
H       3.59976774     -0.09561603      2.59235038
H       7.93071861     -3.54056357      5.61031871
H      10.86920503     -6.74931383     -7.40679178
H      -4.70157084     14.65256910     11.68090732
   94
energy=      0.00000000
C       7.14948999     -6.80350186     -7.69234628
C       5.71112937     -7.63465125     -7.24427892
H       7.41318224     -5.96249989     -6.81311416
C       3.63777315     -1.20551669      4.94104226
H     -18.89185999     -7.18329685     -1.80818867
H       4.70643154     -7.04175471     -6.82414399
C       4.83738771     -1.81675219      5.95673721
H       5.76477127     -8.46259121     -6.32225358
H      -7.81523282     -6.27941550    -16.91792814
H      -7.80752163     -7.04880949    -16.78996947
C       8.80012822      1.17209439      3.53115063
H      14.01585007      6.01792583     10.72756150
C       7.32260593     -3.04286732      3.90791536
H       6.53880157      6.41478384     -5.36264128
H       7.59832939     -2.48306661      2.91846157
H       2.84319639     -8.54910385     13.57083210
C       5.44041991     -3.46077245      5.99479961
H       4.58763096     -4.34949855      5.81572521
C       5.45697438      8.37945781     -5.94158299
H       5.43900925     -4.10769210      7.06704672
H       6.27410404      9.13899271     -6.41482955
H       4.48078926      8.86749434     -6.46618669
C       5.62589255      7.09993070     -4.87947576
H       8.08614733      1.44459003      0.78243904
C       7.36489134      1.29413120      1.73923266
H      10.30590441      2.78680672      4.35825492
H       4.91104679      6.16432042     -5.26970531
H      -3.00408555     13.84794160     10.96389429
C       8.54682649     -7.63718047     -8.26488896
H       2.84577623     -0.38863204      5.41819416
H     -19.27118577     -7.16726916     -1.12682601
C      -1.64419417     -8.76066075      0.36729175
H       3.92652502     -2.03167147      6.77838492
C       1.81702460     -8.36701737     14.16377763
H      -2.45519644     -9.23155742      1.05628876
H      -9.97000229    -12.03715339     15.59280125
H       1.41435033     -7.24966596     14.32893548
C      -3.95008093      0.02188444     -7.52418447
H       6.12013536      8.56182567     -3.03149759
C       4.08643572      7.54478315     -2.37622373
H      -4.45424832      0.92846258     -8.05155203
H       3.99250785      8.11935816     -1.28202390
H       3.46317558      6.51474297     -2.08284229
H       3.10897230      8.13123094     -2.85899820
H       8.82735326     -7.45027369     -9.45958212
H       8.44741040     -8.83081410     -8.58416469
H      10.37148578     -8.24168066     -6.46656338
H       5.90720039      1.63577572      4.79893984
H       5.36749843      0.40482769      6.92316380
H       1.19629954     -9.30045428     14.58981355
H       7.01592228      1.68353097      0.65915037
H      -9.42675544     -2.95204824     23.99740376
H       4.78383497     13.79198868     17.27397354
H       3.36707992     13.38602887     20.36016153
H       6.08170279     -1.10824868      8.89696166
H      18.06949782      4.47561687     -0.64462133
H      -4.76113507     12.91559780     10.66978309
H      18.75967138      4.62399260     -0.31289178
H       3.76376427     -2.22619923      2.61307014
H       7.08849240     -4.99661279      4.75235364
H       6.89289575     -5.83064770     -8.42789697
H       7.46952123     -1.27067933      8.41550497
C       3.24006516     -1.38379811      3.33551939
C      -9.36120929    -11.98157325     16.58298376
C       6.55891734      0.60284593      4.93739758
C       5.91104479     -0.46159541      6.23440297
C       7.25485533      0.91586750      3.37036753
C       5.07495762     14.28627279     18.35935893
C       6.51449289     -0.90072201      7.77168925
C      -4.20622018     14.01157358     10.75361368
C       4.08798204     13.76589133     19.51578929
C       6.73667413      6.54849795     -2.31811132
C      11.01189823      0.65892084      5.01660717
C      10.10761779      1.62555619      4.24303173
C       9.95525439     -7.55138493     -7.37038980
C       5.60517753      7.43678125     -3.18492156
C       6.91188906     -3.86811052      5.22123803
H       7.82838310      6.80043735     -1.85570377
H       5.09032629     -8.28305678     -8.10016998
H       2.07314924     -1.73854678      3.16844497
H      -9.29845674     -2.27982476     24.37164303
H      -8.76608192    -11.92334586     17.58128856
H      13.84001575      6.77137902     10.62861423
H       7.35020453      1.18167564      5.64533233
H       6.24048998     13.98955388     18.60557626
H       5.01550809     15.50700748     18.24358696
H      -3.44591357     -0.88469371     -6.99681691
H       6.75133154      5.40036590     -1.93459603
H      -4.35808925     14.63018583      9.69987001
H      -0.83319192     -8.28976414     -0.32170530
H       3.45647304     -0.38884849      2.63938720
H       7.98092730     -3.86761025      5.84749595
H      10.87761038     -6.76662590     -7.41185568
H      -4.70157084     14.65256910     11.68090732
