   94

C     -11.23742416     -2.26444694     -4.66790328
C      -9.74423442     -2.63298795     -3.89671024
H     -11.03561152     -1.61461336     -5.71435336
C     -12.55788119     -1.59396225     -3.79214269
H     -11.62143755     -3.23269709     -5.35535684
H      -9.06181628     -1.70882669     -3.42956454
C       7.95931124      2.14472705      5.98685668
H      -9.72668376     -3.40685404     -2.92825852
H      -6.67718412     -4.85834250    -16.03748284
H      -6.66947293     -5.62773649    -15.90952417
C      -0.02710262     -6.14714591     -6.01562593
H      -0.45847284     -5.11346127     -6.33122199
C       7.84530123      1.36957316      4.44936271
H       0.40292309     -7.18196082     -5.70190463
H       8.32363486      2.26146638      3.75156660
H       6.68782266      1.71051867      4.25365660
C       8.05040017     -0.13811026      3.55541323
H       7.50402477     -1.23063498      3.43470037
C       7.45133783      0.25858537      1.17135810
H       7.54462701     -0.93335384      4.36033922
H       7.26558049      0.72700948      0.04613536
H       7.83980625      1.38953089      0.84155279
C       5.74347323     -0.09156108      1.46199884
H       5.10547026      0.21995797      2.47255919
C       3.13812541      4.60698930    -11.60438981
H       5.39750903     -1.27753028      1.51428336
H       2.49211858      5.41511674    -12.06376844
H      -0.84169931     12.05954180     11.17249877
C      11.40295965     -5.30910995    -10.95545314
H     -12.42809781     -0.48436050     -3.25392950
H     -13.04475757     -2.22516944     -2.84242946
C     -22.67728078     -1.47257526     -2.13778811
H     -13.64184985     -1.34598162     -4.34043447
C      -1.93283846     -5.34869054     12.12156455
H     -23.35549751     -2.35759379     -2.14126214
H      -0.55959182     -5.48843749     10.22357344
H      -2.90997096     -4.97468457     12.65287578
C       4.27894938      0.33699864      0.90329948
H      -2.59812200      2.87372915      2.63238028
C      -3.39862337      2.87111323      3.56795926
H       3.11437481      0.46264867      0.71889183
H      -3.29778082      3.92522578      4.19628885
H      -3.15526817      1.92346294      4.31552767
H      -4.54332044      2.76204016      3.12762767
H      10.97354746     -4.22836335    -10.66301845
H      11.92555499     -5.47828973    -12.02137921
H      11.30977650     -6.22067676    -10.18196175
H       8.82209636      3.09881653     11.45058371
H       7.22734730      1.57027456      9.17195349
H      -0.53297336     -7.08795215     11.39818624
H      10.85854002      0.56838219     11.81598994
H      -8.70101793     -4.16259184     22.46177845
H       5.95413397      3.81829653      6.31716374
H      -2.36605172     13.36006174     23.16941063
H       9.82128852      2.64401991      7.27296345
H       9.90080143     -0.70204213     -0.42222510
H      -2.59828260     11.12763743     10.88037860
H      12.63958704     -0.67740155      1.69295202
H      22.75026404      0.04130417    -13.13509705
H       9.99080815     -2.61307966      3.32100855
H      25.95114173     -1.25922372     -0.91414506
H       9.42403772      0.91856659      7.38283580
C      17.30322965     -4.04092092     16.91429424
C      -0.59595747     -5.86192981     11.39246670
C       8.93705255      2.06778451     10.76288959
C       8.29898296      2.20234789      9.14230227
C      10.44047808      1.60094426     11.33697200
C       7.10229868      3.56438395      6.02550233
C       8.79893858      1.97631380      7.47812641
C      -2.04389078     12.22395780     10.96315703
C      -1.84677972     14.32436800     22.77614832
C      10.11319235     -0.82163703      0.79284734
C      11.80566099     -0.42400188      0.82092724
C      12.91678346     -1.07285544     -0.10842782
C      25.65424051     -0.29178792     -1.55745192
C       8.86290716     -0.46940124      2.02763439
C       9.84865146     -1.41633329      3.06886965
H      25.20112132     -0.42093169     -2.66014452
H      -8.81939701     -3.19038965     -4.50587167
H      16.35524261     -3.75935044     17.46515405
H      -8.57271924     -3.49036836     22.83601772
H       0.40845101     -5.43335660     11.95337605
H      11.47343982      2.19889659     11.54959075
H       8.21580186      1.38710873     11.51221091
H       7.46741461      4.67922394      5.72411598
H      -1.32734954     15.28872180     22.38321162
H       7.90604390      3.37676968      9.20770317
H      10.01739710     -1.97242406      0.31872277
H      -2.19530246     12.84357683      9.90993925
H      12.13562959      0.75847235      0.71566511
H      22.64136139      0.81136653    -13.19463002
H      10.62682811     -1.20982029      3.99631166
H      25.81045847      0.80479166     -1.09806617
H      -2.54027874     12.86507514     11.88981148
   94

C     -11.18554329     -2.28268170     -4.68120641
C      -9.70472858     -2.65714343     -3.89331342
H     -10.98213480     -1.63798412     -5.72993484
C     -12.48079313     -1.58844277     -3.79069924
H     -11.58121375     -3.24983959     -5.36270626
H      -9.02063420     -1.73546238     -3.42389666
C       7.96162236      2.15163849      5.99076982
H      -9.69568910     -3.43092713     -2.92473772
H      -6.68683427     -4.86656248    -16.05303153
H      -6.67920466     -5.63597109    -15.92515459
C       0.00615324     -6.64650438     -5.89594650
H      -0.42358103     -5.61263953     -6.21313838
C       7.84954413      1.37407704      4.45536948
H       0.43548163     -7.68117914     -5.58085465
H       8.34739308      2.25844107      3.76074275
H       6.68961314      1.70934587      4.26115566
C       8.04950730     -0.13702629      3.56827198
H       7.49371283     -1.22773726      3.47058033
C       7.45013830      0.25358706      1.17467951
H       7.55134152     -0.92198347      4.38738743
H       7.27047535      0.70808176      0.04253953
H       7.83023336      1.38870332      0.84894575
C       5.74245017     -0.09723076      1.45476620
H       5.10439699      0.21818777      2.46343750
C       3.39206679      4.99920593    -11.94468676
H       5.40408918     -1.28591583      1.49408652
H       2.74678158      5.80767106    -12.40446719
H      -0.83979788     12.07072970     11.17835765
C      11.36788308     -5.33256044    -10.94959111
H     -12.34435266     -0.47917873     -3.25403386
H     -12.97176672     -2.21732065     -2.84218372
C     -20.82310900     -1.10792830     -2.65478599
H     -13.55648348     -1.33136030     -4.34850203
C      -1.93080773     -5.35474394     12.12763975
H     -21.42623031     -2.05484581     -2.65956861
H      -0.55752753     -5.49451998     10.22964978
H      -2.90788744     -4.98069155     12.65901412
C       4.28081568      0.33713856      0.89252010
H      -2.61023649      2.87828556      2.65954808
C      -3.41069951      2.87567124      3.59515416
H       3.11819614      0.47246173      0.70287217
H      -3.30999262      3.92982012      4.22343531
H      -3.16738938      1.92799863      4.34270161
H      -4.55541977      2.76669918      3.15487406
H      10.93608311     -4.25256292    -10.65790271
H      11.88144400     -5.50585101    -12.01924835
H      11.28557323     -6.24127563    -10.17153037
H       8.81921598      3.09787953     11.45064785
H       7.22718143      1.56768435      9.16993480
H      -0.53092728     -7.09401377     11.40422052
H      10.85888722      0.56622436     11.80650417
H      -8.70093639     -4.16261571     22.46204038
H       5.95328282      3.82012129      6.31864529
H      -2.36593417     13.36107278     23.17505996
H       9.82834376      2.63855309      7.27575298
H       9.89577334     -0.69876424     -0.41457595
H      -2.59639625     11.13881040     10.88617230
H      12.63662868     -0.66981232      1.69247369
H      20.35151543      0.19076354    -12.61114777
H       9.99265709     -2.61656286      3.32081337
H      25.95575830     -1.26015721     -0.90408248
H       9.42215229      0.91556544      7.38681734
C      17.30326445     -4.04096060     16.91456284
C      -0.59393099     -5.86799302     11.39854695
C       8.93504314      2.06732609     10.76240644
C       8.29762110      2.20197398      9.14219872
C      10.44003350      1.60018325     11.33136163
C       7.10253516      3.56982446      6.02805743
C       8.80200648      1.97659215      7.48010648
C      -2.04198614     12.23511902     10.96897834
C      -1.84665923     14.32538137     22.78180715
C      10.10653508     -0.81976808      0.80049419
C      11.79820329     -0.41916815      0.82407798
C      12.90549228     -1.07019470     -0.10812544
C      25.65920011     -0.29243079     -1.54704554
C       8.85798709     -0.47142062      2.03776601
C       9.84741934     -1.41957023      3.07335735
H      25.20658989     -0.42208860     -2.64983666
H      -8.78210339     -3.21913166     -4.50027702
H      16.35527223     -3.75938322     17.46541013
H      -8.57264249     -3.49038395     22.83626643
H       0.41043409     -5.43937320     11.95949693
H      11.47334141      2.19891578     11.53974228
H       8.21410180      1.38620687     11.51162470
H       7.46598398      4.68522554      5.72737349
H      -1.32723665     15.28973434     22.38885828
H       7.90302168      3.37583008      9.20678918
H      10.00722042     -1.96957748      0.32475570
H      -2.19341629     12.85469371      9.91573754
H      12.12652278      0.76374091      0.71800352
H      20.23824815      0.90235953    -12.66288491
H      10.63131622     -1.21299559      3.99587360
H      25.81503811      0.80441883     -1.08827327
H      -2.53833720     12.87623190     11.89565520
   94

C     -10.96322883     -2.33522138     -4.71695070
C      -9.50527526     -2.73674971     -3.90422595
H     -10.75017482     -1.71137103     -5.77546386
C     -12.19561196     -1.57391852     -3.79524731
H     -11.39846706     -3.29734468     -5.37983142
H      -8.80522009     -1.82859266     -3.43158410
C       7.96381213      2.15893166      5.99586736
H      -9.52095337     -3.50961695     -2.93494187
H      -6.69595399     -4.87539927    -16.07048105
H      -6.68842097     -5.64481276    -15.94262483
C       0.04470200     -7.14877539     -5.77495069
H      -0.38180188     -6.11432769     -6.09445581
C       7.85330520      1.37874780      4.46274340
H       0.47214970     -8.18365466     -5.45811434
H       8.37077553      2.25513352      3.77141953
H       6.69094615      1.70836529      4.27010965
C       8.04772591     -0.13614500      3.58319790
H       7.48247592     -1.22447921      3.50861226
C       7.44880142      0.24830769      1.17988521
H       7.55705771     -0.91052114      4.41624196
H       7.27553834      0.68901389      0.04108273
H       7.82048487      1.38751488      0.85822999
C       5.74137612     -0.10330924      1.44915663
H       5.10309074      0.21624010      2.45573392
C       3.63913830      5.39425993    -12.28518386
H       5.41076394     -1.29454891      1.47552838
H       2.99605629      6.20371267    -12.74626329
H      -0.83795724     12.08198972     11.18430816
C      11.25204584     -5.44741223    -10.93338520
H     -12.02366343     -0.47257880     -3.25275301
H     -12.71242986     -2.19132584     -2.85349936
C     -20.10338453     -0.55781833     -3.10677542
H     -13.24860307     -1.26928068     -4.36836490
C      -1.92879730     -5.36089009     12.13406364
H     -20.38890514     -1.65280836     -3.11528334
H      -0.55539205     -5.50071687     10.23615469
H      -2.90586938     -4.98677568     12.66540876
C       4.28296844      0.33697480      0.88287957
H      -2.62014160      2.88438282      2.68931073
C      -3.42069621      2.88162247      3.62482665
H       3.12254468      0.48236561      0.68761479
H      -3.32037988      3.93585576      4.25301077
H      -3.17754035      1.93389047      4.37233450
H      -4.56545793      2.77284745      3.18463661
H      10.78710388     -4.37906849    -10.64974264
H      11.74082595     -5.63198669    -12.01274347
H      11.22072845     -6.34100208    -10.13435024
H       8.81651972      3.09706125     11.45152229
H       7.22698353      1.56537756      9.16884304
H      -0.52886716     -7.10018631     11.41067473
H      10.85939909      0.56412149     11.79754237
H      -8.70093426     -4.16263475     22.46221050
H       5.95246689      3.82248964      6.32108521
H      -2.36584075     13.36207828     23.18070480
H       9.83541243      2.63340484      7.27947843
H       9.89087102     -0.69634552     -0.40368598
H      -2.59457188     11.15004803     10.89205473
H      12.63290948     -0.66273995      1.69729323
H      18.17067036      0.53420544    -12.13251108
H       9.99304323     -2.62090529      3.32342000
H      25.95865110     -1.26071176     -0.90195131
H       9.42031540      0.91292356      7.39185297
C      17.30337310     -4.04101193     16.91486943
C      -0.59188780     -5.87416700     11.40505513
C       8.93316465      2.06699715     10.76271996
C       8.29621745      2.20187781      9.14300476
C      10.43973745      1.59951022     11.32640045
C       7.10278356      3.57570550      6.03162678
C       8.80514182      1.97720784      7.48308302
C      -2.04014189     12.24634440     10.97488304
C      -1.84656154     14.32638959     22.78746413
C      10.09964404     -0.81882448      0.81138245
C      11.79041634     -0.41522590      0.83198980
C      12.89431270     -1.06951915     -0.10162119
C      25.66286716     -0.29286706     -1.54508039
C       8.85243122     -0.47397302      2.05034252
C       9.84493215     -1.42364475      3.08075607
H      25.21189816     -0.42260784     -2.64852555
H      -8.59318128     -3.31804505     -4.50657495
H      16.35537885     -3.75943139     17.46571175
H      -8.57264025     -3.49039864     22.83642870
H       0.41242413     -5.44549836     11.96606140
H      11.47341641      2.19899244     11.53041271
H       8.21255713      1.38540905     11.51182992
H       7.46463832      4.69157936      5.73143433
H      -1.32714523     15.29074199     22.39450540
H       7.90001096      3.37517652      9.20679947
H       9.99671746     -1.96762112      0.33401006
H      -2.19159012     12.86587311      9.92161831
H      12.11717200      0.76808485      0.72504202
H      17.99679282      1.17455595    -12.17361974
H      10.63439923     -1.21720165      3.99847125
H      25.81832674      0.80398978     -1.08621441
H      -2.53646473     12.88745108     11.90157875
   94

C     -10.68174052     -2.48647491     -4.69052056
C      -9.21450763     -2.89285762     -3.89883924
H     -10.48682861     -1.85825387     -5.74960346
C     -11.87119542     -1.73257317     -3.70787383
H     -11.13969959     -3.44050422     -5.34907117
H      -8.50277334     -1.98904817     -3.43515327
C       7.96601009      2.16660886      6.00253093
H      -9.22090228     -3.66863192     -2.93167145
H      -6.70560322     -4.88447802    -16.08843566
H      -6.69811193     -5.65392058    -15.96074920
C       0.09000408     -7.66243197     -5.65104229
H      -0.33106146     -6.62690579     -5.97401090
C       7.85681302      1.38329883      4.47200303
H       0.51408336     -8.69789453     -5.33182402
H       8.39407892      2.25116982      3.78408441
H       6.69207259      1.70730745      4.28093474
C       8.04547154     -0.13589844      3.60100298
H       7.47067977     -1.22126148      3.54962392
C       7.44799366      0.24175360      1.18784601
H       7.56197810     -0.89926485      4.44771052
H       7.28159116      0.66874517      0.04260953
H       7.81128868      1.38495866      0.87026737
C       5.74071921     -0.11032177      1.44582239
H       5.10193495      0.21365063      2.45002446
C       3.86521629      5.80338126    -12.63277367
H       5.41792646     -1.30393194      1.45926751
H       3.23000112      6.61661792    -13.09788993
H      -0.83619125     12.09339169     11.19034000
C      11.11626030     -5.74262711    -10.92127789
H     -11.67820143     -0.64252378     -3.14964483
H     -12.39609593     -2.35818226     -2.77593677
C     -19.55738432      0.56834350     -3.92209855
H     -12.92089065     -1.40170700     -4.26956057
C      -1.92666522     -5.36722968     12.14108716
H     -19.86040490     -0.52824666     -3.85157524
H      -0.55300295     -5.50714076     10.24335848
H      -2.90379403     -4.99303281     12.67227299
C       4.28589798      0.33606029      0.87492775
H      -2.62916329      2.89179507      2.72134910
C      -3.42996749      2.88873949      3.65663827
H       3.12800255      0.49234139      0.67352172
H      -3.33034422      3.94314753      4.28462094
H      -3.18684598      1.94109087      4.40424810
H      -4.57473840      2.78001845      3.21649128
H      10.50902213     -4.73969972    -10.66917658
H      11.60472616     -5.91482150    -12.00276558
H      11.19339659     -6.60133711    -10.08780469
H       8.81409529      3.09637366     11.45348582
H       7.22679589      1.56340965      9.16895680
H      -0.52663047     -7.10657392     11.41783580
H      10.86021929      0.56205930     11.78920009
H      -8.70100740     -4.16264649     22.46230555
H       5.95175322      3.82537813      6.32465934
H      -2.36576547     13.36308829     23.18642061
H       9.84263302      2.62869311      7.28448248
H       9.88748663     -0.69593014     -0.38795065
H      -2.59282113     11.16141722     10.89801425
H      12.62976209     -0.65784956      1.70925917
H      16.07803275      1.27296398    -11.67016125
H       9.99239893     -2.62674166      3.33020202
H      25.95811091     -1.26094284     -0.90530488
H       9.41873421      0.91074750      7.39836651
C      17.30357716     -4.04107667     16.91519577
C      -0.58967509     -5.88055636     11.41226336
C       8.93149489      2.06682040     10.76409648
C       8.29480193      2.20213272      9.14501898
C      10.43968445      1.59894453     11.32230665
C       7.10312524      3.58199296      6.03644723
C       8.80850677      1.97824812      7.48741169
C      -2.03837217     12.25770205     10.98086097
C      -1.84648081     14.32740265     22.79319444
C      10.09382470     -0.81987971      0.82710294
C      11.78386559     -0.41382475      0.84626105
C      12.88526408     -1.07253412     -0.08689056
C      25.66251253     -0.29315381     -1.54862858
C       8.84693920     -0.47782219      2.06635576
C       9.84163088     -1.42920368      3.09239215
H      25.21162832     -0.42272215     -2.65214967
H      -8.31592553     -3.47639294     -4.51755106
H      16.35558733     -3.75949777     17.46604688
H      -8.57270787     -3.49040912     22.83651961
H       0.41456438     -5.45182224     11.97334766
H      11.47379577      2.19911980     11.52170162
H       8.21126411      1.38471461     11.51308605
H       7.46345886      4.69824220      5.73650169
H      -1.32706979     15.29175475     22.40022779
H       7.89703110      3.37487598      9.20802674
H       9.98719528     -1.96765539      0.34806999
H      -2.18983940     12.87717653      9.92756760
H      12.10927246      0.76987025      0.73878509
H      15.77447018      1.79728840    -11.71069966
H      10.63646554     -1.22301350      4.00545103
H      25.81818839      0.80354863     -1.08942718
H      -2.53467035     12.89880482     11.90757205
   94

C     -11.17375219     -2.71193720     -4.32565080
C      -9.58493169     -2.97481382     -3.71391468
H     -11.08063507     -2.09065336     -5.40347263
C     -12.37688941     -2.09761748     -3.26884995
H     -11.56782384     -3.70930822     -4.96690970
H      -8.91947207     -2.01055177     -3.30657358
C       7.96654664      2.17339289      6.00928863
H      -9.43619558     -3.74948470     -2.75796323
H      -6.71573067     -4.89334812    -16.09515252
H      -6.70886578     -5.66269162    -15.96685055
C       0.10189953     -8.10196825     -5.53802940
H      -0.32498366     -7.06784931     -5.85812068
C       7.85807746      1.38650048      4.48161146
H       0.53002330     -9.13640546     -5.22063200
H       8.41509254      2.24541851      3.79717152
H       6.69090045      1.70472324      4.29230866
C       8.04098033     -0.13720984      3.61960698
H       7.45666670     -1.21903935      3.59127272
C       7.44465213      0.23201085      1.19728407
H       7.56445713     -0.88938733      4.47953972
H       7.28540152      0.64548863      0.04598057
H       7.79959299      1.37919056      0.88385590
C       5.73668074     -0.11901499      1.44301595
H       5.09769804      0.20957556      2.44493114
C       3.98804222      6.19711429    -12.95820718
H       5.42205463     -1.31491674      1.44394664
H       3.37920317      7.02394162    -13.43364943
H      -0.83477393     12.10316068     11.19563869
C      11.19903551     -6.03779539    -10.94130462
H     -12.18245175     -1.20561682     -2.42900195
H     -13.05564780     -2.86051363     -2.56614969
C     -14.88869971      4.24821421     -7.23672003
H       5.68981756    -95.34901094     21.22467190
C      -1.92522114     -5.37264595     12.14640699
H     -34.47165392     92.56603108    -30.01946515
H      -0.55170121     -5.51260795     10.24854461
H      -2.90224978     -4.99838479     12.67773029
C       4.28445761      0.33250382      0.86816840
H      -2.64699947      2.89101755      2.74107297
C      -3.44697940      2.88855673      3.67707693
H       3.12890660      0.49785405      0.66030911
H      -3.34664300      3.94302717      4.30485760
H      -3.20311875      1.94126889      4.42491857
H      -4.59193290      2.77930971      3.23750461
H      10.40442433     -5.16335954    -10.73498822
H      11.72876441     -6.14993815    -12.01115822
H      11.34201789     -6.88347533    -10.10321587
H       8.81124270      3.09568297     11.45510976
H       7.22582064      1.56129011      9.16910140
H      -0.52519639     -7.11199831     11.42302059
H      10.86039348      0.56007343     11.78104730
H      -8.70108306     -4.16261556     22.46250202
H       5.94938503      3.82745314      6.32804850
H      -2.36571984     13.36396311     23.19144746
H       9.84865043      2.62374008      7.28903002
H       9.88443898     -0.69762368     -0.36888636
H      -2.59143459     11.17118541     10.90321864
H      12.62734730     -0.65710646      1.72428405
H      13.86761586      2.01307880    -11.19829236
H       9.99012632     -2.63385626      3.33915703
H      25.95590379     -1.26069156     -0.90916059
H       9.41625216      0.90834482      7.40480654
C      17.30364562     -4.04112414     16.91531371
C      -0.58830302     -5.88598432     11.41746368
C       8.92934776      2.06656922     10.76522879
C       8.29261565      2.20219631      9.14688917
C      10.43915350      1.59832125     11.31797916
C       7.10178959      3.58738327      6.04110785
C       8.81082848      1.97895352      7.49154631
C      -2.03695245     12.26744839     10.98612980
C      -1.84642760     14.32827864     22.79823415
C      10.08843460     -0.82300673      0.84600584
C      11.77841600     -0.41593688      0.86339316
C      12.87821197     -1.07842944     -0.06904952
C      25.65996730     -0.29304323     -1.55256807
C       8.83987991     -0.48360226      2.08363054
C       9.83652423     -1.43610393      3.10615045
H      25.20825443     -0.42240495     -2.65579544
H      -8.68675489     -3.47028695     -4.40928293
H      16.35566215     -3.75955065     17.46617873
H      -8.57277985     -3.49036909     22.83669843
H       0.41590855     -5.45718698     11.97854805
H      11.47358320      2.19925991     11.51306081
H       8.20948744      1.38404519     11.51419094
H       7.46065468      4.70394117      5.74122855
H      -1.32701843     15.29262911     22.40526103
H       7.89332697      3.37440167      9.20900957
H       9.97800272     -1.96978938      0.36519488
H      -2.18842015     12.88690120      9.93282409
H      12.10310750      0.76812464      0.75663816
H      13.49468678      2.41022337    -11.27085073
H      10.63683477     -1.22990018      4.01431841
H      25.81600251      0.80355332     -1.09319503
H      -2.53319291     12.90855449     11.91286938
   94

C     -11.59948152     -3.27855742     -4.29111826
C     -10.04745192     -3.45914617     -3.55715655
H     -11.46715834     -2.87539346     -5.46368022
C     -12.89444618     -2.56799935     -3.39956752
H     -11.98505459     -4.37204159     -4.76581234
H      -9.42226938     -2.49263529     -3.09492075
C       7.97002210      2.18114524      6.02178199
H      -9.95695013     -4.20923448     -2.57156388
H      -6.72541000     -4.91513186    -16.12250794
H      -6.71876608     -5.68391852    -15.99092734
C       0.13345736     -8.63755129     -5.40097973
H      -0.29772813     -7.60463868     -5.71921701
C       7.86355298      1.38805132      4.49847173
H       0.56464384     -9.67110787     -5.08483985
H       8.44048995      2.23757993      3.81775154
H       6.69381059      1.69995353      4.31113418
C       8.04266528     -0.14157617      3.64857059
H       7.44945085     -1.21971718      3.64342515
C       7.44502946      0.21695163      1.22031697
H       7.57289463     -0.88210549      4.52141146
H       7.29230452      0.61757333      0.06390349
H       7.79130523      1.36840261      0.91134745
C       5.73588475     -0.13329366      1.45335033
H       5.09677946      0.19959027      2.45311479
C       3.97828942      6.86690945    -13.50288037
H       5.43005093     -1.33146375      1.44189169
H       3.42529570      7.72855169    -13.97984539
H      -0.83200911     12.11592967     11.20487338
C      11.57388533     -6.15930526    -11.00850179
H     -12.80026814     -1.50869976     -2.76050763
H     -13.42214160     -3.24168133     -2.49665071
C      -9.64357891      4.65780580     -7.06511823
H     -13.95887633     -2.27749981     -3.96654732
C      -1.92377677     -5.37962074     12.15293469
H     -10.76457022      4.85068369     -6.86321844
H      -0.55033427     -5.51973238     10.25503544
H      -2.90074920     -5.00523896     12.68427356
C       4.28534012      0.32253140      0.87561697
H      -2.65222277      2.88254128      2.79808616
C      -3.45085230      2.88054907      3.73516589
H       3.13250527      0.49834019      0.66102334
H      -3.34955770      3.93515490      4.36248385
H      -3.20599048      1.93227274      4.48137294
H      -4.59713824      2.76881647      3.29985659
H      10.84365982     -5.24561199    -10.74808550
H      12.09802236     -6.21225366    -12.08438381
H      11.58120128     -7.06921032    -10.22865076
H       8.80946920      3.09487875     11.46047586
H       7.22592916      1.55942344      9.17284772
H      -0.52368307     -7.11899482     11.42956126
H      10.86222864      0.55767035     11.77445565
H      -8.70112614     -4.16265834     22.46270493
H       5.94967850      3.83035556      6.33529748
H      -2.36562853     13.36503955     23.19771258
H       9.85758224      2.61973679      7.29850656
H       9.88734401     -0.70259828     -0.33732560
H      -2.58873788     11.18404638     10.91241974
H      12.63452680     -0.65725189      1.74170207
H      10.46553779      2.08889672    -10.51277316
H       9.99577709     -2.64259210      3.35777849
H      25.95281200     -1.25972534     -0.91285180
H       9.41708981      0.90675984      7.41657913
C      17.30384734     -4.04123970     16.91556359
C      -0.58687365     -5.89298649     11.42399378
C       8.92823791      2.06629130     10.77004220
C       8.29134404      2.20274058      9.15275202
C      10.43981454      1.59768780     11.31664493
C       7.10318706      3.59350756      6.05005775
C       8.81631143      1.98037022      7.50073216
C      -2.03418483     12.28026333     10.99540511
C      -1.84632479     14.32936583     22.80454001
C      10.09141677     -0.82842193      0.87684933
C      11.78102265     -0.41783799      0.88507407
C      12.87856124     -1.07931800     -0.05153224
C      25.65615231     -0.29225194     -1.55620948
C       8.83928822     -0.49244153      2.11134655
C       9.83856692     -1.44482282      3.12966814
H      25.20332390     -0.42144154     -2.65901357
H      -9.08487094     -3.95127964     -4.16532498
H      16.35587855     -3.75968376     17.46646345
H      -8.57282300     -3.49040231     22.83688414
H       0.41728815     -5.46410062     11.98509642
H      11.47491948      2.19914080     11.50609238
H       8.20882768      1.38307459     11.51874200
H       7.46071044      4.71021411      5.74986796
H      -1.32691572     15.29372260     22.41158129
H       7.89056016      3.37438268      9.21396730
H       9.97806948     -1.97470747      0.39481847
H      -2.18558277     12.89990732      9.94220690
H      12.10449456      0.76679075      0.77932804
H      10.59173606      2.54099770    -10.66010628
H      10.64579306     -1.23739365      4.03105402
H      25.81237821      0.80432164     -1.09681764
H      -2.53045246     12.92133622     11.92214892
   94

C     -11.85078806     -2.89636529     -4.26198962
C     -10.41116450     -3.33984127     -3.42760192
H     -11.62542415     -2.41357710     -5.38970917
C     -13.07244928     -1.96254463     -3.48515671
H     -12.33940022     -3.89540445     -4.83259932
H      -9.71650368     -2.49487930     -2.84219775
C       7.97962262      2.19079026      6.03289680
H     -10.48118653     -4.16612286     -2.50356418
H      -6.74731897     -4.95383771    -16.17367951
H      -6.73903621     -5.72074575    -16.03168062
C       0.16025303     -9.16025663     -5.26492707
H      -0.27709164     -8.12968479     -5.58174976
C       7.87978045      1.39188863      4.51341148
H       0.59661109    -10.19196078     -4.95033815
H       8.47530871      2.23326848      3.83747875
H       6.70688851      1.69604162      4.32942299
C       8.05873637     -0.14278200      3.67416014
H       7.45818030     -1.21759392      3.69204114
C       7.45487083      0.21033368      1.24301971
H       7.59725583     -0.87275423      4.55956447
H       7.30729164      0.59858939      0.08234456
H       7.79326717      1.36576664      0.93794673
C       5.74611133     -0.14399110      1.46855169
H       5.10925973      0.19017157      2.46899223
C       4.48938853      7.55673738    -14.08370597
H       5.45022777     -1.34472957      1.44503600
H       3.72785976      8.30493517    -14.44974756
H      -0.83118994     12.12736958     11.21004247
C      11.69331698     -5.85070009    -11.05650116
H     -12.82531092     -0.84062883     -3.01777404
H     -13.63784224     -2.45715737     -2.49813684
C      -6.07542431      2.68595846     -7.58174099
H     -14.11275414     -1.62677880     -4.07017876
C      -1.92261013     -5.38595358     12.15888259
H      -7.11446958      3.18557614     -7.73299664
H      -0.54912672     -5.52612173     10.26105431
H      -2.89958853     -5.01145510     12.69012443
C       4.29389192      0.31541511      0.89562253
H      -2.67034374      2.89458877      2.85442161
C      -3.47290847      2.89225156      3.78808699
H       3.14108822      0.50108011      0.68861716
H      -3.37173816      3.94719317      4.41483258
H      -3.22878137      1.94273903      4.53291943
H      -4.61872225      2.78240203      3.35114031
H      11.49028112     -4.73756493    -10.66444419
H      12.16820349     -5.98310641    -12.14810309
H      11.54471119     -6.74668583    -10.27557398
H       8.80839240      3.09429587     11.46488056
H       7.22833013      1.55752217      9.17455751
H      -0.52252714     -7.12536110     11.43547140
H      10.86455305      0.55543805     11.76765113
H      -8.70118751     -4.16267415     22.46274855
H       5.95411672      3.83342389      6.34107891
H      -2.36558673     13.36605644     23.20327835
H       9.87042930      2.61627585      7.30797120
H       9.89497189     -0.69623226     -0.32096882
H      -2.58795456     11.19542001     10.91755346
H      12.64850994     -0.64497314      1.73309316
H       7.29646974      1.28643505     -9.98299253
H      10.01495168     -2.64558898      3.36340474
H      25.95214959     -1.25926947     -0.91369254
H       9.42201622      0.90557474      7.42732606
C      17.30407653     -4.04132109     16.91577255
C      -0.58568293     -5.89935177     11.43001881
C       8.92812739      2.06621909     10.77397506
C       8.29224576      2.20342749      9.15729177
C      10.44122712      1.59721636     11.31492071
C       7.10895301      3.60052759      6.05777139
C       8.82576054      1.98207203      7.50926866
C      -2.03335976     12.29162162     11.00047259
C      -1.84628059     14.33038191     22.81010690
C      10.10000583     -0.82344418      0.89267847
C      11.78811427     -0.40702973      0.88371083
C      12.87877271     -1.06522312     -0.06373054
C      25.65527006     -0.29183682     -1.55701375
C       8.85054384     -0.49427796      2.13227020
C       9.85465642     -1.44773284      3.14080898
H      25.20219986     -0.42098244     -2.65972582
H      -9.47444561     -3.90581289     -4.01085040
H      16.35612055     -3.75977754     17.46670136
H      -8.57288116     -3.49042218     22.83693402
H       0.41843283     -5.47048463     11.99121602
H      11.47690762      2.19919170     11.49907412
H       8.20878599      1.38234321     11.52205779
H       7.46436086      4.71764971      5.75729023
H      -1.32687898     15.29473446     22.41712794
H       7.88971918      3.37443408      9.21755144
H       9.98451165     -1.96888671      0.40887625
H      -2.18487673     12.91110352      9.94719499
H      12.10867397      0.77813300      0.77524616
H       7.52320745      1.65677801     -9.96975194
H      10.66924329     -1.23918854      4.03478474
H      25.81146032      0.80474899     -1.09763450
H      -2.52957832     12.93271402     11.92723014
   94

C     -11.75716467     -2.56919326     -4.42040745
C     -10.35204636     -3.05610774     -3.55562412
H     -11.48962954     -1.96611072     -5.47895786
C     -13.02617396     -1.73904390     -3.60725436
H     -12.19245832     -3.51764765     -5.10542123
H      -9.64954375     -2.19701388     -3.00164895
C       7.98947184      2.19810427      6.03265155
H     -10.43401082     -3.85109222     -2.60648860
H      -6.77268658     -4.95900576    -16.19384023
H      -6.76189280     -5.72619596    -16.05350451
C       0.19862440     -9.68451315     -5.13179049
H      -0.24538174     -8.65701462     -5.44845236
C       7.89610674      1.39774280      4.51409565
H       0.63866789    -10.71455191     -4.81761403
H       8.50898039      2.23142297      3.84313059
H       6.72001811      1.69412850      4.33387982
C       8.07323874     -0.13908551      3.67909093
H       7.46588039     -1.21019326      3.72065938
C       7.46364535      0.21185718      1.23925982
H       7.62231203     -0.85943889      4.57751407
H       7.32035765      0.58656372      0.07334588
H       7.79269668      1.37078010      0.93684261
C       5.75786069     -0.14861248      1.46307782
H       5.12509672      0.18558740      2.46590418
C       5.01239809      7.75147143    -14.30125077
H       5.47227099     -1.35179395      1.42711363
H       4.23662483      8.48415612    -14.67588282
H      -0.82958672     12.13834531     11.21502219
C      11.55439135     -5.47003205    -10.99731558
H     -12.82750176     -0.62409033     -3.10209737
H     -13.57617399     -2.29768123     -2.64673606
C      -4.35101008      1.41827818     -7.32962331
H     -14.07523032     -1.43242392     -4.19129903
C      -1.92107698     -5.39189699     12.16431582
H      -5.38792604      1.90015537     -7.57576024
H      -0.54741721     -5.53206838     10.26661327
H      -2.89813248     -5.01738202     12.69540554
C       4.30437110      0.31584653      0.89730561
H      -2.69132159      2.90770059      2.88542655
C      -3.49587511      2.90382655      3.81736890
H       3.15011341      0.51230065      0.70846589
H      -3.39529637      3.95868166      4.44435639
H      -3.25204544      1.95406539      4.56196558
H      -4.64075931      2.79496945      3.37776084
H      11.22539024     -4.36415174    -10.67379499
H      12.04509587     -5.63645956    -12.07800805
H      11.43418694     -6.37373687    -10.21946421
H       8.80621445      3.09297163     11.46260933
H       7.23090551      1.55400713      9.16886814
H      -0.52092969     -7.13128870     11.44098073
H      10.86543467      0.55307885     11.75677364
H      -8.70122362     -4.16267864     22.46257480
H       5.95831045      3.83358363      6.33929152
H      -2.36548626     13.36701746     23.20880258
H       9.88150285      2.60990977      7.30925261
H       9.89223415     -0.68525566     -0.33525602
H      -2.58637867     11.20638044     10.92251256
H      12.65097133     -0.63071205      1.70282198
H       4.99143220      0.79576061     -9.49503101
H      10.02908646     -2.64457172      3.34546157
H      25.95181137     -1.25921690     -0.91401858
H       9.42432299      0.90183966      7.42846403
C      17.30408852     -4.04128618     16.91562108
C      -0.58406992     -5.90527805     11.43558225
C       8.92723707      2.06535193     10.77125250
C       8.29351444      2.20222147      9.15422378
C      10.44155847      1.59621927     11.30788303
C       7.11428778      3.60500114      6.05684507
C       8.83292994      1.98136509      7.50876215
C      -2.03175446     12.30256943     11.00541391
C      -1.84617528     14.33134291     22.81563757
C      10.09729497     -0.81433769      0.87866044
C      11.78411507     -0.39480812      0.85981196
C      12.86715438     -1.05280433     -0.09609373
C      25.65490261     -0.29178119     -1.55732266
C       8.85774883     -0.48996043      2.13041245
C       9.86723069     -1.44642020      3.12786081
H      25.20176855     -0.42092066     -2.66000983
H      -9.43055748     -3.66306436     -4.11990381
H      16.35613509     -3.75974186     17.46655387
H      -8.57291391     -3.49043696     22.83677764
H       0.41999400     -5.47639450     11.99686055
H      11.47739530      2.19902733     11.48803203
H       8.20780878      1.38111306     11.51891816
H       7.46718906      4.72309260      5.75755593
H      -1.32677954     15.29569237     22.42264335
H       7.88903077      3.37256880      9.21354998
H       9.97811918     -1.95840716      0.39306135
H      -2.18332158     12.92192869      9.95207024
H      12.10195100      0.79085240      0.74918656
H       5.01407873      1.17061739     -9.46373734
H      10.68742399     -1.23833159      4.01670908
H      25.81111381      0.80480099     -1.09794026
H      -2.52790501     12.94367676     11.93219858
   94

C     -11.61902683     -2.41100247     -4.52987526
C     -10.16873385     -2.83105970     -3.70731930
H     -11.39534999     -1.77320304     -5.57853231
C     -12.91653319     -1.68291833     -3.66787834
H     -12.01758874     -3.36896444     -5.22304677
H      -9.48236327     -1.92799221     -3.20640963
C       7.99307109      2.20192650      6.02375896
H     -10.18141868     -3.60795530     -2.74055690
H      -6.78457743     -4.95089228    -16.18965756
H      -6.77408552     -5.71906325    -16.05473819
C       0.22557478    -10.19286027     -4.99945647
H      -0.23262396     -9.17027268     -5.31116887
C       7.90129312      1.40400354      4.50408528
H       0.67223724    -11.22065139     -4.68781792
H       8.53217479      2.22909878      3.83822399
H       6.72245907      1.69368059      4.32673828
C       8.07219841     -0.13335419      3.66978674
H       7.45705054     -1.19949473      3.73426171
C       7.46262035      0.21380009      1.21588302
H       7.63147896     -0.84435970      4.58051114
H       7.32442220      0.57509629      0.04420763
H       7.78098750      1.37630440      0.91684053
C       5.75948442     -0.14994659      1.43353108
H       5.12768675      0.18786186      2.43518545
C       5.31639633      7.91591848    -14.53533413
H       5.48316871     -1.35484351      1.38468503
H       4.60299823      8.69573972    -14.94026430
H      -0.82785095     12.14883323     11.21999417
C      11.46479135     -5.34500412    -10.97097431
H     -12.76434602     -0.57232284     -3.13774122
H     -13.42191588     -2.29364966     -2.71464061
C      -3.23341348      1.00486460     -7.30293956
H     -13.98878279     -1.41522721     -4.22823438
C      -1.91927344     -5.39737683     12.16877840
H      -4.39875214      1.10222499     -7.20789745
H      -0.54554863     -5.53750178     10.27104643
H      -2.89633327     -5.02295526     12.69992930
C       4.31006013      0.32078949      0.86379933
H      -2.71105434      2.91093854      2.89406235
C      -3.51533131      2.90688876      3.82627802
H       3.15745805      0.52799659      0.67652132
H      -3.41521791      3.96152750      4.45373235
H      -3.27152495      1.95769298      4.57162750
H      -4.65972170      2.79812510      3.38529781
H      11.06456881     -4.25521953    -10.67161557
H      11.97221586     -5.51493107    -12.04390080
H      11.36733945     -6.25516718    -10.19663944
H       8.80241974      3.09105048     11.45469380
H       7.23146596      1.54939294      9.15802812
H      -0.51907778     -7.13669435     11.44543909
H      10.86433572      0.55072686     11.74228582
H      -8.70119884     -4.16265844     22.46235610
H       5.95821802      3.83171654      6.33201222
H      -2.36537258     13.36791551     23.21424628
H       9.88724852      2.60082002      7.30265471
H       9.88117481     -0.67568554     -0.35700932
H      -2.58465685     11.21685998     10.92739633
H      12.64214396     -0.61873325      1.67476303
H       3.19547472     -1.36183653     -8.87451147
H      10.02849368     -2.64220227      3.32060180
H      25.95147789     -1.25921121     -0.91415628
H       9.42039495      0.89584715      7.42146709
C      17.30384574     -4.04114605     16.91516547
C      -0.58224149     -5.91068340     11.44002518
C       8.92473538      2.06381959     10.76288372
C       8.29307074      2.19947237      9.14513908
C      10.44018575      1.59478818     11.29592922
C       7.11495958      3.60704091      6.04936313
C       8.83437478      1.97862142      7.50039779
C      -2.03002006     12.31303799     11.01037361
C      -1.84605637     14.33224335     22.82109437
C      10.08465959     -0.80614778      0.85737282
C      11.77078142     -0.38533703      0.83573079
C      12.84913019     -1.04514802     -0.12374976
C      25.65456074     -0.29177626     -1.55745771
C       8.85163158     -0.48467067      2.11662763
C       9.86508985     -1.44379220      3.10712037
H      25.20141249     -0.42091722     -2.66013898
H      -9.24850738     -3.41345461     -4.29826830
H      16.35588190     -3.75958964     17.46607358
H      -8.57288795     -3.49042366     22.83657092
H       0.42178934     -5.48175040     12.00132815
H      11.47579660      2.19875095     11.47319387
H       8.20535058      1.37949755     11.51060178
H       7.46600270      4.72623787      5.75252554
H      -1.32666632     15.29659274     22.42809279
H       7.88676545      3.36923973      9.20359584
H       9.96115498     -1.94895617      0.37040430
H      -2.18162439     12.93236091      9.95701283
H      12.08695473      0.80072883      0.72433285
H       2.90861546      3.45032230     -8.72540111
H      10.68992194     -1.23659555      3.99205947
H      25.81078248      0.80480392     -1.09807389
H      -2.52609929     12.95413971     11.93720126
   94

C     -11.52769958     -2.35018627     -4.56958546
C     -10.03388869     -2.71538051     -3.79801668
H     -11.32963428     -1.70794338     -5.62133533
C     -12.84467702     -1.67633590     -3.69110500
H     -11.91237473     -3.31900030     -5.25581046
H      -9.35333980     -1.79224398     -3.32618404
C       7.98833795      2.20747235      6.01078407
H     -10.01518395     -3.48994888     -2.83024837
H      -6.77018387     -4.92871189    -16.15995449
H      -6.76247268     -5.69810588    -16.03199582
C       0.26445250    -10.60581774     -4.91107738
H      -0.16651381     -9.57179278     -5.22611009
C       7.89403303      1.41299560      4.49029997
H       0.69488272    -11.64029337     -4.59679218
H       8.56216119      2.21897700      3.83509192
H       6.70999046      1.68997049      4.31862549
C       8.05021282     -0.12717872      3.66125784
H       7.41765652     -1.18086320      3.76853798
C       7.44547461      0.20916274      1.18384083
H       7.62593459     -0.81902554      4.59353909
H       7.32327869      0.54624516      0.00210065
H       7.74543422      1.37904305      0.89447372
C       5.74234333     -0.15343858      1.37448163
H       5.10755954      0.19769440      2.36801790
C       5.46761137      8.13045934    -14.67258779
H       5.48377466     -1.36102515      1.30107365
H       4.82160468      8.93858636    -15.13196615
H      -0.82621874     12.15848128     11.22307637
C      11.40297649     -5.30925746    -10.95548074
H     -12.71398822     -0.56795948     -3.15043293
H     -13.33138271     -2.30631323     -2.74048677
C      -0.85884590      0.99614332     -7.56058367
H     -13.92755891     -1.42598747     -4.24022639
C      -1.91761129     -5.40222009     12.17039878
H      -2.01939808      0.93146780     -7.28619674
H      -0.54409922     -5.54228707     10.27231509
H      -2.89442015     -5.02793333     12.70210714
C       4.30271669      0.32650043      0.78605000
H      -2.72592986      2.90708788      2.86630816
C      -3.52654360      2.90473098      3.80179272
H       3.15944830      0.54292051      0.55723161
H      -3.42599482      3.95889042      4.43009097
H      -3.28294125      1.95701674      4.54919954
H      -4.67130674      2.79593172      3.36156462
H      10.97346841     -4.22855827    -10.66302034
H      11.92559206     -5.47834968    -12.02141286
H      11.30981436     -6.22079590    -10.18195298
H       8.79407656      3.08899268     11.43964605
H       7.22910913      1.54182720      9.13995376
H      -0.51751219     -7.14147044     11.44669392
H      10.85924375      0.54769439     11.71787794
H      -8.70101793     -4.16259184     22.46177845
H       5.94947063      3.82915566      6.31992318
H      -2.36526977     13.36872087     23.21938894
H       9.89193854      2.58379126      7.28887509
H       9.85967458     -0.66239071     -0.37293380
H      -2.58299252     11.22639759     10.93014482
H      12.62124297     -0.60558132      1.65070061
H       0.27527834      0.95768797     -7.81754479
H      10.01200031     -2.64239119      3.29114060
H      25.95114173     -1.25922372     -0.91414506
H       9.40707782      0.88495415      7.40949156
C      17.30322965     -4.04092092     16.91429424
C      -0.58072915     -5.91545858     11.44130258
C       8.91837709      2.06208496     10.74749149
C       8.28892407      2.19528474      9.12917607
C      10.43602559      1.59263466     11.27288788
C       7.10750802      3.61098501      6.03723699
C       8.83134965      1.97386188      7.48526040
C      -2.02838724     12.32257756     11.01335203
C      -1.84595021     14.33304144     22.82622452
C      10.05731056     -0.79643704      0.84191566
C      11.74355697     -0.37585216      0.81723018
C      12.81612961     -1.04086718     -0.14497204
C      25.65424051     -0.29178792     -1.55745192
C       8.82515889     -0.48201771      2.10367301
C       9.84400363     -1.44371342      3.08617627
H      25.20112132     -0.42093169     -2.66014452
H      -9.10774302     -3.26875380     -4.40879636
H      16.35524261     -3.75935044     17.46515405
H      -8.57271924     -3.49036836     22.83601772
H       0.42324427     -5.48652075     12.00271200
H      11.47044769      2.19935568     11.44711641
H       8.19898205      1.37828859     11.49591369
H       7.45563504      4.73143230      5.74271660
H      -1.32656758     15.29738095     22.43318992
H       7.87962322      3.36412617      9.18544016
H       9.92530800     -1.93660237      0.35099148
H      -2.17998519     12.94178623      9.95991970
H      12.05909053      0.81056898      0.70609515
H       0.25955454      1.16029139     -7.83621937
H      10.67815947     -1.23721102      3.96272705
H      25.81045847      0.80479166     -1.09806617
H      -2.52435252     12.96364515     11.94026723
