   94
energy=      0.00000000
C       7.14506337     -6.79450824     -7.71260393
C       5.72785767     -7.64204039     -7.22952696
H       7.40822799     -5.92544419     -6.86077388
C       2.07767789     -2.95075183      6.00963811
H     -18.89185999     -7.18329685     -1.80818867
H       4.72864743     -7.06090539     -6.78107708
C       3.25073916     -3.37230414      7.16705093
H       5.80993293     -8.47021222     -6.31004532
H      -7.96315051     -6.52870594    -17.27847764
H      -7.95543932     -7.29809993    -17.15051897
C       8.84442283      3.41019458     -1.04597781
H      16.06704060      6.49113540     13.51510939
C       5.95559309     -4.67647133      4.84731069
H       8.75592682     12.36866764      3.21586243
H       6.36659221     -4.21886188      3.84364682
H       2.67471672     -9.94455986     15.77928948
C       3.97483973     -4.94430495      6.97560618
H       3.15297694     -5.78490939      6.57137641
C       7.93089400     13.04098120      5.68246572
H       3.95673250     -5.56848962      8.05268183
H       8.59003927     14.41618198      7.00893215
H       6.99885603     13.69675493      5.23442191
C       8.60933452     12.14898125      4.42002179
H      12.10503021      1.11389683     -2.25679912
C      10.99479487      1.55502189     -2.03529744
H       8.58320300      5.34349456     -1.05589821
H       7.93163334     11.13910025      4.19742450
H      -1.89889429     10.00514505     11.47760497
C       8.54820666     -7.62054677     -8.28146754
H       1.08716232     -2.38148748      6.45524227
H     -19.27118577     -7.16726916     -1.12682601
C      -2.94967841    -10.08659109     -0.67608296
H       2.48231580     -3.54989635      8.12902564
C       1.64865402     -9.76089049     16.37206851
H      -3.76068061    -10.55748750      0.01291430
H     -10.70354378    -12.23068499     15.67904545
H       1.24394319     -8.64444940     16.53848520
C      -4.11268997     -0.51387115     -7.82037122
H       3.79962440      7.95652457     -2.59408426
C       1.66826372      7.37424937     -2.24262489
H      -4.61685735      0.39270700     -8.34773878
H       1.08089034      8.09942002     -1.42683159
H       0.72444832      6.59113478     -2.37871836
H       1.11924183      8.02286543     -3.14808321
H       8.85227395     -7.40248204     -9.46488788
H       8.45091861     -8.80341171     -8.63981816
H      10.29214353     -8.23890697     -6.41038664
H       5.29812764     -0.37481715      5.74692226
H       3.54132672     -1.06492109      8.17095127
H       1.02730214    -10.69366222     16.79843084
H      10.45579921      1.12672638     -3.01123324
H      -9.42675544     -2.95204824     23.99740376
H       7.11214866     13.31115409      9.70869513
H       8.18599134     12.08345680      7.53915350
H       5.22810677     -2.27019381     10.12692966
H      23.68739798      6.18932909     -2.70616817
H      -3.93269234      8.92602065     11.13716862
H      24.37757154      6.33770482     -2.37443862
H       2.40508112     -3.81130198      3.60778807
H       5.68057685     -6.54130380      5.89616514
H       6.86099705     -5.84172877     -8.46392900
H       6.53108747     -2.15447043      8.92892749
C       1.78585261     -3.06466704      4.36124694
C     -10.10156785    -12.17377975     16.67331502
C       4.84150353     -1.10415444      6.55138190
C       4.18335796     -2.02056713      7.71144216
C      10.12197913      2.39293416     -0.93845726
C       8.05228119     13.72736098      9.01185422
C       5.32167378     -2.15134944      8.92551797
C      -2.91579953      9.46559494     11.30738558
C       8.16857582     13.30554944      7.34089355
C       4.73398229      5.98087293     -1.91342372
C       6.20669644      5.30054055     -1.46463900
C       7.69153868      4.57590277     -1.20729893
C       9.93606412     -7.56740111     -7.35319868
C       3.33856136      6.95269433     -2.11957862
C       5.46202191     -5.36634196      6.22182333
H       9.83543546     12.01728860      4.48585859
H       5.09579362     -8.29677916     -8.07234197
H       0.68077783     -3.50794614      4.03070789
H      -9.29845674     -2.27982476     24.37164303
H      -9.49959200    -12.11687449     17.66758465
H      15.89120620      7.24458851     13.41616196
H      10.60251275      2.05144329      0.11858623
H       9.04097127     13.49177677      9.73390250
H       7.87798148     14.87996005      9.43787988
H      -3.60852260     -1.42044929     -7.29300365
H       4.66488464      5.31432096     -2.88791663
H      -7.32753058     20.54354438      9.86115128
H      -2.13867621     -9.61569467     -1.36508022
H       1.96213014     -2.02113055      3.72484620
H       6.50637923     -5.29809977      6.87833931
H      10.89804022     -6.83229621     -7.40159150
H      -7.46074211     20.55216357     10.62964357
   94
energy=      0.00000000
C       9.69106282     -6.51123676     -7.42111130
C      -0.13780948    -10.10099914     -9.64589185
H       9.74270251     -5.60979833     -6.57892416
C       2.07191407     -2.96032744      6.01736852
H     -18.89185999     -7.18329685     -1.80818867
H      -0.65501307     -9.35275901     -8.92485160
C       3.24800132     -3.37815178      7.17299538
H       8.89300799     -7.25712921     -6.82505781
H      -8.49954402     -6.32987055    -17.79465557
H      -8.49183283     -7.09926454    -17.66669690
C       8.69677213      3.44729220     -1.13269219
H      16.06815498      6.49024517     13.51608381
C       5.95181706     -4.67661239      4.84996348
H       8.69762335     12.50209589      3.26615678
H       6.36217585     -4.21732436      3.84672727
H       2.67436077     -9.94942219     15.78731110
C       3.97211799     -4.94978758      6.98007381
H       3.15071367     -5.79105723      6.57611995
C       7.88281436     13.06510723      5.68936579
H       3.95451646     -5.57558842      8.05623611
H       8.80217183     14.36267732      6.99540968
H       6.90404457     13.68542569      5.28954197
C       8.59118059     12.16771623      4.44858463
H      11.99394603      1.26948786     -2.17002802
C      10.84039524      1.62240414     -2.08407224
H       8.40091855      5.52765448     -1.07566276
H       7.99924495     11.10066665      4.24766583
H      -1.89889569     10.00514777     11.47760470
C      11.05223511     -7.26928384     -8.12267413
H       1.07500299     -2.40460868      6.46580376
H     -19.27118577     -7.16726916     -1.12682601
C      -4.44228487    -10.52006238      1.53588220
H       2.48332924     -3.55398456      8.13831206
C       1.64829807     -9.76575282     16.38009012
H      -5.25328707    -10.99095879      2.22487946
H     -10.70560917    -12.23110870     15.67909769
H       1.24358724     -8.64931173     16.54650682
C      -5.11400989      0.78841046     -7.74778308
H       4.06368366      7.98524866     -2.47339682
C       1.82016801      7.30420214     -2.23170906
H      -5.61817727      1.69498861     -8.27515064
H       1.31039211      7.97300883     -1.32455371
H       0.98143038      6.40421369     -2.30749382
H       1.32250319      7.93519455     -3.17479062
H      11.30767032     -6.96902222     -9.29927970
H      10.89641408     -8.43375252     -8.52492438
H      12.81943496     -7.82394944     -6.28044033
H       5.31919901     -0.40099837      5.74346833
H       3.53969923     -1.06614709      8.16340943
H       1.02694620    -10.69852455     16.80645246
H      10.38186064      1.13495891     -3.07681836
H      -9.42675544     -2.95204824     23.99740376
H       7.08030546     13.30175511      9.65261224
H       8.25276244     12.10355502      7.52790401
H       5.22239661     -2.27378493     10.13113989
H      23.68739798      6.18932909     -2.70616817
H      -3.93269374      8.92602337     11.13716834
H      24.37757154      6.33770482     -2.37443862
H       2.40878637     -3.80658759      3.61175573
H       5.67985041     -6.54145594      5.89685005
H       9.06223764     -5.73695874     -8.15049352
H       6.52704029     -2.14600964      8.93808192
C       1.78534317     -3.06579315      4.36748831
C     -10.10363326    -12.17420345     16.67336729
C       4.84932705     -1.11977169      6.54976130
C       4.18220263     -2.02572014      7.71276763
C       9.95666856      2.45532253     -1.00632046
C       8.03560682     13.73831720      8.99095479
C       5.31759384     -2.15156931      8.93027343
C      -2.91579674      9.46558950     11.30738613
C       8.21639531     13.32435063      7.32763541
C       4.73248604      5.88257234     -2.02597707
C       6.15045855      5.26815221     -1.50332706
C       7.62645244      4.64512732     -1.24393203
C      12.45253969     -7.16467094     -7.22580162
C       3.48138777      6.97483090     -2.16308242
C       5.45953706     -5.36747039      6.22451622
H       9.80940167     11.97527024      4.52978847
H      -0.20452130    -10.87114406    -10.51173722
H       0.68358008     -3.51141293      4.02931438
H      -9.29845674     -2.27982476     24.37164303
H      -9.50165738    -12.11729820     17.66763690
H      15.89232057      7.24369828     13.41713639
H      10.35349398      2.24395014      0.11000409
H       9.00332892     13.49635852      9.73934042
H       7.83353065     14.89134902      9.40033948
H      -4.60984251     -0.11816769     -7.22041552
H       4.63534101      5.12263996     -2.93467624
H      -7.32753058     20.54354438      9.86115128
H      -3.63128267    -10.04916597      0.84688493
H       1.95959232     -2.01723379      3.73887805
H       6.50346369     -5.29629554      6.88139265
H      13.38877002     -6.40006282     -7.29176709
H      -7.46074211     20.55216357     10.62964357
