   94
energy=      0.00000000
C       7.70676234     -7.29943840    -11.29294025
C      -2.90896215    -12.74921023    -10.23131789
H       8.38333812     -6.56877026    -10.62512066
C      -0.26794095     -0.82005214      8.32655757
H      -5.49491423      8.40709347     -2.36880680
H      -3.14278516    -11.96110905     -9.40766228
C       0.85101148     -0.65487091      9.56095988
H       7.36976468     -8.36662347    -10.86188514
H      -8.98114088     -6.99585102    -19.14432246
H      -8.97342969     -7.76524501    -19.01636379
C       3.97330752     -0.10145441     -3.35845766
H      16.26525229      6.32974144     13.57266113
C       8.30480595     -9.94054529      5.45525875
H       8.56165129     12.65057506      2.13611998
H       8.45351480     -9.28527916      4.49275312
H       2.50425844    -10.90118632     17.33758517
C       6.59310753    -10.69452437      7.45359107
H       5.49723451    -10.77278008      6.95163646
C       8.19720646     12.76939869      4.57448541
H       6.27765676    -10.48364234      8.60020003
H      10.02634537     13.59156780      5.96337458
H       7.08368651     13.26489921      4.50101885
C       8.66003241     11.98755579      3.17245353
H      16.85665692      2.91566089     -5.08201493
C      15.75282822      2.69569544     -4.97145247
H       2.06130583      0.96574326     -2.70337170
H       8.07324681     10.91694010      2.98541547
H      -2.53866815     10.59090038     11.83149567
C      18.21528337    -11.54996963    -10.49227721
H      -1.41774997     -0.62462096      8.70092575
H      -5.37925158      8.25435560     -0.47221252
C       0.91027285     -2.23209489     -2.42616908
H       0.89436479     -1.82724028      9.94790516
C       1.47819573    -10.71751696     17.93036419
H       0.37653844     -2.13890482     -1.34654521
H     -10.96213609    -12.27297242     15.66815272
H       1.07348491     -9.60107587     18.09678088
C      -0.24731795     -0.44390803     -4.15075626
H      -2.30448056      8.53360720     -1.02974434
C      -2.96966215     10.78962486     -1.59002115
H      -1.24413494      0.00818401     -4.58481504
H      -3.17870683     11.47996157     -0.58738249
H      -1.82737846     11.10206667     -1.93627612
H      -3.56461790     11.40237133     -2.47878000
H      17.95476549    -10.83991249    -11.42637654
H      17.48129618    -12.49697961    -10.58536201
H      19.56890555    -11.97233191     -8.39281464
H       3.54438463      1.37980301      7.81044563
H       0.36480307      0.23693101     10.26004325
H       0.85684386    -11.65028868     18.35672652
H       4.60006136     -0.35642329     -4.34922640
H      -9.42675544     -2.95204824     23.99740376
H       6.31473425     15.06792036     16.37399236
H       9.23996160     11.95186242      6.61763358
H       3.13135933     -0.36034082     12.25793348
H      26.59648769      7.39426669     -2.17327341
H      -4.57246620      9.51177598     11.49105931
H      27.28666125      7.54264242     -1.84154386
H       0.62394925     -2.00455115      6.30218111
H       8.37290978    -12.00664970      6.47843406
H       7.36043866     -6.95163893    -12.38700228
H       4.53456075     -0.73533668     11.07531363
C      -0.23585401     -1.21849941      6.70450102
C     -10.36016020    -12.21606716     16.66242232
C       3.08878378      0.74869501      8.67929198
C       2.41621850     -0.15441797      9.79023660
C       5.05348495      0.25968891     -2.26694822
C       8.19313382     13.85504568      7.18246161
C       3.38077385     -0.40507844     11.07903033
C      -3.55556718     10.05133818     11.66127749
C       8.94868938     13.00191333      6.04303883
C      -4.66431865      8.21519052     -1.47850655
C       1.12497304     -1.12159591     -3.63335813
C       2.35449361     -0.07699115     -3.24092119
C      19.35055618    -11.30472553     -9.36818699
C      -3.29386294      9.16547159     -1.36912592
C       8.09034680    -10.84454984      6.76887078
H       9.82539434     11.62320318      3.00407935
H      -2.67513949    -13.53731141    -11.05497358
H      -1.20846426     -1.81682726      6.23423945
H      -9.29845674     -2.27982476     24.37164303
H      -9.75818431    -12.15916191     17.65669192
H      16.08941789      7.08319455     13.47371370
H       5.86970567      0.59465305     -1.50107413
H       7.01095230     15.27452935     16.65858531
H       7.64250960     14.51761027      7.98238298
H       1.29604081     -1.68885253     -4.71207616
H      -4.47906913      7.01879537     -1.71571400
H      -7.60020280     21.22156798      9.78123602
H       1.28603558     -3.37775263     -2.36388049
H      -0.10777060     -0.23932012      5.96433885
H       9.04116192    -10.56318394      7.49664764
H      20.17331540    -10.42894099     -9.35669922
H      -7.73341433     21.23018717     10.54972831
   94
energy=      0.00000000
C       6.63731929     -6.76899465    -12.36750941
C      -3.34806237    -13.02074229    -10.14185477
H       7.31711420     -6.04126586    -11.69957701
C      -0.24829050     -0.79725361      8.36120126
H      -5.53080119      8.53592942     -2.36355278
H      -3.58188526    -12.23264112     -9.31819913
C       0.83785783     -0.66106003      9.61273024
H       6.30279143     -7.83794323    -11.93918822
H      -8.99341417     -6.98433826    -19.16294311
H      -8.98570298     -7.75373226    -19.03498444
C       3.96005572     -0.11091376     -3.29484366
H      16.26525229      6.32974144     13.57266113
C       8.30430008     -9.93993991      5.45710460
H       8.56179742     12.65022876      2.13463208
H       8.44830528     -9.28163842      4.49599005
H       2.50425844    -10.90118632     17.33758517
C       6.59372531    -10.69395871      7.45228777
H       5.49835820    -10.77832509      6.95015797
C       8.19946685     12.76969984      4.57318536
H       6.27743672    -10.47359496      8.59684735
H      10.03112560     13.58928035      5.96047971
H       7.08385449     13.26040678      4.50126134
C       8.66064572     11.98700285      3.17086187
H      16.85665692      2.91566089     -5.08201493
C      15.75282822      2.69569544     -4.97145247
H       2.04691661      0.98857167     -2.65175522
H       8.07294844     10.91712751      2.98251211
H      -2.55030205     10.61210351     11.84190089
C      16.93488446    -10.70801750     -8.04352739
H      -1.44752026     -0.69763510      8.56390640
H      -5.42751597      8.35529360     -0.45169550
C       0.91084819     -2.25274556     -2.34989427
H       0.85875177     -1.83422382      9.99678652
C       1.47819573    -10.71751696     17.93036419
H       0.35645546     -2.15114996     -1.28177828
H     -10.96213609    -12.27297242     15.66815272
H       1.07348491     -9.60107587     18.09678088
C      -0.23377494     -0.47640040     -4.06670409
H      -2.35269724      8.62868550     -1.00667559
C      -3.03149013     10.88716143     -1.57442784
H      -1.23411505     -0.00292654     -4.46533431
H      -3.24557818     11.57686470     -0.57242104
H      -1.89471236     11.21223594     -1.92621658
H      -3.63433540     11.49001162     -2.46475338
H      17.61058749    -10.58377724     -9.01782160
H      17.38748574    -11.63909391     -8.63291797
H      16.92966413    -10.68058690     -5.74162968
H       3.56305999      1.38124187      7.83107859
H       0.31270279      0.19190802     10.33046730
H       0.85684386    -11.65028868     18.35672652
H       4.56444100     -0.37502096     -4.29743807
H      -9.42675544     -2.95204824     23.99740376
H       6.31473425     15.06792036     16.37399237
H       9.23185899     11.95865175      6.62307981
H       3.17629992     -0.30990072     12.22967483
H      26.59648769      7.39426669     -2.17327341
H      -4.58410010      9.53297911     11.50146453
H      27.28666125      7.54264242     -1.84154386
H       0.50428078     -2.05600394      6.27883833
H       8.37390983    -12.00850051      6.47859802
H       6.29241253     -6.42581614    -13.46349421
H       4.54917333     -0.77635533     11.04535672
C       0.01922339     -1.07678051      6.78459466
C     -10.36016020    -12.21606716     16.66242232
C       3.08628569      0.72813055      8.67216808
C       2.41041229     -0.16607758      9.78809411
C       5.03423035      0.22793799     -2.19257551
C       8.19558535     13.86373458      7.18027194
C       3.40533362     -0.41197138     11.05173319
C      -3.56720108     10.07254131     11.67168271
C       8.94933406     13.00724228      6.04190453
C      -4.71803343      8.32043335     -1.46206054
C       1.14381198     -1.14264494     -3.55391811
C       2.34483094     -0.06743523     -3.16293749
C      16.38091244    -10.05997078     -6.62196276
C      -3.34160773      9.26104466     -1.34820931
C       8.09145913    -10.84643029      6.76923932
H       9.82489562     11.61920620      3.00227534
H      -3.11423959    -13.80884348    -10.96551044
H      15.32869746     -9.66555189     -6.07694902
H      -9.29845674     -2.27982476     24.37164303
H      -9.75818431    -12.15916191     17.65669192
H      16.08941789      7.08319455     13.47371370
H       5.83995889      0.55228998     -1.41249110
H       7.01095230     15.27452936     16.65858531
H       7.64034506     14.50799064      7.99200007
H       1.35765622     -1.70273162     -4.62953351
H      -4.56158762      7.11997630     -1.69845928
H      -7.60753443     21.24150729      9.77855226
H       1.27259787     -3.40209773     -2.27434061
H      -0.17366616     -0.28537735      5.89981668
H       9.04324520    -10.56877164      7.49717270
H      17.20544261     -9.21813350     -6.35578645
H      -7.74074597     21.25012648     10.54704455
