   94
energy=      0.00000000
C     -11.54857404     -2.35765332     -4.56118463
C     -10.05371980     -2.72202012     -3.79127065
H     -11.34962563     -1.71403757     -5.61199474
C     -12.86614881     -1.68212273     -3.68497999
H     -11.93438579     -3.32924417     -5.24294650
H      -9.37583744     -1.79742849     -3.31847840
C       8.15113992      1.30377259      4.35041435
H     -10.03372440     -3.50118770     -2.82707169
H      -6.77018387     -4.92871189    -16.15995449
H      -6.76247268     -5.69810588    -16.03199582
C       0.26669223    -10.63946557     -4.90342777
H      -0.16403267     -9.60523751     -5.21812383
C       7.87969604      0.89905085      2.85021507
H       0.69736396    -11.67373833     -4.58880585
H       8.64961956      1.77150869      2.45338283
H       6.80070171      1.50118007      2.90178967
C       7.97268777     -0.69562188      2.21191605
H       7.18971514     -1.60529584      2.51530504
C       7.35826975     -0.41881298     -0.29529996
H       7.77726168     -1.28136997      3.28307581
H       7.32641390     -0.19338071     -1.51002509
H       7.54205838      0.79349457     -0.50819087
C       5.66972591     -0.82323122     -0.20624304
H       5.01463015     -0.55503446      0.80091287
C       5.52115439      8.20098761    -14.74065046
H       5.47350180     -2.03017686     -0.40235773
H       4.87514769      9.00911463    -15.20002882
H      -0.82079653     12.19147155     11.23277705
C      11.40296355     -5.30924142    -10.95546765
H     -12.73261387     -0.57363495     -3.14544169
H     -13.35508123     -2.31255203     -2.73577153
C      -0.65226042      1.00356501     -7.64223803
H     -13.94849838     -1.42796147     -4.23359421
C      -1.91216003     -5.42118406     12.18749092
H      -1.82391698      0.93822438     -7.36521488
H      -0.53833051     -5.56162619     10.28930023
H      -2.88858214     -5.04656179     12.71967309
C       4.31638340     -0.24028560     -0.89559086
H      -2.74890434      2.90061541      2.85980457
C      -3.54964146      2.89853801      3.79518510
H       3.24490084      0.11722946     -1.24787721
H      -3.44940864      3.95274860      4.42344814
H      -3.30577751      1.95075534      4.54241962
H      -4.69447527      2.79003277      3.35506785
H      10.97346546     -4.22853013    -10.66302918
H      11.92558759     -5.47837082    -12.02138777
H      11.30983471     -6.22081894    -10.18198232
H       8.89600210      4.01815237     14.13693595
H       7.31401286      2.48789721     11.78481743
H      -0.51178067     -7.16041949     11.46340346
H      10.97258878      1.44881816     14.05920980
H      -8.70101793     -4.16259184     22.46177845
H       6.54651831      4.29744829      8.91045989
H      -2.36482260     13.37378539     23.24938334
H       9.89404685      3.69774741      9.90150817
H       9.74972051     -1.18568066     -1.83312136
H      -2.57777226     11.25919741     10.93898214
H      12.50481815     -0.98653387      0.12470937
H       0.21517841      0.19413576     -7.75293557
H       9.87643666     -3.28298775      1.78027263
H      25.95114173     -1.25922372     -0.91414506
H       9.02110320      2.30939780      9.65160494
C      17.30322965     -4.04092092     16.91429424
C      -0.57527510     -5.93442030     11.45839827
C       8.97906874      3.03755751     13.37868773
C       8.25216698      3.30824658     11.83376045
C      10.53121189      2.52336733     13.71542102
C       7.73219495      4.30674187      9.16803939
C       8.72406154      3.39620336     10.17613813
C      -2.02294030     12.35522795     11.02264559
C      -1.84547463     14.33811450     22.85627740
C       9.93569802     -1.33237057     -0.61938828
C      11.58970492     -0.82338674     -0.68181591
C      12.61046618     -1.48771001     -1.69793341
C      25.65424051     -0.29178792     -1.55745192
C       8.71809674     -1.08115303      0.65666759
C       9.73282743     -2.08032626      1.60079154
H      25.20112132     -0.42093169     -2.66014452
H      -9.12494277     -3.26953442     -4.40335836
H      16.35524263     -3.75935046     17.46515407
H      -8.57271924     -3.49036836     22.83601772
H       0.42818280     -5.50505102     12.02039918
H      11.57800771      3.12602809     13.79649414
H       8.29876063      2.29650517     14.10948157
H       7.89502686      5.29259098      8.48518006
H      -1.32612041     15.30244548     22.46318432
H       7.74604450      4.42574345     12.01976712
H       9.79457894     -2.47429964     -1.10373138
H      -2.17473664     12.97400009      9.96898533
H      11.84064409      0.37897337     -0.79190663
H       0.08268058      1.90235792     -7.91040338
H      10.61727212     -1.89857406      2.43368158
H      25.81045847      0.80479166     -1.09806617
H      -2.51845576     12.99624276     11.94983784
   94
energy=      0.00000000
C     -11.92916030     -2.50664664     -4.38067882
C     -10.43352861     -2.86965864     -3.61161289
H     -11.73078066     -1.86476399     -5.43264152
C     -13.24635299     -1.82914042     -3.50540256
H     -12.31559029     -3.47993890     -5.05968131
H      -9.75803826     -1.94521547     -3.13516310
C       8.78095586     -2.26243855      8.26828712
H     -10.41238050     -3.65260794     -2.65048078
H      -7.19112992     -5.48015878    -16.76657874
H      -7.18341873     -6.24955277    -16.63862007
C       0.26667553    -10.63947967     -4.90345104
H      -0.16402431     -9.60523055     -5.21811217
C       8.47925059     -2.82799451      6.82666926
H       0.69737231    -11.67373136     -4.58879419
H       9.19311638     -2.06358623      6.17765776
H       7.43571422     -2.20619054      6.61781543
C       8.56052649     -4.51937327      6.65635136
H       7.63162870     -4.93915876      5.95139805
C       7.43402709      0.61075011     -4.35145227
H       8.21350068     -5.10927532      7.68956915
H       7.41857731      0.91580215     -5.54400783
H       7.70500243      1.69500967     -3.82929008
C       5.94104355     -0.06524576     -3.89929628
H       5.61655752      0.00933052     -2.71026378
C       5.86219405      8.55305390    -15.05905752
H       5.82092234     -1.28817129     -4.02071862
H       5.21618735      9.36118092    -15.51843587
H      -0.82079082     12.19164813     11.23290677
C      12.36127508     -6.81242321    -13.53382142
H     -13.11158059     -0.72108302     -2.96531494
H     -13.73711089     -2.45951166     -2.55708440
C      -2.18946281      2.06905159     -9.22785801
H     -14.32767270     -1.57223345     -4.05480151
C      -2.48125992     -5.56895598     12.50643611
H      -3.35506719      2.00405363     -8.95223684
H      -1.10731694     -5.70952994     10.60820828
H      -3.45754388     -5.19421385     13.03878732
C       4.59944053      0.48792226     -4.62091693
H      -2.74889620      2.90049501      2.85972637
C      -3.54966944      2.89849983      3.79507618
H       3.63372928      0.90924032     -5.14795025
H      -3.44952955      3.95272596      4.42332796
H      -3.30572828      1.95069677      4.54225962
H      -4.69452374      2.79008159      3.35499078
H      11.93177746     -5.73171119    -13.24138442
H      12.88389950     -6.98155502    -14.59974085
H      12.26814820     -7.72400326    -12.76033886
H       8.99598656      5.85778575     16.58912134
H       7.30950691      4.38125062     14.23544894
H      -1.08078027     -7.30818564     11.78221425
H      11.06499272      3.26767265     16.22335891
H      -8.70101793     -4.16259184     22.46177845
H       6.73792497      6.00004335     11.13873982
H      -2.36482218     13.37380068     23.24947433
H       9.97912478      5.60347743     12.47256103
H      10.14949927     -0.75774667     -5.96356500
H      -2.57782584     11.25931802     10.93885777
H      12.48609429     -0.26776269     -3.39019348
H      -1.51880915      1.07625915     -9.27311621
H      10.09263929     -6.36424623      5.54805905
H      25.95114173     -1.25922372     -0.91414506
H       9.08403164      4.18192346     12.10125455
C      17.30322965     -4.04092092     16.91429424
C      -1.14437358     -6.08219101     11.77734521
C       9.04342922      4.90262286     15.79526900
C       8.26014124      5.18559096     14.28004202
C      10.61208878      4.36675741     15.99130941
C       7.87967902      6.12304278     11.53031497
C       8.79923443      5.26455461     12.64184961
C      -2.02292725     12.35530458     11.02265549
C      -1.84547127     14.33813067     22.85637445
C      10.33895754     -0.70639396     -4.74811471
C      11.88055784     -0.07319152     -4.44350570
C      13.00599442     -0.59459438     -5.42264400
C      25.65424051     -0.29178792     -1.55745192
C       8.90728857     -0.08375675     -4.28301249
C       9.93152383     -5.32847395      6.15511695
H      25.20112132     -0.42093169     -2.66014452
H      -9.50254372     -3.41150412     -4.22541972
H      16.35524265     -3.75935048     17.46515407
H      -8.57271924     -3.49036836     22.83601772
H      -0.14109852     -5.65266885     12.33955563
H      11.66595681      4.96289929     16.00803316
H       8.40137972      4.16693659     16.56506751
H       8.09460245      7.11495595     10.86929456
H      -1.32611999     15.30246077     22.46327531
H       7.65506949      6.25546351     14.46781595
H      10.18291919     -1.88455066     -4.41787289
H      -2.17478202     12.97394826      9.96892823
H      12.06825388      1.14238573     -4.49556957
H      -1.67789149      3.12775941     -9.46215579
H      11.11247724     -5.11802100      6.30170690
H      25.81045847      0.80479166     -1.09806617
H      -2.51831033     12.99630389     11.94992920
