   94

C       5.86823752     -7.43463467    -14.55352040
C      -3.62032420    -13.32427898    -10.05820165
H       6.54822542     -6.70749975    -13.88507644
C      -1.08491812     -0.85107638      8.32752996
H      -6.78222869      7.19349441     -2.38938530
H       3.03629214     -3.28383609      9.15001519
C       0.18632589     -1.16258694      9.35904372
H       5.53362829     -8.50373206    -14.12574299
H      -9.00629938     -6.97077983    -19.18209263
H      -8.99858819     -7.74017383    -19.05413396
C      10.22159286     -3.21110177     -3.84263901
H      17.20343948      4.48035722     15.07276143
C       8.64179526    -10.47504093      5.10034017
H       8.27447946     10.89052470     -2.77694399
H       8.93906195     -9.75110488      4.23464937
H       2.50425844    -10.90118632     17.33758517
C       7.25285285    -10.93487363      7.58706796
H       6.13791235    -10.52473626      7.25847027
C       7.52044851     11.12441107     -0.56627838
H       6.95619192    -11.79176321      8.42027603
H      16.75911297     13.70993625      6.45933943
H       6.95347518     11.72968040      0.26387229
C       8.29655313     10.29554489     -1.70333216
H      12.58961622     -2.62915550     -6.48536052
C      11.89783256     -3.48531104     -5.95729946
H      11.41513686     -4.21087872     -6.79640486
H       7.78383237      9.19332947     -1.87470657
H      -3.00485582     10.26787246     11.04744923
C      13.22849166     -4.80080510     -4.59347166
H      -2.18916589     -0.55240277      8.74739818
H      -6.90726072      7.18428137     -0.41989274
C       7.15411671     -3.03539763     -2.56519403
H      -0.15959536     -2.23746132      9.85685632
C       1.47819573    -10.71751696     17.93036419
H       6.80832400     -2.51228419     -1.50117786
H     -10.96213609    -12.27297242     15.66815272
H       1.07348491     -9.60107587     18.09678088
C      -5.31253406     -2.01722353     -6.40648097
H      -3.72974483      7.49793556     -1.25014811
C      -4.54679388      9.66704008     -1.05629339
H      -6.35810754     -1.63775989     -6.08675402
H      -4.46143775     10.79674951     -0.78500295
H      -0.32163491     18.20951593     -5.83223244
H      -1.05536854     18.33356265     -6.06600022
H      14.18972186     -4.13372546     -4.28347587
H      14.84856385     -6.02376516     -6.37894372
H      15.41842931     -6.23983256     -4.84484444
H       2.71928583      0.64600844      7.13459223
H       0.12569203     -0.37395587     10.30760846
H       0.85684386    -11.65028868     18.35672652
H       9.92422432     -2.05240774     -4.01044646
H      -9.42675544     -2.95204824     23.99740376
H       4.34725348     15.16486320     22.65560149
H      16.42992407     13.05744912      6.73191092
H       3.24941005     -2.08755514     10.76754960
H      27.34947999      7.72515486     -1.91711422
H      -4.86258985      9.39383831     11.36150215
H      28.03965355      7.87353058     -1.58538466
H      -1.31931721     -1.85011694      6.00929812
H       8.68657387    -12.46989408      6.09212377
H       5.52285884     -7.09267220    -15.64974179
H       4.26600428     -1.89366665      9.28929200
C      -1.21673378     -0.87576261      6.70855955
C     -10.36016020    -12.21606716     16.66242232
C       2.30538748     -0.11930112      7.91587356
C       1.81315149     -1.19416248      8.97902152
C      11.78745015     -3.82176116     -4.34417944
C       6.66397886     18.45793911     11.45810788
C       3.08324913     -2.11678002      9.54574544
C      -3.97387557      9.70598162     10.61942456
C       7.61211738     17.63174020     10.62862279
C      -6.21824285      7.46384438     -1.36362545
C      -4.02298619     -2.63464398     -6.95422446
C       8.70249126     -3.13781268     -3.17614267
C      14.28080484     -5.99839545     -5.27550621
C      -4.75527504      8.12109816     -1.24737034
C       8.19447327    -11.38902542      6.30854072
H       9.47217008     10.11834505     -1.39729985
H      -3.39230070    -14.09101819    -10.85916374
H      14.00059818     -7.18135942     -5.47956639
H      -9.29845674     -2.27982476     24.37164303
H      -9.75818431    -12.15916191     17.65669192
H      17.02760508      5.23381033     14.97381401
H      12.09723606     -3.28169255     -3.29077334
H       5.04347153     15.37147220     22.94019443
H       5.93739142     19.09109916     12.09380153
H      -3.13027049     -3.17663130     -7.45297712
H      -4.05418021      9.45623708      9.44933666
H      -7.60795419     21.24264930      9.77839801
H       6.09386356     -2.53402120     -2.95418926
H      -1.23528375      0.08077477      5.97628262
H       7.77482194    -10.06896417      8.29232715
H       6.84389124     -4.21263551     -2.59900293
H      -7.74116572     21.25126849     10.54689030
   94

C       5.86823839     -7.43461271    -14.55354639
C      -3.62038726    -13.32436247    -10.05826976
H       6.54822049     -6.70747960    -13.88509274
C      -1.08449238     -0.85025039      8.32767175
H      -6.78158559      7.19481219     -2.38974209
H       3.03522911     -3.28469126      9.14903523
C       0.18619059     -1.16155104      9.35995218
H       5.53362981     -8.50371223    -14.12577187
H      -9.00630855     -6.97078407    -19.18210885
H      -8.99859723     -7.74017804    -19.05415003
C      10.23316317     -3.05911616     -3.95172562
H      17.20344356      4.48036104     15.07277357
C       8.64210770    -10.47513800      5.10053131
H       8.27443457     10.89081999     -2.77691131
H       8.94040263     -9.75227694      4.23429831
H       2.50425717    -10.90120124     17.33762313
C       7.25285009    -10.93504264      7.58747024
H       6.13781806    -10.52466287      7.25949955
C       7.52039607     11.12467937     -0.56622115
H       6.95690755    -11.79277002      8.42008429
H      16.75912207     13.70996499      6.45936020
H       6.95342206     11.72988294      0.26397559
C       8.29650725     10.29585118     -1.70329426
H      12.60547785     -2.60110092     -6.53644988
C      11.90445958     -3.43449338     -5.99029895
H      11.40531528     -4.15973981     -6.82001802
H       7.78377112      9.19364605     -1.87468371
H      -3.00487778     10.26790510     11.04748283
C      13.17000498     -4.82043120     -4.49473816
H      -2.18836136     -0.54944648      8.74697034
H      -6.90842144      7.18169885     -0.42053122
C       7.27091301     -3.14950601     -2.58651373
H      -0.16031587     -2.23574065      9.85881323
C       1.47819254    -10.71753180     17.93039878
H       6.93289840     -2.62212692     -1.52233910
H     -10.96214912    -12.27298121     15.66816818
H       1.07348181     -9.60109103     18.09681775
C      -5.31527686     -2.01963889     -6.40930805
H      -3.73007628      7.49863918     -1.25190581
C      -4.54734446      9.66684790     -1.05209970
H      -6.35713124     -1.63488503     -6.08383590
H      -4.45965234     10.79833203     -0.78911114
H      -0.32164276     18.20954587     -5.83223997
H      -1.05537664     18.33359062     -6.06600801
H      14.14959033     -4.21858699     -4.11215345
H      14.73546340     -6.02594254     -6.33612009
H      15.32826805     -6.28402901     -4.82812803
H       2.71762629      0.65020401      7.13844237
H       0.12592526     -0.37260588     10.30828204
H       0.85683831    -11.65030405     18.35675649
H       9.88970955     -1.90927998     -4.06661765
H      -9.42676076     -2.95204855     23.99741403
H       4.34725379     15.16486670     22.65560641
H      16.42993321     13.05747913      6.73193479
H       3.24940331     -2.09124070     10.76691079
H      27.34953905      7.72520496     -1.91710187
H      -4.86261260      9.39386914     11.36153736
H      28.03971239      7.87357425     -1.58536904
H      -1.31849821     -1.85308846      6.01102065
H       8.68651480    -12.46969399      6.09219312
H       5.52285123     -7.09266940    -15.64977184
H       4.26503102     -1.89362613      9.28767369
C      -1.21633280     -0.87758845      6.70873259
C     -10.36017206    -12.21607540     16.66243706
C       2.30490702     -0.11718286      7.91830190
C       1.81296014     -1.19375080      8.97986226
C      11.77264024     -3.68552796     -4.36546951
C       6.66397915     18.45795066     11.45811707
C       3.08268383     -2.11777993      9.54511956
C      -3.97389967      9.70601663     10.61945988
C       7.61211845     17.63175287     10.62863190
C      -6.21859385      7.46350237     -1.36299885
C      -4.02573068     -2.63694157     -6.95708994
C       8.82508877     -3.26759072     -3.16619495
C      14.18287509     -6.01957812     -5.22494006
C      -4.75594746      8.12120228     -1.24525986
C       8.19443500    -11.38885623      6.30879278
H       9.47211813     10.11865898     -1.39723748
H      -3.39233812    -14.09109516    -10.85923049
H      13.87315815     -7.19174848     -5.44588005
H      -9.29846173     -2.27982488     24.37165286
H      -9.75819493    -12.15916954     17.65670589
H      17.02760943      5.23381426     14.97382651
H      12.09627379     -3.10316640     -3.33593237
H       5.04347206     15.37147543     22.94019902
H       5.93738980     19.09110981     12.09380939
H      -3.12791154     -3.17473220     -7.45119260
H      -4.05420893      9.45627762      9.44937115
H      -7.60795789     21.24265618      9.77840131
H       6.22022383     -2.63914869     -2.98832350
H      -1.23559497      0.07764937      5.97477567
H       7.77419505    -10.06890908      8.29290966
H       6.91200034     -4.31305174     -2.61525074
H      -7.74116922     21.25127499     10.54689364
   94

C       5.86814827     -7.43465087    -14.55373327
C      -3.62044682    -13.32442241    -10.05832070
H       6.54813344     -6.70750718    -13.88529479
C      -1.08392771     -0.84946354      8.32752728
H      -6.78087039      7.19607249     -2.39009813
H       3.03424479     -3.28555433      9.14779320
C       0.18616679     -1.16052312      9.36061916
H       5.53354593     -8.50374824    -14.12594939
H      -9.00631647     -6.97078595    -19.18211789
H      -8.99860518     -7.74017993    -19.05415916
C      10.23074629     -2.90986543     -4.05464162
H      17.20344931      4.48037007     15.07279465
C       8.64230238    -10.47546054      5.10099652
H       8.27435027     10.89118272     -2.77685465
H       8.94159446     -9.75361015      4.23427861
H       2.50425145    -10.90120929     17.33765581
C       7.25271211    -10.93525827      7.58805203
H       6.13761138    -10.52461671      7.26066004
C       7.52030412     11.12499008     -0.56613451
H       6.95746235    -11.79380085      8.42008092
H      16.75913492     13.71000272      6.45938706
H       6.95332645     11.73010908      0.26411897
C       8.29642611     10.29621922     -1.70323595
H      12.62050440     -2.57475331     -6.58936252
C      11.90649826     -3.38253617     -6.02732242
H      11.38897719     -4.10409272     -6.84898465
H       7.78367275      9.19402524     -1.87463839
H      -3.00488599     10.26791599     11.04749590
C      13.06175222     -4.85281794     -4.38868859
H      -2.18741817     -0.54652490      8.74623968
H      -6.90950866      7.17905436     -0.42118062
C       7.42714309     -3.26924777     -2.62238843
H      -0.16093368     -2.23401688      9.86054463
C       1.47818446    -10.71753915     17.93042706
H       7.09558482     -2.73756586     -1.55722224
H     -10.96215648    -12.27298467     15.66817602
H       1.07347397     -9.60109822     18.09684530
C      -5.31772652     -2.02209580     -6.41204167
H      -3.73034095      7.49928610     -1.25367058
C      -4.54784306      9.66659472     -1.04787096
H      -6.35580781     -1.63205894     -6.08086249
H      -4.45782595     10.79980604     -0.79325888
H      -0.32165368     18.20957211     -5.83224487
H      -1.05538783     18.33361437     -6.06601335
H      14.03977661     -4.34542148     -3.88292092
H      14.61072408     -6.00314086     -6.28506170
H      15.22449230     -6.30292323     -4.80613354
H       2.71613283      0.65419432      7.14185150
H       0.12626201     -0.37125731     10.30870765
H       0.85682862    -11.65031176     18.35678154
H       9.84096496     -1.77396612     -4.10455263
H      -9.42676328     -2.95204835     23.99741825
H       4.34725338     15.16486859     22.65560932
H      16.42994595     13.05751862      6.73196571
H       3.24946301     -2.09493664     10.76602122
H      27.34957929      7.72522797     -1.91709674
H      -4.86262114      9.39387864     11.36155070
H      28.03975200      7.87359441     -1.58536138
H      -1.31737102     -1.85611513      6.01242510
H       8.68634413    -12.46969626      6.09253018
H       5.52275442     -7.09271438    -15.64995848
H       4.26413567     -1.89359944      9.28581454
C      -1.21573739     -0.87947807      6.70861393
C     -10.36017898    -12.21607867     16.66244463
C       2.30455816     -0.11515383      7.92037834
C       1.81287390     -1.19333653      8.98043355
C      11.75184813     -3.54143342     -4.39584258
C       6.66397738     18.45795980     11.45812571
C       3.08219776     -2.11879362      9.54424733
C      -3.97390834      9.70602771     10.61947370
C       7.61211741     17.63176307     10.62864056
C      -6.21887009      7.46309595     -1.36237554
C      -4.02811077     -2.63924520     -6.95976503
C       8.99886024     -3.43116377     -3.15937836
C      14.06931087     -6.02792901     -5.16879609
C      -4.75654385      8.12124204     -1.24315242
C       8.19427687    -11.38889464      6.30930559
H       9.47203181     10.11904638     -1.39715249
H      -3.39238160    -14.09115172    -10.85927996
H      13.74529383     -7.19165713     -5.41300707
H      -9.29846407     -2.27982460     24.37165687
H      -9.75820137    -12.15917259     17.65671316
H      17.02761501      5.23382319     14.97384710
H      12.10445337     -2.89494711     -3.41272413
H       5.04347171     15.37147723     22.94020183
H       5.93738621     19.09111817     12.09381668
H      -3.12514567     -3.17276382     -7.44909274
H      -4.05421849      9.45628972      9.44938484
H      -7.60795996     21.24265851      9.77840277
H       6.38551690     -2.74700452     -3.03467998
H      -1.23564339      0.07444539      5.97295984
H       7.77345086    -10.06889524      8.29364935
H       7.00785479     -4.41353853     -2.64141654
H      -7.74117115     21.25127717     10.54689513
   94

C       5.86797313     -7.43475302    -14.55405272
C      -3.62049259    -13.32445543    -10.05834944
H       6.54796672     -6.70758829    -13.88564827
C      -1.08324486     -0.84871297      8.32715279
H      -6.78009665      7.19728917     -2.39045290
H       3.03333658     -3.28642905      9.14631735
C       0.18624354     -1.15950637      9.36108591
H       5.53338635     -8.50384479    -14.12624607
H      -9.00632246     -6.97078582    -19.18211976
H      -8.99861129     -7.74017985    -19.05416129
C      10.22935155     -2.77698644     -4.11389264
H      17.20345571      4.48038246     15.07281889
C       8.64231210    -10.47595705      5.10166574
H       8.27425059     10.89153120     -2.77678655
H       8.94248392     -9.75502733      4.23450883
H       2.50424150    -10.90121105     17.33768281
C       7.25242369    -10.93549760      7.58877814
H       6.13727522    -10.52457388      7.26192336
C       7.52019822     11.12527699     -0.56603736
H       6.95784585    -11.79483564      8.42022995
H      16.75914836     13.71003930      6.45941373
H       6.95321853     11.73031235      0.26427294
C       8.29633332     10.29656863     -1.70316876
H      12.61931792     -2.54838793     -6.64752081
C      11.89271809     -3.32864566     -6.06767748
H      11.35939388     -4.04781349     -6.88139172
H       7.78356807      9.19438318     -1.87458299
H      -3.00488159     10.26790890     11.04749201
C      12.90934896     -4.89102736     -4.29673855
H      -2.18635648     -0.54363695      8.74526514
H      -6.91053567      7.17636368     -0.42184009
C       7.61138245     -3.38846445     -2.66870451
H      -0.16145648     -2.23229555      9.86208822
C       1.47817184    -10.71753964     17.93044894
H       7.28844606     -2.85715362     -1.59920461
H     -10.96215862    -12.27298348     15.66817686
H       1.07346172     -9.60109813     18.09686388
C      -5.31993211     -2.02459438     -6.41470423
H      -3.73055339      7.49989581     -1.25544098
C      -4.54829892      9.66629823     -1.04361388
H      -6.35418575     -1.62928346     -6.07785239
H      -4.45596401     10.80118475     -0.79744033
H      -0.32166460     18.20959205     -5.83224714
H      -1.05539900     18.33363183     -6.06601616
H      13.83786868     -4.51496152     -3.61481213
H      14.48706581     -5.95801920     -6.22418531
H      15.11344010     -6.27978440     -4.76855625
H       2.71478601      0.65801828      7.14490590
H       0.12669461     -0.36991418     10.30892737
H       0.85681512    -11.65031247     18.35680153
H       9.81104225     -1.65254681     -4.13843940
H      -9.42676333     -2.95204770     23.99741720
H       4.34725258     15.16486888     22.65561003
H      16.42995924     13.05755687      6.73199618
H       3.24959164     -2.09864896     10.76490915
H      27.34959848      7.72522551     -1.91709643
H      -4.86261689      9.39387060     11.36154602
H      28.03977043      7.87359232     -1.58535967
H      -1.31599438     -1.85919048      6.01357743
H       8.68604146    -12.46985240      6.09308366
H       5.52257315     -7.09281342    -15.65027391
H       4.26331615     -1.89359034      9.28374090
C      -1.21498436     -0.88142343      6.70826305
C     -10.36018137    -12.21607759     16.66244563
C       2.30432354     -0.11319940      7.92216677
C       1.81288241     -1.19292586      8.98077994
C      11.73071706     -3.40265619     -4.43427813
C       6.66397474     18.45796503     11.45813224
C       3.08178919     -2.11982513      9.54315763
C      -3.97390315      9.70601914     10.61946988
C       7.61211517     17.63176903     10.62864705
C      -6.21908603      7.46264186     -1.36175524
C      -4.03018677     -2.64156404     -6.96228826
C       9.19618513     -3.58138784     -3.18824588
C      13.94741969     -6.01967021     -5.10893799
C      -4.75707947      8.12123556     -1.24104869
C       8.19397472    -11.38909356      6.31002673
H       9.47193505     10.11942453     -1.39705789
H      -3.39242207    -14.09118444    -10.85930749
H      13.63157735     -7.18100363     -5.37616446
H      -9.29846407     -2.27982396     24.37165583
H      -9.75820397    -12.15917164     17.65671430
H      17.02762081      5.23383526     14.97386997
H      12.13720555     -2.70102775     -3.50971945
H       5.04347085     15.37147760     22.94020264
H       5.93738200     19.09112285     12.09382190
H      -3.12204435     -3.17074220     -7.44672291
H      -4.05421126      9.45627860      9.44938145
H      -7.60796024     21.24265682      9.77840252
H       6.57212146     -2.85995426     -3.08311847
H      -1.23548384      0.07117599      5.97090271
H       7.77257612    -10.06890225      8.29451292
H       7.13683153     -4.51234483     -2.67536889
H      -7.74117136     21.25127553     10.54689488
   94

C       5.86779537     -7.43486888    -14.55436284
C      -3.62052048    -13.32446906    -10.05836162
H       6.54779772     -6.70768389    -13.88599220
C      -1.08251989     -0.84797739      8.32670079
H      -6.77929902      7.19849370     -2.39080500
H       3.03246137     -3.28730819      9.14474001
C       0.18636077     -1.15849609      9.36147898
H       5.53322771     -8.50395537    -14.12653174
H      -9.00632547     -6.97078455    -19.18211711
H      -8.99861447     -7.74017863    -19.05415896
C      10.23521152     -2.66418049     -4.13143190
H      17.20346048      4.48039251     15.07283556
C       8.64218538    -10.47645649      5.10233922
H       8.27417385     10.89174362     -2.77673272
H       8.94310504     -9.75638548      4.23475261
H       2.50423025    -10.90120970     17.33770490
C       7.25206115    -10.93571276      7.58951546
H       6.13687097    -10.52449853      7.26318943
C       7.52011732     11.12544671     -0.56596375
H       6.95815364    -11.79584207      8.42039124
H      16.75915708     13.71006223      6.45943205
H       6.95314407     11.73042908      0.26438759
C       8.29626369     10.29678263     -1.70311506
H      12.60128979     -2.51937108     -6.70367170
C      11.86423217     -3.27347130     -6.10662466
H      11.32240552     -3.99313979     -6.91453383
H       7.78349792      9.19459999     -1.87454033
H      -3.00487141     10.26789563     11.04748174
C      12.74410745     -4.92450799     -4.22102048
H      -2.18525042     -0.54076604      8.74420800
H      -6.91153664      7.17366342     -0.42250760
C       7.80395015     -3.50092468     -2.71934674
H      -0.16193795     -2.23057815      9.86356051
C       1.47815807    -10.71753693     17.93046613
H       7.49093255     -2.97398466     -1.64344567
H     -10.96215858    -12.27298048     15.66817480
H       1.07344832     -9.60109473     18.09687700
C      -5.32204726     -2.02711343     -6.41734924
H      -3.73075028      7.50050831     -1.25721407
C      -4.54873898      9.66599656     -1.03933899
H      -6.35241491     -1.62654127     -6.07484462
H      -4.45408392     10.80249977     -0.80164463
H      -0.32167079     18.20960284     -5.83224782
H      -1.05540530     18.33364104     -6.06601731
H      13.58662587     -4.67414429     -3.38764634
H      14.37284005     -5.90688870     -6.15440395
H      14.99886824     -6.22441704     -4.70914819
H       2.71349276      0.66177942      7.14783332
H       0.12716789     -0.36857680     10.30907235
H       0.85680090    -11.65030990     18.35681761
H       9.80096382     -1.54679361     -4.17286983
H      -9.42676242     -2.95204687     23.99741420
H       4.34725193     15.16486820     22.65560918
H      16.42996788     13.05758071      6.73201659
H       3.24975387     -2.10236795     10.76369771
H      27.34960767      7.72521644     -1.91709570
H      -4.86260705      9.39385687     11.36153467
H      28.03977911      7.87358417     -1.58535829
H      -1.31453853     -1.86227555      6.01464727
H       8.68567350    -12.47000683      6.09366093
H       5.52238865     -7.09292309    -15.65057878
H       4.26252867     -1.89358816      9.28157395
C      -1.21418191     -0.88338474      6.70783767
C     -10.36018184    -12.21607484     16.66244389
C       2.30413027     -0.11127328      7.92384841
C       1.81292839     -1.19251832      8.98104038
C      11.70903704     -3.28641847     -4.47356036
C       6.66397290     18.45796581     11.45813524
C       3.08141473     -2.12086434      9.54197466
C      -3.97389194      9.70600407     10.61945958
C       7.61211308     17.63176998     10.62864971
C      -6.21927807      7.46217784     -1.36113717
C      -4.03214293     -2.64389395     -6.96476190
C       9.39453676     -3.70094321     -3.24789459
C      13.82450994     -6.00037284     -5.04616700
C      -4.75759143      8.12122186     -1.23895073
C       8.19359418    -11.38929710      6.31076845
H       9.47186250     10.11966889     -1.39697833
H      -3.39245126    -14.09119947    -10.85931877
H      13.53305866     -7.16468262     -5.32945487
H      -9.29846316     -2.27982319     24.37165292
H      -9.75820493    -12.15916914     17.65671287
H      17.02762484      5.23384495     14.97388521
H      12.18330646     -2.56663565     -3.59487208
H       5.04347009     15.37147705     22.94020197
H       5.93737900     19.09112340     12.09382375
H      -3.11882999     -3.16868340     -7.44422911
H      -4.05419711      9.45625992      9.44937174
H      -7.60795926     21.24265329      9.77840126
H       6.76237308     -2.97205420     -3.13123769
H      -1.23526087      0.06788927      5.96877518
H       7.77163730    -10.06888731      8.29538198
H       7.28366007     -4.60569933     -2.71226756
H      -7.74117039     21.25127218     10.54689362
   94

C       5.86768632     -7.43494672    -14.55456067
C      -3.62053236    -13.32447320    -10.05836426
H       6.54769712     -6.70775120    -13.88621170
C      -1.08180197     -0.84724445      8.32627162
H      -6.77850720      7.19971046     -2.39115240
H       3.03159235     -3.28819049      9.14314379
C       0.18647936     -1.15749139      9.36188257
H       5.53313128     -8.50403066    -14.12671552
H      -9.00632605     -6.97078310    -19.18211340
H      -8.99861521     -7.74017723    -19.05415552
C      10.23775585     -2.57202133     -4.13086951
H      17.20346203      4.48039694     15.07284119
C       8.64205358    -10.47672550      5.10275296
H       8.27413878     10.89179200     -2.77670884
H       8.94365157     -9.75751263      4.23470595
H       2.50422238    -10.90120693     17.33771709
C       7.25174718    -10.93582963      7.59006971
H       6.13650506    -10.52432997      7.26429944
C       7.52007875     11.12548451     -0.56593029
H       6.95852658    -11.79676486      8.42036056
H      16.75915942     13.71006931      6.45943944
H       6.95312104     11.73045171      0.26444191
C       8.29623213     10.29683790     -1.70308775
H      12.57809509     -2.48851748     -6.74619110
C      11.83101136     -3.22041250     -6.13778238
H      11.28802102     -3.94029552     -6.94523596
H       7.78347381      9.19465378     -1.87452347
H      -3.00486181     10.26788488     11.04747367
C      12.58976152     -4.94949190     -4.14975775
H      -2.18414728     -0.53790108      8.74317491
H      -6.91254082      7.17097808     -0.42318062
C       7.99247240     -3.60478098     -2.77121828
H      -0.16241320     -2.22886788      9.86503910
C       1.47814858    -10.71753325     17.93047515
H       7.68993187     -3.08427957     -1.68823077
H     -10.96215765    -12.27297763     15.66817222
H       1.07343901     -9.60109056     18.09688288
C      -5.32419897     -2.02963597     -6.42001319
H      -3.73096378      7.50115334     -1.25898641
C      -4.54918942      9.66571852     -1.03504973
H      -6.35061624     -1.62381422     -6.07186115
H      -4.45220317     10.80377645     -0.80586547
H      -0.32167098     18.20960639     -5.83224837
H      -1.05540548     18.33364412     -6.06601812
H      13.35728179     -4.78242459     -3.22800625
H      14.26425334     -5.86094652     -6.08175826
H      14.88353112     -6.16642222     -4.64086757
H       2.71218822      0.66554377      7.15078302
H       0.12764606     -0.36724835     10.30923051
H       0.85679128    -11.65030625     18.35682633
H       9.79428898     -1.45902269     -4.20132992
H      -9.42676134     -2.95204622     23.99741129
H       4.34725164     15.16486720     22.65560774
H      16.42997017     13.05758796      6.73202432
H       3.24992783     -2.10609254     10.76246521
H      27.34961248      7.72521175     -1.91709424
H      -4.86259805      9.39384587     11.36152583
H      28.03978374      7.87357972     -1.58535657
H      -1.31311171     -1.86534817      6.01574532
H       8.68535268    -12.46994933      6.09400260
H       5.52227246     -7.09299617    -15.65077219
H       4.26174522     -1.89358968      9.27939015
C      -1.21339905     -0.88533921      6.70744107
C     -10.36018134    -12.21607219     16.66244158
C       2.30393037     -0.10934900      7.92554145
C       1.81297440     -1.19211718      8.98130577
C      11.67990169     -3.19607069     -4.50547616
C       6.66397242     18.45796372     11.45813531
C       3.08104681     -2.12190863      9.54077749
C      -3.97388170      9.70599201     10.61945173
C       7.61211173     17.63176760     10.62864910
C      -6.21947763      7.46173192     -1.36051930
C      -4.03413087     -2.64623158     -6.96726062
C       9.58219600     -3.78985958     -3.32864193
C      13.70422695     -5.97975148     -4.98230271
C      -4.75811208      8.12123031     -1.23685624
C       8.19325238    -11.38929015      6.31127094
H       9.47182827     10.11974828     -1.39692778
H      -3.39246674    -14.09120531    -10.85932088
H      13.43709512     -7.14755864     -5.27552583
H      -9.29846210     -2.27982259     24.37165010
H      -9.75820485    -12.15916672     17.65671084
H      17.02762589      5.23384915     14.97389001
H      12.22139761     -2.48308946     -3.65867372
H       5.04346971     15.37147616     22.94020068
H       5.93737768     19.09112130     12.09382285
H      -3.11568425     -3.16659935     -7.44172324
H      -4.05418458      9.45624500      9.44936436
H      -7.60795792     21.24265001      9.77839986
H       6.94659035     -3.07919119     -3.17917664
H      -1.23506683      0.06461208      5.96668725
H       7.77073997    -10.06878307      8.29608488
H       7.43403251     -4.69183468     -2.74973084
H      -7.74116911     21.25126908     10.54689221
   94

C       5.86765919     -7.43497278    -14.55462532
C      -3.62052791    -13.32447081    -10.05835884
H       6.54767718     -6.70777672    -13.88628453
C      -1.08109728     -0.84651212      8.32588218
H      -6.77772887      7.20094741     -2.39149487
H       3.03072343     -3.28907849      9.14153672
C       0.18659324     -1.15649194      9.36231312
H       5.53310746     -8.50405658    -14.12677767
H      -9.00632482     -6.97078191    -19.18210986
H      -8.99861406     -7.74017606    -19.05415212
C      10.23182248     -2.49866657     -4.12582925
H      17.20346044      4.48039635     15.07283802
C       8.64197060    -10.47666773      5.10279652
H       8.27414193     10.89171165     -2.77671444
H       8.94421468     -9.75834825      4.23423861
H       2.50421973    -10.90120301     17.33771594
C       7.25153356    -10.93581397      7.59035354
H       6.13622316    -10.52403946      7.26517918
C       7.52007836     11.12542229     -0.56593383
H       6.95902489    -11.79758010      8.42004360
H      16.75915664     13.71006342      6.45943698
H       6.95314262     11.73040393      0.26444308
C       8.29623406     10.29677006     -1.70308624
H      12.55606592     -2.45731344     -6.77498005
C      11.79872002     -3.17095396     -6.16131041
H      11.25906092     -3.88936268     -6.97296307
H       7.78348643      9.19458245     -1.87453196
H      -3.00485484     10.26787848     11.04747002
C      12.44897284     -4.96726828     -4.07780568
H      -2.18305201     -0.53503583      8.74218294
H      -6.91355669      7.16830745     -0.42385895
C       8.17642713     -3.70115164     -2.82449275
H      -0.16288850     -2.22716440      9.86654017
C       1.47814555    -10.71752905     17.93047325
H       7.88509807     -3.18811274     -1.73409407
H     -10.96215558    -12.27297528     15.66816925
H       1.07343597     -9.60108611     18.09687932
C      -5.32642317     -2.03216334     -6.42270701
H      -3.73120327      7.50183777     -1.26075895
C      -4.54966028      9.66546986     -1.03073838
H      -6.34881560     -1.62109241     -6.06889846
H      -4.45032594     10.80502217     -0.81010881
H      -0.32166644     18.20960572     -5.83224944
H      -1.05540085     18.33364387     -6.06601926
H      13.16369661     -4.84996738     -3.10714784
H      14.15621144     -5.82082096     -6.01069403
H      14.76968606     -6.11623141     -4.57458903
H       2.71085936      0.66932879      7.15378726
H       0.12812406     -0.36592901     10.30941879
H       0.85678854    -11.65030191     18.35682513
H       9.78178708     -1.38856495     -4.22037031
H      -9.42676012     -2.95204591     23.99740874
H       4.34725164     15.16486613     22.65560620
H      16.42996734     13.05758171      6.73202095
H       3.25010996     -2.10983027     10.76122248
H      27.34960960      7.72520828     -1.91709399
H      -4.86259179      9.39383921     11.36152184
H      28.03978093      7.87357646     -1.58535655
H      -1.31172704     -1.86841302      6.01689244
H       8.68512557    -12.46959290      6.09399409
H       5.52223975     -7.09301973    -15.65083417
H       4.26096033     -1.89359839      9.27719975
C      -1.21264360     -0.88728931      6.70709027
C     -10.36017956    -12.21606997     16.66243880
C       2.30371671     -0.10742140      7.92726871
C       1.81301437     -1.19172400      8.98159250
C      11.64320980     -3.12280797     -4.52983429
C       6.66397308     18.45796019     11.45813350
C       3.08068009     -2.12296161      9.53957714
C      -3.97387454      9.70598486     10.61944857
C       7.61211109     17.63176351     10.62864633
C      -6.21969391      7.46130995     -1.35989999
C      -4.03619266     -2.64858203     -6.96980456
C       9.75976335     -3.85404383     -3.42462187
C      13.58696089     -5.96045864     -4.91886453
C      -4.75865119      8.12126683     -1.23475809
C       8.19299846    -11.38898415      6.31142235
H       9.47182729     10.11969619     -1.39690546
H      -3.39246718    -14.09120449    -10.85931541
H      13.33748683     -7.13055556     -5.21829333
H      -9.29846093     -2.27982232     24.37164765
H      -9.75820337    -12.15916466     17.65670824
H      17.02762415      5.23384850     14.97388662
H      12.24652727     -2.42645250     -3.70881340
H       5.04346964     15.37147517     22.94019924
H       5.93737772     19.09111791     12.09382022
H      -3.11264812     -3.16449088     -7.43922692
H      -4.05417608      9.45623610      9.44936152
H      -7.60795671     21.24264768      9.77839872
H       7.12507919     -3.18076632     -3.22743521
H      -1.23491244      0.06133938      5.96465270
H       7.76992852    -10.06855975      8.29654561
H       7.58452061     -4.77111571     -2.78785622
H      -7.74116796     21.25126689     10.54689106
   94

C       5.86769794     -7.43495627    -14.55457673
C      -3.62050575    -13.32446024    -10.05834397
H       6.54772129     -6.70776660    -13.88623381
C      -1.08039570     -0.84578368      8.32551220
H      -6.77695850      7.20219924     -2.39183236
H       3.02985852     -3.28997366      9.13990601
C       0.18670930     -1.15549864      9.36275521
H       5.53314198     -8.50404107    -14.12673410
H      -9.00632184     -6.97078093    -19.18210599
H      -8.99861110     -7.74017509    -19.05414825
C      10.21795049     -2.44260833     -4.11928592
H      17.20345656      4.48039220     15.07282868
C       8.64191984    -10.47631764      5.10250454
H       8.27417355     10.89153507     -2.77674397
H       8.94477430     -9.75892521      4.23338766
H       2.50422158    -10.90119783     17.33770193
C       7.25140634    -10.93567655      7.59039027
H       6.13601329    -10.52363662      7.26584752
C       7.52010672     11.12528593     -0.56596700
H       6.95963312    -11.79829763      8.41946338
H      16.75915024     13.71004756      6.45942652
H       6.95319772     11.73030377      0.26440281
C       8.29626029     10.29660983     -1.70310610
H      12.53631866     -2.42632758     -6.79464098
C      11.76843684     -3.12451549     -6.18012471
H      11.23450783     -3.84003374     -6.99881076
H       7.78352562      9.19441731     -1.87456194
H      -3.00484970     10.26787473     11.04746929
C      12.31503193     -4.98040258     -4.00557310
H      -2.18195480     -0.53217239      8.74120999
H      -6.91457882      7.16564536     -0.42454274
C       8.36013677     -3.79163499     -2.88039193
H      -0.16335821     -2.22546768      9.86804967
C       1.47814822    -10.71752406     17.93046074
H       8.08062141     -3.28653370     -1.78237145
H     -10.96215197    -12.27297305     15.66816531
H       1.07343846     -9.60108110     18.09686636
C      -5.32869525     -2.03469791     -6.42542107
H      -3.73146307      7.50255481     -1.26253138
C      -4.55014698      9.66524502     -1.02640797
H      -6.34699055     -1.61838079     -6.06595247
H      -4.44845071     10.80623003     -0.81437314
H      -0.32165847     18.20960197     -5.83225094
H      -1.05539273     18.33364119     -6.06602066
H      12.98921563     -4.89545855     -3.00307534
H      14.04682490     -5.78378753     -5.94102761
H      14.65622358     -6.07134755     -4.51082154
H       2.70951771      0.67312169      7.15681954
H       0.12860771     -0.36461884     10.30962099
H       0.85679191    -11.65029665     18.35681430
H       9.76229233     -1.33406075     -4.22993065
H      -9.42675859     -2.95204590     23.99740612
H       4.34725181     15.16486500     22.65560457
H      16.42996088     13.05756512      6.73200866
H       3.25030252     -2.11358264     10.75995741
H      27.34959624      7.72520107     -1.91709596
H      -4.86258737      9.39383512     11.36152107
H      28.03976779      7.87357011     -1.58535935
H      -1.31036074     -1.87147683      6.01806643
H       8.68497814    -12.46896790      6.09366568
H       5.52227566     -7.09300265    -15.65078477
H       4.26017811     -1.89361599      9.27499176
C      -1.21190013     -0.88924151      6.70676419
C     -10.36017617    -12.21606785     16.66243499
C       2.30349863     -0.10549662      7.92900913
C       1.81305501     -1.19133910      8.98188463
C      11.60203703     -3.05852810     -4.54967208
C       6.66397451     18.45795570     11.45813033
C       3.08031852     -2.12402494      9.53836132
C      -3.97386948      9.70598068     10.61944852
C       7.61211094     17.63175828     10.62864199
C      -6.21992120      7.46090582     -1.35927909
C      -4.03829975     -2.65094613     -6.97237816
C       9.93362407     -3.89879386     -3.52997610
C      13.47070814     -5.94174465     -4.85565818
C      -4.75920290      8.12132495     -1.23265509
C       8.19281844    -11.38841038      6.31125576
H       9.47185049     10.11954510     -1.39690658
H      -3.39245205    -14.09119559    -10.85930100
H      13.23400704     -7.11330093     -5.15937753
H      -9.29845950     -2.27982236     24.37164516
H      -9.75820022    -12.15916265     17.65670458
H      17.02762036      5.23384439     14.97387747
H      12.26206648     -2.38399964     -3.75150950
H       5.04346977     15.37147408     22.94019768
H       5.93737868     19.09111362     12.09381635
H      -3.10969204     -3.16235859     -7.43672197
H      -4.05417029      9.45623088      9.44936167
H      -7.60795562     21.24264600      9.77839775
H       7.30255623     -3.27708179     -3.27714467
H      -1.23477652      0.05806296      5.96264779
H       7.76919121    -10.06822818      8.29678560
H       7.73706491     -4.84426421     -2.82783054
H      -7.74116693     21.25126533     10.54689008
   94

C       5.86778406     -7.43490913    -14.55443595
C      -3.62046440    -13.32443906    -10.05831811
H       6.54780997     -6.70773009    -13.88608281
C      -1.07968869     -0.84506284      8.32514129
H      -6.77618845      7.20345701     -2.39216466
H       3.02900234     -3.29087620      9.13824587
C       0.18683355     -1.15451300      9.36319224
H       5.53321884     -8.50399511    -14.12660184
H      -9.00631685     -6.97077993    -19.18210085
H      -8.99860606     -7.74017407    -19.05414302
C      10.19778012     -2.40387617     -4.11231201
H      17.20345115      4.48038548     15.07281476
C       8.64187374    -10.47574400      5.10194802
H       8.27422453     10.89127567     -2.77679353
H       8.94528928     -9.75929795      4.23223363
H       2.50422663    -10.90119136     17.33767728
C       7.25133661    -10.93544312      7.59023498
H       6.13585023    -10.52314437      7.26635139
C       7.52015575     11.12508469     -0.56602531
H       6.96031700    -11.79893742      8.41867827
H      16.75914109     13.71002379      6.45940950
H       6.95327847     11.73015733      0.26432798
C       8.29630270     10.29636891     -1.70314441
H      12.51828991     -2.39593490     -6.80958501
C      11.73975566     -3.08017196     -6.19678605
H      11.21245908     -3.79215012     -7.02353668
H       7.78358448      9.19416960     -1.87461106
H      -3.00484507     10.26787153     11.04746941
C      12.18015414     -4.99147115     -3.93602216
H      -2.18084817     -0.52931629      8.74023416
H      -6.91559900      7.16298819     -0.42523183
C       8.54734011     -3.87731107     -2.93978681
H      -0.16381705     -2.22377866      9.86955182
C       1.47815499    -10.71751811     17.93043933
H       8.27813031     -3.38036183     -1.83433622
H     -10.96214669    -12.27297058     15.66815998
H       1.07344494     -9.60107528     18.09684529
C      -5.33097854     -2.03723827     -6.42814076
H      -3.73173456      7.50329521     -1.26430172
C      -4.55064042      9.66503749     -1.02207071
H      -6.34511501     -1.61569068     -6.06302531
H      -4.44657593     10.80738982     -0.81864959
H      -0.32164772     18.20959479     -5.83225251
H      -1.05538179     18.33363563     -6.06602200
H      12.81644676     -4.93046119     -2.90763117
H      13.93625710     -5.74734739     -5.87116218
H      14.54078689     -6.02800820     -4.44663212
H       2.70817567      0.67690466      7.15984935
H       0.12910147     -0.36331846     10.30981968
H       0.85679979    -11.65029030     18.35679545
H       9.73678993     -1.29530901     -4.23019669
H      -9.42675666     -2.95204610     23.99740303
H       4.34725207     15.16486371     22.65560275
H      16.42995165     13.05754032      6.73198910
H       3.25050688     -2.11734576     10.75866171
H      27.34957173      7.72518719     -1.91710030
H      -4.86258345      9.39383155     11.36152131
H      28.03974360      7.87355806     -1.58536516
H      -1.30899261     -1.87454094      6.01924344
H       8.68488262    -12.46813515      6.09308883
H       5.52236210     -7.09295734    -15.65064520
H       4.25940284     -1.89364185      9.27275955
C      -1.21115575     -0.89119827      6.70644177
C     -10.36017112    -12.21606548     16.66242980
C       2.30328468     -0.10358192      7.93074087
C       1.81310257     -1.19096276      8.98216669
C      11.55910234     -2.99889232     -4.56747253
C       6.66397644     18.45795018     11.45812590
C       3.07996596     -2.12509784      9.53712142
C      -3.97386501      9.70597714     10.61944940
C       7.61211101     17.63175185     10.62863619
C      -6.22015077      7.46051186     -1.35865726
C      -4.04041058     -2.65332042     -6.97495939
C      10.11331085     -3.92465509     -3.63222033
C      13.35334451     -5.92279800     -4.79240285
C      -4.75975795      8.12139668     -1.23055067
C       8.19268471    -11.38763019      6.31084252
H       9.47189009     10.11930937     -1.39692813
H      -3.39242098    -14.09117649    -10.85927613
H      13.12784425     -7.09549393     -5.09982109
H      -9.29845771     -2.27982263     24.37164223
H      -9.75819545    -12.15916041     17.65669956
H      17.02761521      5.23383780     14.97386401
H      12.27221451     -2.34998358     -3.79089528
H       5.04347000     15.37147284     22.94019591
H       5.93738029     19.09110837     12.09381130
H      -3.10678081     -3.16020613     -7.43419054
H      -4.05416531      9.45622655      9.44936272
H      -7.60795446     21.24264448      9.77839675
H       7.48331034     -3.36883701     -3.33054378
H      -1.23464077      0.05478071      5.96065158
H       7.76850337    -10.06781203      8.29685383
H       7.89414825     -4.91191343     -2.87135872
H      -7.74116585     21.25126393     10.54688906
   94

C       5.86821323     -7.43465020    -14.55356690
C      -3.62031425    -13.32437303    -10.05823260
H       6.54820113     -6.70751528    -13.88512293
C      -1.07877379     -0.84417422      8.32476388
H      -6.77494903      7.20492668     -2.39241444
H       3.02813580     -3.29240376      9.13721703
C       0.18700196     -1.15334958      9.36382602
H       5.53360401     -8.50374759    -14.12578948
H      -9.00629938     -6.97077983    -19.18209263
H      -8.99858819     -7.74017383    -19.05413396
C      10.14890146     -2.39389442     -4.09568261
H      17.20343948      4.48035722     15.07276143
C       8.64212853    -10.47372135      5.09930130
H       8.27447595     10.89040017     -2.77703555
H       8.94600834     -9.75865998      4.22855525
H       2.50425844    -10.90118632     17.33758517
C       7.25169396    -10.93446405      7.58873602
H       6.13600478    -10.52161501      7.26625763
C       7.52041548     11.12441164     -0.56630135
H       6.96217298    -11.79971891      8.41590137
H      16.75911297     13.70993625      6.45933943
H       6.95360071     11.72967848      0.26395939
C       8.29652188     10.29554537     -1.70335385
H      12.47188030     -2.35217280     -6.82900237
C      11.67581991     -3.01167669     -6.21956785
H      11.16457926     -3.72309879     -7.05815301
H       7.78384108      9.19332922     -1.87484320
H      -3.00484610     10.26787996     11.04749857
C      11.87462478     -5.03429882     -3.82781967
H      -2.17936360     -0.52564831      8.73917672
H      -6.91753788      7.15955958     -0.42613748
C       8.92434176     -4.01971753     -3.06327343
H      -0.16449934     -2.22152517      9.87186995
C       1.47819573    -10.71751696     17.93036419
H       8.66139480     -3.52252964     -1.95151639
H     -10.96213609    -12.27297242     15.66815272
H       1.07348491     -9.60107587     18.09678088
C      -5.33370374     -2.03989297     -6.43111226
H      -3.73231387      7.50449605     -1.26652661
C      -4.55101640      9.66517144     -1.01753025
H      -6.34333801     -1.61275979     -6.05994029
H      -4.44405451     10.80890976     -0.82331897
H      -0.32161634     18.20955584     -5.83225133
H      -1.05534996     18.33360255     -6.06601911
H      12.44429673     -4.99111520     -2.76023052
H      13.73211222     -5.66005564     -5.73776205
H      14.31594595     -5.92229442     -4.32021697
H       2.70589514      0.68164890      7.16373084
H       0.12983767     -0.36182804     10.31022741
H       0.85684386    -11.65028868     18.35672652
H       9.68385293     -1.27623090     -4.20437693
H      -9.42675544     -2.95204824     23.99740376
H       4.34725348     15.16486320     22.65560149
H      16.42992407     13.05744912      6.73191092
H       3.25089928     -2.12290215     10.75727232
H      27.34947999      7.72515486     -1.91711422
H      -4.86258770      9.39384225     11.36155288
H      28.03965355      7.87353058     -1.58538466
H      -1.30715360     -1.87810469      6.02069714
H       8.68517547    -12.46554859      6.09056792
H       5.52283456     -7.09268773    -15.64978828
H       4.25813088     -1.89283173      9.26960028
C      -1.21034157     -0.89346304      6.70615089
C     -10.36016020    -12.21606716     16.66242232
C       2.30262060     -0.10092628      7.93334945
C       1.81314370     -1.19073201      8.98259313
C      11.47421399     -2.91243496     -4.58802600
C       6.66398410     18.45793991     11.45811307
C       3.07954927     -2.12655900      9.53581755
C      -3.97386918      9.70598879     10.61948146
C       7.61211510     17.63173985     10.62862054
C      -6.22052978      7.45985594     -1.35750500
C      -4.04288293     -2.65584605     -6.97787384
C      10.52239637     -3.93162351     -3.76493804
C      13.12798209     -5.87607963     -4.67775817
C      -4.76066692      8.12179727     -1.22826574
C       8.19286055    -11.38515400      6.30861428
H       9.47210364     10.11847069     -1.39711409
H      -3.39229076    -14.09111223    -10.85919470
H      12.94256636     -7.05342251     -4.99512953
H      -9.29845674     -2.27982476     24.37164303
H      -9.75818431    -12.15916191     17.65669192
H      17.02760508      5.23381033     14.97381401
H      12.28761015     -2.30375791     -3.86970487
H       5.04347153     15.37147220     22.94019443
H       5.93738845     19.09109871     12.09379859
H      -3.10397080     -3.15795078     -7.43164445
H      -4.05417369      9.45624436      9.44939385
H      -7.60795419     21.24264930      9.77839801
H       7.85523204     -3.51466167     -3.45821791
H      -1.23529826      0.05091809      5.95837388
H       7.76763886    -10.06652083      8.29586164
H       8.19473152     -5.00321565     -2.95705581
H      -7.74116572     21.25126849     10.54689030
