   94
energy=      0.00000000
C       7.15099550     -6.80867511     -7.68443985
C       5.70187569     -7.62888029     -7.25072780
H       7.41444159     -5.97962120     -6.79395641
C       3.67191695     -0.89719290      4.92932365
H     -18.89185999     -7.18329685     -1.80818867
H       4.69514483     -7.02739837     -6.84776734
C       4.59217439     -1.44943010      6.31740075
H       5.74044509     -8.45268236     -6.32414275
H      -7.81523282     -6.27941550    -16.91792814
H      -7.80752163     -7.04880949    -16.78996947
C       9.05113567      1.65317699      6.96437754
H       9.77397372      1.01521206      7.73663048
C       5.67809289     -2.71991452      5.90249764
H       6.59256683      5.39591947     -4.73519370
H       5.93659914     -2.21461225      4.81932406
H      -0.14327518     -7.37313991     12.68688144
C       5.85026068     -4.11135328      6.76323140
H       4.92295080     -4.73032019      7.27911618
C       5.56106703      7.61600599     -4.97175722
H       6.32325814     -4.84829217      7.63381113
H       6.45595518      8.41384492     -5.16250745
H       4.47216212      8.08086362     -5.23377264
C       5.75796949      6.16199097     -4.21621998
H      10.49632071      4.38785729    -14.14197872
C       9.84365710      4.03684891    -13.28809332
H       9.47375729      2.09037261      4.40435473
H       5.24906483      5.31065983     -4.96390993
H      -3.00408555     13.84794160     10.96389429
C       8.54666323     -7.64651288     -8.25541806
H       2.82719350     -0.07294994      5.22772829
H     -19.27118577     -7.16726916     -1.12682601
C      -1.26400034     -8.37246218      0.62488750
H       3.50780464     -1.92591455      6.67153416
C      -1.16836749     -7.12814256     13.27901554
H      -2.07500282     -8.84335917      1.31388403
H      -3.40368365     -8.07766823     13.53437059
H      -1.16508772     -5.92173176     13.19496167
C      -3.94926243      0.01933685     -7.52171249
H       6.10009011      7.78194008     -2.34247746
C       4.15967631      6.92176517     -1.68412719
H      -4.45343486      0.92591181     -8.04908070
H       4.10531723      7.61485242     -0.65324002
H       3.55723437      5.92194035     -1.28850894
H       3.13924628      7.50562930     -2.07684464
H       8.81987472     -7.47626982     -9.45441920
H       8.44279426     -8.84527450     -8.55277164
H      10.43130328     -8.26147524     -6.52149164
H       5.43685849      1.77331220      8.27106389
H       4.20545150     -0.53907133      8.39988878
H      -2.03574099     -9.35619933     13.92869823
H       6.90108476      1.42962906      5.89919933
H      -8.74526115     -4.13751912     22.51988064
H       4.78406590     13.78957283     17.27527384
H       3.36453856     13.38800347     20.35887501
H       5.83788897     -1.97211590     10.12257797
H      17.43837817      4.39965506      0.15020648
H      -4.76113507     12.91559780     10.66978309
H      18.12855175      4.54803080      0.48193601
H       3.71741524     -1.44045817      2.21745392
H       7.21481980     -4.49757072      4.75572854
H       6.90724326     -5.82993066     -8.41672403
H       7.23388259     -1.88280725      9.25933725
C       3.25835115     -0.98771423      3.26016284
C      -2.26250979     -8.14629542     13.99853119
C       6.14860612      0.80045207      7.98796190
C       5.27272722     -0.69227636      7.78853651
C       7.41593436      1.25609762      6.98038660
C       5.07558290     14.28578061     18.35967589
C       6.09201165     -1.53377038      9.01676359
C      -4.20622018     14.01157358     10.75361368
C       4.08859977     13.76537313     19.51608868
C       6.83460478      5.87891032     -1.69865833
C      11.14537852      1.10670518      4.99538594
C       9.78603335      1.66130837      5.48331816
C       9.96542561     -7.54424521     -7.37883554
C       5.63095463      6.64957574     -2.55220701
C       6.93962954     -3.71548719      5.67445021
H       7.89188868      6.24858273     -1.23119932
H       5.08653194     -8.27801868     -8.10995690
H       2.08584684     -1.33587693      3.03478475
H      -8.61696245     -3.46529564     22.89411991
H      -2.38564357     -7.98142993     15.21515079
H       9.30273505      2.73129066      7.51688431
H       6.57897643      1.18398273      9.08935064
H       6.24267660     13.99125273     18.60107528
H       5.01438888     15.50676025     18.24745781
H      -3.44510011     -0.88724448     -6.99434558
H       6.84920517      4.72090323     -1.36505620
H      -4.35808925     14.63018583      9.69987001
H      -0.45299817     -7.90156529     -0.06410945
H       3.57318522     -0.20938612      2.36271446
H       8.13562725     -3.40941360      5.79476305
H      10.85142812     -6.71767884     -7.39099733
H      -4.70157084     14.65256910     11.68090732
   94
energy=      0.00000000
C       7.15074688     -6.80740763     -7.68604550
C       5.70413576     -7.63037254     -7.24931688
H       7.41429655     -5.97582475     -6.79792798
C       3.77629947     -1.16057444      5.23729790
H     -18.89185999     -7.18329685     -1.80818867
H       4.69775458     -7.03111253     -6.84226859
C       4.57312487     -1.88159714      6.63047271
H       5.74625968     -8.45538283     -6.32398617
H      -7.81523282     -6.27941550    -16.91792814
H      -7.80752163     -7.04880949    -16.78996947
C       8.98556786      1.63168352      6.91962973
H       9.66726085      0.96434188      7.70201254
C       6.59507948     -2.58899151      4.64733751
H       6.59670450      5.55145417     -4.65698216
H       6.59322077     -1.75878581      3.84544650
H      -0.14327820     -7.37314025     12.68687636
C       5.42278357     -3.44100112      6.66706585
H       4.70912764     -4.41416826      6.94907524
C       5.55244672      7.65935635     -5.09695421
H       5.75720544     -4.26388639      7.53403026
H       6.39466040      8.46179709     -5.43889721
H       4.53899733      8.17912670     -5.50948904
C       5.72259843      6.28532822     -4.17015437
H      10.49716487      4.38741165    -14.14392127
C       9.84450126      4.03640327    -13.29003587
H       9.55297950      2.13479877      4.39442551
H       5.08490087      5.35524735     -4.68698805
H      -3.00408555     13.84794160     10.96389429
C       8.54663481     -7.64430700     -8.25773767
H       3.12133709     -0.16762853      5.50196652
H     -19.27118577     -7.16726916     -1.12682601
C      -1.26400047     -8.37246229      0.62488738
H       3.42765031     -2.27710654      6.87685034
C      -1.16836750     -7.12814258     13.27901554
H      -2.07500282     -8.84335917      1.31388414
H      -3.40368280     -8.07766997     13.53436823
H      -1.16508483     -5.92173145     13.19496654
C      -3.94926495      0.01933527     -7.52171282
H       6.17977136      7.79015133     -2.31674625
C       4.16362438      6.86142268     -1.67058377
H      -4.45343360      0.92591261     -8.04908054
H       4.09831454      7.53296573     -0.62986131
H       3.54258560      5.85007464     -1.32126686
H       3.16913511      7.43685034     -2.13287026
H       8.82112300     -7.47022092     -9.45586163
H       8.44409019     -8.84189324     -8.56038962
H      10.41569583     -8.25567094     -6.50645558
H       5.36443455      1.73705471      8.06467294
H       4.19300109     -0.51809677      8.42994918
H      -2.03573915     -9.35619917     13.92870132
H       6.85697524      1.45835932      5.82669823
H      -8.74526115     -4.13751912     22.51988065
H       4.78394046     13.79083220     17.27460112
H       3.36584738     13.38697869     20.35953537
H       5.76582050     -1.98451514     10.22469351
H      17.43837818      4.39965507      0.15020648
H      -4.76113507     12.91559780     10.66978309
H      18.12855176      4.54803080      0.48193601
H       3.74880689     -1.69736994      2.56990494
H       7.14621112     -4.67813746      5.00806565
H       6.90415971     -5.82961739     -8.41860698
H       7.25296974     -1.88523375      9.33486207
C       3.34579088     -1.09677935      3.56866222
C      -2.26250980     -8.14629542     13.99853122
C       6.08412088      0.73720658      7.91601908
C       5.26288654     -0.81218081      7.87813485
C       7.34812008      1.23100761      6.91155166
C       5.07526245     14.28603612     18.35951382
C       6.09625724     -1.56951920      9.13227609
C      -4.20622018     14.01157358     10.75361368
C       4.08829213     13.76564129     19.51594280
C       6.83506487      5.81661455     -1.63392378
C      11.15389049      1.06582156      5.04493173
C       9.79020048      1.66006855      5.47377487
C       9.96297540     -7.54581612     -7.37691710
C       5.67071237      6.66782252     -2.48599494
C       6.82220477     -3.71546390      5.71968305
H       7.91092326      6.15110688     -1.18505022
H       5.08762266     -8.27908520     -8.10803735
H       2.18224790     -1.40400279      3.27851919
H      -8.61696245     -3.46529563     22.89411992
H      -2.38564619     -7.98142837     15.21515033
H       9.24429866      2.70335102      7.48356094
H       6.45695213      1.20472543      9.00496910
H       6.24154859     13.99036592     18.60341163
H       5.01496159     15.50688879     18.24544177
H      -3.44509885     -0.88724369     -6.99434542
H       6.89160244      4.66064669     -1.27975320
H      -4.35808925     14.63018583      9.69987001
H      -0.45299823     -7.90156556     -0.06410960
H       3.56729145     -0.11797042      2.83372098
H       8.03071718     -3.61548765      5.99350247
H      10.85867209     -6.72995209     -7.39809748
H      -4.70157084     14.65256910     11.68090732
