   94

C      -4.48233189     -0.50494486     -0.92317408
C      -2.77717632     -0.57435010     -0.99639935
H      -4.84486379      0.39508700     -1.70821291
C      -5.45730940     -0.27714292      0.44557599
H      -4.91583710     -1.56052270     -1.42005206
H      -2.38060528      0.50423784     -0.51506658
C      -2.00418791     -0.84709192     -2.51053275
H      -2.36187779     -1.38434172     -0.13364409
H      -2.42586364     -0.12289922     -3.43904185
H      -2.41138854     -1.83266838     -3.15976450
C      -0.30435045     -0.83723525     -2.51329995
H      -0.34904315      0.39706019     -2.67658249
C       1.36091923     -0.68763245     -2.77392325
H      -0.18620660     -2.01272121     -2.07997558
H       1.63377086     -0.16714737     -3.88730993
H       1.73702309     -1.58029817     -3.57797142
C       2.05872387     -0.21222972     -1.22988431
H       3.02070802      0.50714695     -1.58630749
C       1.26453819      0.25002669      0.33621221
H       3.02280055     -1.00819403     -1.18335906
H       1.43131076      1.44259303      0.04487814
H       1.92702646     -0.65135223      0.85239533
C       0.09909488      0.49036452      1.74536628
H       0.53641180      1.61957304      1.98071269
C       7.90329037     -1.20878399     -6.72420884
H       0.47503761     -0.54595915      2.28905815
H       7.20787497     -0.35104218     -7.21682770
H       7.20502416     -2.17474513     -6.92752007
C       9.38796368     -1.09513618     -5.99325436
H      -5.19616440      0.86270135      0.85240691
H      -5.22464953     -1.19302061      1.26099637
C      -7.11207581     -0.18267856      0.42757889
H      -7.80838574      0.78667563      0.22425806
C      -1.40928919      0.67427130      2.80663274
H      -7.90454802     -1.08146816      0.57660168
H      -1.31569406      1.89493014      2.90861718
H      -1.18512561     -0.33342890      3.47094111
C      -3.07679514      0.75463445      3.56761398
H      -3.26085259      1.95790195      3.37259145
C      -4.71991329      0.81339198      4.28263030
H      -3.09933452     -0.40753979      3.97398079
H      -5.24336739      1.79281993      4.84520249
H      -5.23137965     -0.03521433      5.04043253
H      -5.90330535      0.77414896      3.90073524
H       9.62173640     -0.04191972     -5.39576765
H      10.33185065     -1.21950501     -6.77869298
H       9.62031989     -1.91454430     -5.10135847
H       7.38709900      0.26085886      8.65800345
H       4.77913681      0.43399431     10.25088754
H       7.15704306     -0.19846612      5.72617026
H       9.85760315      0.02303702      6.97809448
H       4.68214814      0.04931610      7.35292480
H       9.56182158     -0.44932445      4.04014489
H       2.17109682      1.49741901     11.90849100
H      12.27358247     -0.25238124      5.22365102
H      11.99413604     -0.71332386      2.28485012
H       2.05675755      0.48331468      9.23679618
H      14.70524949     -0.54393861      3.45152528
H      14.56669585     -0.97500132      0.48170688
H      -0.77068257      1.07939211     14.23719168
H      17.36537611     -0.87100189      1.64040223
H      -1.62172212      0.42997043     11.03524792
C       6.89823459      1.04077710      7.80906204
C       7.64404857      0.81306669      6.27954377
C       5.18019019      1.05531554      7.90676139
C       4.40821409      1.29446946      9.41906905
C       9.35608294      0.79829165      6.13295519
C      10.06704529      0.55789103      4.58447079
C      11.77629816      0.52955379      4.38322439
C       2.70658455      1.51016583      9.53413896
C       2.23200138      2.30574325     10.96910913
C      12.50563011      0.28514538      2.83684922
C      14.21909166      0.25025994      2.61873542
C      15.01650139      0.01102920      1.10347581
C      16.73253894     -0.00547938      1.01521745
C      -1.51018236      1.01617909     12.04906604
C      -1.36554915      1.80698038     13.44543256
H      17.30940465     -0.17574021     -0.06525779
H      -2.49551840      2.17055838     13.73212115
H       7.39584347      2.03644152      8.38254303
H       5.00851487      2.21991884     10.00144281
H       7.15559953      1.61050855      5.44726310
H       9.85116219      1.79944341      6.69847871
H       4.71012076      1.84810518      7.06096948
H       9.55873079      1.34870649      3.75835777
H       2.74270850      3.15463436     11.70807924
H      12.27007076      1.53537607      4.93971738
H      11.99381464      1.06504330      2.00431167
H       2.10516055      1.99676531      8.55439824
H      14.70598711      1.26189463      3.16662789
H      14.56893870      0.76034578      0.20938328
H      -0.79246971      2.88387589     13.57545134
H      17.36831542      1.00791388      1.34578994
H       1.35430170      3.15488802     10.78335747
   94

C      -4.49195853     -0.49705899     -0.88202708
C      -2.78745463     -0.57043702     -0.98036728
H      -4.86330162      0.40151505     -1.66434771
C      -5.46480504     -0.26554951      0.49122670
H      -4.93771524     -1.55303356     -1.36698758
H      -2.38500172      0.50910037     -0.50768554
C      -1.97016791     -0.84817291     -2.45877474
H      -2.36801916     -1.38241424     -0.12254687
H      -2.66402366     -0.38872932     -4.33675897
H      -2.63682391     -2.00295609     -4.03870835
C      -0.27220804     -0.82717153     -2.47097614
H      -0.34318799      0.40118146     -2.65867072
C       1.39596861     -0.67288533     -2.71391106
H      -0.17182110     -2.00746670     -2.05228294
H       1.69295920     -0.14855973     -3.81862792
H       1.79794387     -1.56485734     -3.50530995
C       2.08149723     -0.19486224     -1.16819455
H       3.04146785      0.53199992     -1.51427829
C       1.27316254      0.26417273      0.38731417
H       3.04502585     -0.99058023     -1.10920541
H       1.43034791      1.45767811      0.09360310
H       1.93565560     -0.63405007      0.91009903
C       0.10401318      0.50067470      1.78869406
H       0.54405326      1.62827383      2.03033767
C       7.91371260     -1.20864020     -6.72614812
H       0.47368228     -0.54033561      2.32883000
H       7.21872089     -0.35093571     -7.21939998
H       7.21591264     -2.17477310     -6.93016867
C       9.39798006     -1.09494694     -5.99447521
H      -5.19898540      0.87336447      0.89622049
H      -5.22819951     -1.17961113      1.30684102
C      -7.12092177     -0.16984991      0.48378859
H      -7.81969223      0.79750080      0.27864630
C      -1.40194947      0.68492080      2.84614675
H      -7.91578351     -1.06693495      0.63205859
H      -1.30724756      1.90610567      2.94675404
H      -1.17432354     -0.31944114      3.51532300
C      -3.06512319      0.76595678      3.60897842
H      -3.24909123      1.96840420      3.40777686
C      -4.70185687      0.82764807      4.33382981
H      -3.08730449     -0.39843303      4.00955630
H      -5.21708308      1.80884435      4.90058513
H      -5.20770415     -0.02164958      5.09435370
H      -5.88512662      0.79019230      3.95180890
H       9.63151545     -0.04166975     -5.39702501
H      10.34202957     -1.21929999     -6.77970807
H       9.63007482     -1.91444212     -5.10260559
H       7.38641170      0.26030633      8.65836039
H       4.77611637      0.43244630     10.25227200
H       7.15842894     -0.19853860      5.72724609
H       9.85916506      0.02301919      6.97761975
H       4.68090270      0.04927800      7.35490101
H       9.56493491     -0.44932289      4.04001757
H       2.16808312      1.50370066     11.91300491
H      12.27674858     -0.25264003      5.22185273
H      11.99846382     -0.71349994      2.28333086
H       2.05413084      0.48506511      9.24289781
H      14.70969658     -0.54432879      3.44891671
H      14.57180318     -0.97540628      0.47939599
H      -0.77753604      1.07831828     14.24141806
H      17.37068249     -0.87146362      1.63709152
H      -1.62795316      0.42915753     11.03935111
C       6.89753390      1.04033624      7.80959400
C       7.64530309      0.81297033      6.28065610
C       5.17927476      1.05498517      7.90889313
C       4.40632077      1.29395569      9.42107314
C       9.35751733      0.79812577      6.13248793
C      10.07005600      0.55786390      4.58438482
C      11.77939121      0.52929939      4.38152988
C       2.70492465      1.51186387      9.53818432
C       2.23067688      2.31000949     10.97206953
C      12.50986200      0.28493449      2.83541701
C      14.22339947      0.24987625      2.61625072
C      15.02146995      0.01066991      1.10117134
C      16.73756230     -0.00595985      1.01217187
C      -1.51675677      1.01543061     12.05311996
C      -1.37265294      1.80576370     13.44972986
H      17.31436090     -0.17623363     -0.06838112
H      -2.50247341      2.16821776     13.73860021
H       7.39504549      2.03600057      8.38305627
H       5.00766923      2.21823620     10.00403191
H       7.15686759      1.61050107      5.44853147
H       9.85255690      1.79922498      6.69804420
H       4.70892021      1.84756859      7.06313940
H       9.56181386      1.34870199      3.75831688
H       2.74305593      3.15934475     11.70938194
H      12.27320441      1.53511304      4.93791883
H      11.99814591      1.06478342      2.00281526
H       2.10307765      1.99726092      8.55815754
H      14.71043873      1.26147476      3.16402679
H      14.57405199      0.76002985      0.20705776
H      -0.79975651      2.88299198     13.57750519
H      17.37362660      1.00732971      1.34249997
H       1.35285113      3.15919228     10.78682692
   94

C      -4.49176281     -0.48956006     -0.85411262
C      -2.78821905     -0.56003376     -0.93478636
H      -4.85554991      0.40203410     -1.64705297
C      -5.46601766     -0.25705952      0.51898184
H      -4.92827941     -1.54459769     -1.34815041
H      -2.38488970      0.52217276     -0.47336395
C      -1.95185041     -0.83311069     -2.39238129
H      -2.36840816     -1.37896131     -0.08672013
H      -2.83938981     -0.65437751     -5.14639884
H      -2.80611340     -2.17071513     -4.85493810
C      -0.26429283     -0.81513098     -2.44072477
H      -0.35645277      0.40820351     -2.64332224
C       1.40675167     -0.65798116     -2.66002805
H      -0.18118169     -1.99848214     -2.03277774
H       1.71633061     -0.13076990     -3.75918311
H       1.82254594     -1.55026122     -3.44304726
C       2.08914611     -0.18086738     -1.11461392
H       3.04718423      0.55089248     -1.45558459
C       1.27950597      0.27741329      0.43748046
H       3.05033882     -0.97882854     -1.04899867
H       1.42915412      1.47133491      0.14130648
H       1.94252979     -0.61916723      0.96298848
C       0.11361677      0.51243090      1.83834938
H       0.55583158      1.63890617      2.08288063
C       7.92192739     -1.20830795     -6.72672475
H       0.47741860     -0.53333558      2.37368759
H       7.22711028     -0.35059436     -7.22017305
H       7.22432669     -2.17451574     -6.93098776
C       9.40609626     -1.09465898     -5.99493487
H      -5.19988391      0.88012284      0.92864178
H      -5.22976277     -1.16774008      1.33833832
C      -7.12232935     -0.16160319      0.51684046
H      -7.82352574      0.80515886      0.31740235
C      -1.38998535      0.69786011      2.89422482
H      -7.91893319     -1.05625422      0.67095615
H      -1.29562016      1.91951015      2.99215759
H      -1.16062423     -0.30432555      3.56654070
C      -3.05295425      0.77759184      3.65179513
H      -3.23736361      1.97896089      3.44389951
C      -4.68624868      0.84039771      4.38003056
H      -3.07538780     -0.38907868      4.04609763
H      -5.19550044      1.82267437      4.95002392
H      -5.18801437     -0.00983779      5.14194622
H      -5.86804466      0.80383163      3.99407257
H       9.63948831     -0.04133763     -5.39752377
H      10.35021468     -1.21900917     -6.78007324
H       9.63802199     -1.91422966     -5.10310180
H       7.38577031      0.25970688      8.65846311
H       4.77331041      0.43091694     10.25375697
H       7.15952060     -0.19866470      5.72794994
H       9.86048032      0.02292640      6.97669589
H       4.67969724      0.04922865      7.35697196
H       9.56759446     -0.44939054      4.03937756
H       2.16519285      1.51001517     11.91778533
H      12.27951516     -0.25295769      5.21968417
H      12.00240475     -0.71373067      2.28144881
H       2.05167647      0.48684384      9.24939199
H      14.71377304     -0.54474762      3.44611404
H      14.57663305     -0.97583956      0.47690892
H      -0.78443096      1.07726237     14.24572090
H      17.37570393     -0.87193172      1.63371582
H      -1.63430628      0.42837367     11.04354100
C       6.89685215      1.03985317      7.80989193
C       7.64629858      0.81280559      6.28139857
C       5.17840905      1.05465275      7.91108584
C       4.40460395      1.29345852      9.42320082
C       9.35867984      0.79788581      6.13158158
C      10.07264413      0.55775172      4.58379431
C      11.78207603      0.52898290      4.37946210
C       2.70347123      1.51357353      9.54257401
C       2.22948455      2.31430762     10.97531017
C      12.51371243      0.28466405      2.83362910
C      14.22734526      0.24945778      2.61355873
C      15.02615164      0.01028211      1.09869878
C      16.74230507     -0.00645434      1.00904409
C      -1.52338271      1.01470754     12.05725296
C      -1.37979613      1.80456762     13.45410488
H      17.31906804     -0.17673838     -0.07157064
H      -2.50946588      2.16590666     13.74513255
H       7.39429106      2.03551731      8.38331419
H       5.00701888      2.21657590     10.00670200
H       7.15784382      1.61040947      5.44943047
H       9.85370355      1.79893217      6.69715914
H       4.70776161      1.84705434      7.06540338
H       9.56444107      1.34859069      3.75776608
H       2.74356536      3.16407871     11.71093113
H      12.27593712      1.53478716      4.93574966
H      12.00208855      1.06445507      2.00095711
H       2.10116051      1.99781839      8.56232256
H      14.71451877      1.26101904      3.16123239
H      14.57888694      0.75968214      0.20455649
H      -0.80707968      2.88212203     13.57963669
H      17.37865214      1.00672999      1.33914643
H       1.35152458      3.16352779     10.79059822
   94

C      -4.49541390     -0.48252276     -0.82879401
C      -2.79317984     -0.54845386     -0.88139807
H      -4.84982103      0.40152708     -1.63381766
C      -5.46884241     -0.24926153      0.54503091
H      -4.92032120     -1.53483302     -1.33780783
H      -2.38797011      0.53710027     -0.43482817
C      -1.93431406     -0.81791106     -2.31113737
H      -2.37201102     -1.37553909     -0.04530926
H      -2.95541776     -0.90719541     -5.91600896
H      -2.92180730     -2.32886743     -5.64337959
C      -0.26123225     -0.80347640     -2.40885586
H      -0.37608382      0.41414923     -2.62817094
C       1.41029499     -0.64430871     -2.61220683
H      -0.19618510     -1.99118544     -2.01573690
H       1.72267751     -0.11492058     -3.70879204
H       1.83049282     -1.53751649     -3.39090909
C       2.09128168     -0.16867609     -1.06700782
H       3.04685918      0.56719902     -1.40568449
C       1.28446896      0.28957806      0.48441835
H       3.04957378     -0.96962123     -0.99746475
H       1.42725787      1.48373069      0.18587476
H       1.94860138     -0.60550682      1.01140125
C       0.12359097      0.52382884      1.88678338
H       0.56815803      1.64920233      2.13332347
C       7.92923517     -1.20790234     -6.72680245
H       0.48206544     -0.52642850      2.41718402
H       7.23448345     -0.35015651     -7.22025080
H       7.23172762     -2.17415107     -6.93109969
C       9.41341748     -1.09433384     -5.99511680
H      -5.20268681      0.88598634      0.96033719
H      -5.23325396     -1.15655409      1.36823908
C      -7.12502607     -0.15399840      0.54760150
H      -7.82837927      0.81229002      0.35396504
C      -1.37719322      0.71086529      2.94241812
H      -7.92303368     -1.04647446      0.70709895
H      -1.28314477      1.93292505      3.03750676
H      -1.14610880     -0.28927657      3.61753804
C      -3.04031388      0.78923388      3.69457424
H      -3.22520146      1.98945593      3.48000130
C      -4.67057183      0.85296322      4.42557897
H      -3.06298753     -0.37963001      4.08266081
H      -5.17393881      1.83626083      4.99877912
H      -5.16827511      0.00180179      5.18887955
H      -5.85085385      0.81720299      4.03557236
H       9.64670085     -0.04097399     -5.39774719
H      10.35756204     -1.21868621     -6.78021081
H       9.64521152     -1.91397717     -5.10332649
H       7.38495613      0.25906471      8.65823174
H       4.77045448      0.42936323     10.25500161
H       7.16030867     -0.19883341      5.72825585
H       9.86152159      0.02279223      6.97546008
H       4.67829594      0.04914925      7.35874054
H       9.56995364     -0.44949804      4.03840408
H       2.16232084      1.51629956     11.92243747
H      12.28200092     -0.25330131      5.21731661
H      12.00612775     -0.71398764      2.27937639
H       2.04916866      0.48861806      9.25574217
H      14.71763032     -0.54517638      3.44322448
H      14.58131703     -0.97628411      0.47434445
H      -0.79129159      1.07620692     14.24998749
H      17.38057063     -0.87240013      1.63031966
H      -1.64065269      0.42759217     11.04769609
C       6.89598495      1.03932364      7.80985550
C       7.64700731      0.81258679      6.28175672
C       5.17736201      1.05428347      7.91298004
C       4.40282162      1.29293228      9.42509128
C       9.35956200      0.79759976      6.13035819
C      10.07493936      0.55759251      4.58288207
C      11.78448320      0.52863543      4.37718614
C       2.70196649      1.51527442      9.54681148
C       2.22829989      2.31857307     10.97842852
C      12.51734012      0.28436622      2.83165957
C      14.23108080      0.24902457      2.61076916
C      15.03067815      0.00988350      1.09615567
C      16.74689626     -0.00695329      1.00588607
C      -1.52999164      1.01398213     12.06135310
C      -1.38690863      1.80337084     13.45844529
H      17.32364293     -0.17724617     -0.07478097
H      -2.51641821      2.16360231     13.75163786
H       7.39336442      2.03498464      8.38323723
H       5.00631626      2.21488087     10.00912757
H       7.15851485      1.61024288      5.44993089
H       9.85457635      1.79859133      6.69596133
H       4.70640618      1.84648994      7.06736185
H       9.56676568      1.34841743      3.75688159
H       2.74410112      3.16876237     11.71235836
H      12.27838894      1.53442904      4.93338127
H      12.00581204      1.06409348      1.99890818
H       2.09917474      1.99836917      8.56634790
H      14.71837945      1.26054770      3.15835147
H      14.58357547      0.75932128      0.20197770
H      -0.81436707      2.88124508     13.58172382
H      17.38352267      1.00612507      1.33577302
H       1.35020859      3.16784138     10.79428058
   94

C      -4.50179922     -0.47553656     -0.80188147
C      -2.80106456     -0.53739288     -0.82964895
H      -4.84834489      0.40179296     -1.61727507
C      -5.47316364     -0.24107292      0.57365872
H      -4.91730644     -1.52499029     -1.32400150
H      -2.39305865      0.55123133     -0.39821795
C      -1.91909477     -0.80387658     -2.23070358
H      -2.37774062     -1.37231677     -0.00562724
H      -3.03380524     -1.15114889     -6.66258453
H      -3.00522215     -2.47982838     -6.41424580
C      -0.26113811     -0.79252975     -2.37720214
H      -0.39924797      0.41840404     -2.61480043
C       1.41045256     -0.63178543     -2.56859438
H      -0.21408237     -1.98479128     -2.00085549
H       1.72176652     -0.10069838     -3.66403395
H       1.83119854     -1.52622501     -3.34482860
C       2.09057704     -0.15764092     -1.02341131
H       3.04348620      0.58211416     -1.36077938
C       1.28841601      0.30085388      0.52856212
H       3.04586445     -0.96170722     -0.95080415
H       1.42474464      1.49517745      0.22787743
H       1.95415465     -0.59250258      1.05669622
C       0.13326986      0.53467969      1.93313003
H       0.58050248      1.65884904      2.18154344
C       7.93584214     -1.20749683     -6.72668616
H       0.48677826     -0.51983258      2.45867861
H       7.24104514     -0.34970267     -7.21995562
H       7.23830891     -2.17374707     -6.93080984
C       9.42012009     -1.09402076     -5.99525475
H      -5.20655170      0.89232015      0.99390367
H      -5.23784737     -1.14519315      1.40027087
C      -7.12923057     -0.14593962      0.58073254
H      -7.83459363      0.81966987      0.39154068
C      -1.36425048      0.72352755      2.98928346
H      -7.92856110     -1.03652987      0.74416097
H      -1.27021293      1.94595593      3.08167059
H      -1.13116998     -0.27450336      3.66718642
C      -3.02704311      0.80089532      3.73730674
H      -3.21234532      1.99994849      3.51617142
C      -4.65415234      0.86570812      4.47161358
H      -3.04987578     -0.37007767      4.11927390
H      -5.15135848      1.85008742      5.04810081
H      -5.14759229      0.01365160      5.23645888
H      -5.83312440      0.83085485      4.07808829
H       9.65335160     -0.04062674     -5.39793741
H      10.36424907     -1.21838070     -6.78035534
H       9.65184614     -1.91373030     -5.10351534
H       7.38403165      0.25840019      8.65781185
H       4.76755758      0.42779449     10.25608650
H       7.16092005     -0.19902301      5.72833612
H       9.86241161      0.02263888      6.97406725
H       4.67676456      0.04905266      7.36029501
H       9.57215092     -0.44962388      4.03726513
H       2.15946612      1.52256427     11.92698932
H      12.28434233     -0.25365670      5.21485229
H      12.00973447     -0.71425677      2.27721298
H       2.04663122      0.49038779      9.26196271
H      14.72137619     -0.54561043      3.44028802
H      14.58592008     -0.97673473      0.47173786
H      -0.79811146      1.07515552     14.25424522
H      17.38535668     -0.87286975      1.62690535
H      -1.64694715      0.42679832     11.05184758
C       6.89499955      1.03876739      7.80962752
C       7.64755197      0.81233846      6.28190014
C       5.17619554      1.05388897      7.91467109
C       4.40099357      1.29238563      9.42681919
C       9.36028690      0.79729029      6.12897443
C      10.07707966      0.55741018      4.58181056
C      11.78674457      0.52827262      4.37480938
C       2.70042455      1.51697029      9.55092162
C       2.22712720      2.32281204     10.98144867
C      12.52085167      0.28405491      2.82960282
C      14.23470669      0.24858320      2.60792830
C      15.03512136      0.00947848      1.09357334
C      16.75140656     -0.00745587      1.00270615
C      -1.53656210      1.01325257     12.06544668
C      -1.39398173      1.80217582     13.46277588
H      17.32814539     -0.17775696     -0.07800923
H      -2.52332296      2.16130522     13.75813809
H       7.39232818      2.03442199      8.38297194
H       5.00557279      2.21315969     10.01139308
H       7.15900795      1.61003161      5.45020587
H       9.85529814      1.79822452      6.69460655
H       4.70491996      1.84588503      7.06910489
H       9.56892701      1.34821203      3.75583173
H       2.74465508      3.17340637     11.71369336
H      12.28069640      1.53405382      4.93091631
H      12.00941848      1.06371483      1.99676817
H       2.09714793      1.99890593      8.57024294
H      14.72212853      1.26006707      3.15542396
H      14.58818265      0.75895227      0.19935683
H      -0.82161308      2.88036513     13.58379094
H      17.38831231      1.00551557      1.33238188
H       1.34890881      3.17213741     10.79788520
   94

C      -4.50848285     -0.46843343     -0.77335840
C      -2.80933127     -0.52672968     -0.77995317
H      -4.84830806      0.40263370     -1.59792689
C      -5.47780104     -0.23249754      0.60411867
H      -4.91613477     -1.51537469     -1.30627800
H      -2.39829551      0.56468083     -0.36328549
C      -1.90303747     -0.79015813     -2.15147762
H      -2.38368485     -1.36909417      0.03232066
H      -3.10788423     -1.39299550     -7.40723833
H      -3.08621592     -2.62937526     -7.18509933
C      -0.26078573     -0.78197712     -2.34561076
H      -0.42243530      0.42126626     -2.60231131
C       1.41094865     -0.61973911     -2.52628987
H      -0.23171931     -1.97845739     -1.98671642
H       1.72049685     -0.08716123     -3.62096899
H       1.83153042     -1.51547447     -3.30050257
C       2.08976928     -0.14682507     -0.98071773
H       3.03996370      0.59687123     -1.31671210
C       1.29243319      0.31193964      0.57203574
H       3.04212500     -0.95388062     -0.90490034
H       1.42236914      1.50641220      0.26934896
H       1.95987222     -0.57953649      1.10142179
C       0.14290960      0.54538983      1.97874591
H       0.59286451      1.66831703      2.22910501
C       7.94170420     -1.20715971     -6.72658732
H       0.49151515     -0.51324359      2.49956221
H       7.24672862     -0.34931368     -7.21950094
H       7.24398716     -2.17335210     -6.93032014
C       9.42616172     -1.09376544     -5.99553626
H      -5.21049717      0.89912197      1.02874904
H      -5.24253326     -1.13353444      1.43390968
C      -7.13383082     -0.13750606      0.61562288
H      -7.84118929      0.82726855      0.43008128
C      -1.35127211      0.73605946      3.03553765
H      -7.93450864     -1.02632054      0.78222843
H      -1.25712011      1.95884179      3.12532640
H      -1.11608267     -0.25981722      3.71623896
C      -3.01343484      0.81261725      3.78014751
H      -3.19912733      2.01047765      3.55251889
C      -4.63728897      0.87860891      4.51809965
H      -3.03637945     -0.36041095      4.15603948
H      -5.12816838      1.86409868      5.09789244
H      -5.12634739      0.02566386      5.28455534
H      -5.81505884      0.84472337      4.12134175
H       9.65943612     -0.04034344     -5.39828783
H      10.37024160     -1.21813699     -6.78068876
H       9.65792448     -1.91352736     -5.10385613
H       7.38311194      0.25773717      8.65739499
H       4.76467547      0.42623171     10.25718584
H       7.16151431     -0.19920902      5.72841368
H       9.86329719      0.02248514      6.97266814
H       4.67522987      0.04896126      7.36185098
H       9.57432437     -0.44974919      4.03611970
H       2.15663601      1.52883687     11.93156231
H      12.28667073     -0.25401460      5.21237174
H      12.01331232     -0.71452823      2.27503321
H       2.04412074      0.49216421      9.26820379
H      14.72510097     -0.54604836      3.43732818
H      14.59049092     -0.97718916      0.46910652
H      -0.80490976      1.07411334     14.25854006
H      17.39011708     -0.87334272      1.62346830
H      -1.65319830      0.42598860     11.05604639
C       6.89401509      1.03821197      7.80940339
C       7.64808675      0.81209056      6.28204216
C       5.17503057      1.05349607      7.91636770
C       4.39918107      1.29184241      9.42856119
C       9.36100205      0.79697986      6.12758640
C      10.07920255      0.55722637      4.58073134
C      11.78898813      0.52790684      4.37241830
C       2.69890387      1.51867107      9.55505357
C       2.22598042      2.32705040     10.98449210
C      12.52433875      0.28373996      2.82752852
C      14.23830816      0.24813745      2.60506513
C      15.03953574      0.00906858      1.09096589
C      16.75588903     -0.00796264      0.99950412
C      -1.54310431      1.01252288     12.06957986
C      -1.40103205      1.80098852     13.46714150
H      17.33261905     -0.17827203     -0.08126012
H      -2.53019929      2.15902041     13.76466899
H       7.39129742      2.03385828      8.38271101
H       5.00484400      2.21143892     10.01367431
H       7.15948508      1.60981876      5.45047978
H       9.85601622      1.79785507      6.69324614
H       4.70343156      1.84527909      7.07085157
H       9.57106506      1.34800414      3.75477606
H       2.74523452      3.17804286     11.71505254
H      12.28299118      1.53367440      4.92843543
H      12.01299617      1.06333165      1.99461204
H       2.09514228      1.99944330      8.57415829
H      14.72585655      1.25958129      3.15247321
H      14.59275753      0.75857727      0.19671137
H      -0.82883787      2.87948951     13.58588616
H      17.39307620      1.00490094      1.32896823
H       1.34763916      3.17643805     10.80151683
   94

C      -4.51443846     -0.46117284     -0.74375576
C      -2.81688485     -0.51617510     -0.73146662
H      -4.84811084      0.40378056     -1.57689458
C      -5.48223040     -0.22368074      0.63551159
H      -4.91492547     -1.50588721     -1.28604742
H      -2.40301612      0.57783316     -0.32905699
C      -1.88414531     -0.77598342     -2.07175391
H      -2.38915428     -1.36569933      0.06943950
H      -3.19448736     -1.63787801     -8.16659090
H      -3.17858373     -2.78179668     -7.96899011
C      -0.25843330     -0.77139714     -2.31304104
H      -0.44384809      0.42316723     -2.58924850
C       1.41353646     -0.60754039     -2.48285092
H      -0.24751014     -1.97158355     -1.97179966
H       1.72248443     -0.07337348     -3.57641937
H       1.83516911     -1.50444651     -3.25457129
C       2.09042719     -0.13556953     -0.93666756
H       3.03789824      0.61224429     -1.27084045
C       1.29709851      0.32335661      0.61643134
H       3.03994207     -0.94543085     -0.85714705
H       1.42045949      1.51796311      0.31174083
H       1.96603781     -0.56624024      1.14732189
C       0.15261151      0.55625829      2.02475538
H       0.60517260      1.67796427      2.27718934
C       7.94686121     -1.20693534     -6.72666083
H       0.49618615     -0.50645315      2.54092000
H       7.25159415     -0.34905053     -7.21910626
H       7.24881799     -2.17300979     -6.92986030
C       9.43156436     -1.09359202     -5.99606395
H      -5.21419278      0.90620596      1.06428227
H      -5.24695291     -1.12164532      1.46841866
C      -7.13829952     -0.12886935      0.65142471
H      -7.84768887      0.83498539      0.46924043
C      -1.33838611      0.74865106      3.08188923
H      -7.94036824     -1.01591529      0.82096926
H      -1.24413669      1.97179163      3.16910965
H      -1.10111057     -0.24507390      3.76538896
C      -2.99981047      0.82441985      3.82323146
H      -3.18589430      2.02106174      3.58913831
C      -4.62033843      0.89160828      4.56493102
H      -3.02284176     -0.35063309      4.19305183
H      -5.10482004      1.87821050      5.14799563
H      -5.10496097      0.03776112      5.33298698
H      -5.79692431      0.85870638      4.16500831
H       9.66497733     -0.04014904     -5.39889685
H      10.37558725     -1.21797405     -6.78128621
H       9.66347102     -1.91338758     -5.10444569
H       7.38225763      0.25708739      8.65708014
H       4.76183927      0.42468627     10.25839789
H       7.16217325     -0.19937921      5.72860635
H       9.86425075      0.02233955      6.97133460
H       4.67375919      0.04888721      7.36353561
H       9.57654211     -0.44986525      4.03504376
H       2.15383360      1.53513335     11.93622996
H      12.28904780     -0.25437106      5.20991119
H      12.01690361     -0.71479771      2.27286984
H       2.04166515      0.49395452      9.27456183
H      14.72884602     -0.54648961      3.43435567
H      14.59505319     -0.97764648      0.46645777
H      -0.81169951      1.07308305     14.26289853
H      17.39487680     -0.87381993      1.62000754
H      -1.65942098      0.42516233     11.06032413
C       6.89309402      1.03767209      7.80928565
C       7.64868999      0.81185891      6.28229392
C       5.17393189      1.05312033      7.91818989
C       4.39741634      1.29131649      9.43041912
C       9.36178098      0.79667954      6.12626902
C      10.08137476      0.55705164      4.57971646
C      11.79127516      0.52754388      4.37005173
C       2.69743599      1.52038224      9.55930032
C       2.22486505      2.33130426     10.98763345
C      12.52784470      0.28342591      2.82546745
C      14.24192523      0.24768918      2.60219254
C      15.04394687      0.00865454      1.08833942
C      16.76036835     -0.00847370      0.99628061
C      -1.54962943      1.01179583     12.07378127
C      -1.40807182      1.79981279     13.47156931
H      17.33708450     -0.17879177     -0.08453489
H      -2.53706083      2.15675147     13.77125245
H       7.39033274      2.03330942      8.38255398
H       5.00416053      2.20973435     10.01606979
H       7.16002945      1.60962857      5.45087119
H       9.85680330      1.79749503      6.69195211
H       4.70200939      1.84469715      7.07273105
H       9.57324912      1.34780894      3.75379078
H       2.74584400      3.18269102     11.71650546
H      12.28533524      1.53329722      4.92597483
H      12.01658803      1.06294997      1.99247267
H       2.09318791      1.99999264      8.57819211
H      14.72960509      1.25909257      3.14950980
H      14.59732399      0.75819742      0.19404869
H      -0.83605517      2.87862257     13.58803798
H      17.39783946      1.00428129      1.32553097
H       1.34640523      3.18075789     10.80524208
   94

C      -4.51954586     -0.45376261     -0.71345134
C      -2.82357410     -0.50558409     -0.68368515
H      -4.84732951      0.40510975     -1.55482692
C      -5.48637302     -0.21471835      0.66738879
H      -4.91312731     -1.49642599     -1.26430075
H      -2.40725666      0.59088599     -0.29496928
C      -1.86230549     -0.76100979     -1.99077444
H      -2.39416847     -1.36206028      0.10623898
H      -3.29516046     -1.88734442     -8.94505501
H      -3.28307176     -2.93827628     -8.76871929
C      -0.25420539     -0.76061544     -2.27917786
H      -0.46359930      0.42429784     -2.57499274
C       1.41801569     -0.59492362     -2.43734839
H      -0.26167865     -1.96393061     -1.95562202
H       1.72800926     -0.05891229     -3.52919270
H       1.84245093     -1.49281018     -3.20579823
C       2.09271570     -0.12371653     -0.89064694
H       3.03744570      0.62836699     -1.22260896
C       1.30244031      0.33524455      0.66218405
H       3.03943201     -0.93625922     -0.80701002
H       1.41898616      1.52996252      0.35541913
H       1.97260582     -0.55255970      1.19479965
C       0.16237205      0.56736300      2.07152035
H       0.61738741      1.68788874      2.32613251
C       7.95152777     -1.20682908     -6.72698480
H       0.50074407     -0.49942070      2.58306602
H       7.25591811     -0.34893003     -7.21895383
H       7.25308848     -2.17274920     -6.92963784
C       9.43650228     -1.09349659     -5.99684210
H      -5.21763294      0.91345014      1.10021339
H      -5.25108702     -1.10960124      1.50340090
C      -7.14253841     -0.12012483      0.68770650
H      -7.85399585      0.84277116      0.50883628
C      -1.32563834      0.76136277      3.12859766
H      -7.94602975     -1.00537264      0.86019421
H      -1.23135159      1.98487105      3.21324360
H      -1.08634892     -0.23024138      3.81487133
C      -2.98630022      0.83629393      3.86657234
H      -3.17277948      2.03169291      3.62603409
C      -4.60345295      0.90466328      4.61200892
H      -3.00939851     -0.34076074      4.23031295
H      -5.08150407      1.89236959      5.19829065
H      -5.08360992      0.04989241      5.38162537
H      -5.77883608      0.87274134      4.20890062
H       9.67011202     -0.04003807     -5.39975869
H      10.38048742     -1.21788284     -6.78211960
H       9.66862139     -1.91330823     -5.10528066
H       7.38147450      0.25645158      8.65687692
H       4.75905170      0.42315917     10.25973567
H       7.16290534     -0.19953265      5.72892702
H       9.86527764      0.02220257      6.97007161
H       4.67235981      0.04883170      7.36536922
H       9.57881141     -0.44997137      4.03404269
H       2.15105709      1.54145584     11.94100333
H      12.29147794     -0.25472556      5.20747427
H      12.02051519     -0.71506459      2.27072643
H       2.03926495      0.49575964      9.28105479
H      14.73261614     -0.54693344      3.43137500
H      14.59961390     -0.97810599      0.46379630
H      -0.81848527      1.07206393     14.26732154
H      17.39964116     -0.87430081      1.61652752
H      -1.66562490      0.42432088     11.06468262
C       6.89224243      1.03714933      7.80928494
C       7.64936911      0.81164524      6.28266693
C       5.17290662      1.05276387      7.92015539
C       4.39570143      1.29080971      9.43240758
C       9.36262997      0.79639038      6.12502752
C      10.08360241      0.55688709      4.57877118
C      11.79361111      0.52718460      4.36771312
C       2.69602326      1.52210391      9.56367800
C       2.22377893      2.33557633     10.99088458
C      12.53137543      0.28311368      2.82342342
C      14.24556355      0.24723926      2.59931477
C      15.04836095      0.00823730      1.08569871
C      16.76485044     -0.00898826      0.99303990
C      -1.55614357      1.01107158     12.07805287
C      -1.41510564      1.79864861     13.47606091
H      17.34154779     -0.17931541     -0.08782915
H      -2.54391236      2.15449854     13.77788934
H       7.38943982      2.03277738      8.38251054
H       5.00352491      2.20804830     10.01859235
H       7.16064972      1.60946447      5.45139308
H       9.85766474      1.79714584      6.69072940
H       4.70066099      1.84414400      7.07476408
H       9.57548660      1.34762819      3.75288127
H       2.74648254      3.18735380     11.71806211
H      12.28773300      1.53292344      4.92353808
H      12.02020097      1.06257097      1.99035357
H       2.09128521      2.00055667      8.58236356
H      14.73337899      1.25860200      3.14653819
H      14.60188911      0.75781386      0.19137341
H      -0.84326954      2.87776420     13.59024851
H      17.40260744      1.00365759      1.32207447
H       1.34520502      3.18509969     10.80907210
   94

C      -4.52394526     -0.44624702     -0.68276063
C      -2.82951655     -0.49492969     -0.63650770
H      -4.84596807      0.40653745     -1.53215614
C      -5.49024848     -0.20567970      0.69948073
H      -4.91069535     -1.48695235     -1.24169809
H      -2.41121291      0.60388784     -0.26086087
C      -1.83810724     -0.74517683     -1.90852971
H      -2.39890527     -1.35817250      0.14283110
H      -3.40591947     -2.14057565     -9.73859190
H      -3.39616114     -3.09803778     -9.58063070
C      -0.24890030     -0.74964228     -2.24426419
H      -0.48251143      0.42466016     -2.55955366
C       1.42351872     -0.58191610     -2.38999467
H      -0.27510476     -1.95548018     -1.93837519
H       1.73578506     -0.04381513     -3.47960033
H       1.85210100     -1.48062711     -3.15452637
C       2.09614962     -0.11139705     -0.84303742
H       3.03810571      0.64503574     -1.17259406
C       1.30829195      0.34752606      0.70905748
H       3.04005831     -0.92657035     -0.75507071
H       1.41783962      1.54232284      0.40015001
H       1.97945078     -0.53859550      1.24352394
C       0.17218585      0.57866343      2.11894002
H       0.62952730      1.69804774      2.37578616
C       7.95600375     -1.20681103     -6.72754811
H       0.50521584     -0.49218399      2.62587299
H       7.26006494     -0.34892282     -7.21911496
H       7.25718040     -2.17257233     -6.92974712
C       9.44123515     -1.09345461     -5.99780260
H      -5.22085042      0.92076884      1.13634548
H      -5.25496334     -1.09746650      1.53859953
C      -7.14654925     -0.11133012      0.72422664
H      -7.86010050      0.85059595      0.54874613
C      -1.31300015      0.77417604      3.17562233
H      -7.95147892     -0.99473896      0.89977203
H      -1.21872998      1.99805851      3.25768604
H      -1.07177194     -0.21534865      3.86462777
C      -2.97290114      0.84820993      3.91008356
H      -3.15977490      2.04234388      3.66312900
C      -4.58664534      0.91773662      4.65921381
H      -2.99604592     -0.33082091      4.26774195
H      -5.05824751      1.90653403      5.24865464
H      -5.06231596      0.06202080      5.43034555
H      -5.76079657      0.88678379      4.25287338
H       9.67505222     -0.03998306     -5.40079696
H      10.38521424     -1.21783734     -6.78310308
H       9.67358380     -1.91327117     -5.10628866
H       7.38074462      0.25582605      8.65675763
H       4.75630219      0.42164687     10.26117362
H       7.16368825     -0.19967291      5.72934357
H       9.86635597      0.02207169      6.96885843
H       4.67101304      0.04879115      7.36732192
H       9.58111495     -0.45006986      4.03309463
H       2.14830190      1.54779994     11.94586302
H      12.29394348     -0.25507857      5.20505358
H      12.02414053     -0.71532929      2.26859736
H       2.03690868      0.49757726      9.28766055
H      14.73640300     -0.54737877      3.42838990
H      14.60417475     -0.97856677      0.46112783
H      -0.82526825      1.07105342     14.27179615
H      17.40440926     -0.87478407      1.61303577
H      -1.67181611      0.42346697     11.06910590
C       6.89144222      1.03663957      7.80937293
C       7.65010192      0.81144531      6.28313070
C       5.17193664      1.05242260      7.92223501
C       4.39402488      1.29031829      9.43450095
C       9.36352766      0.79610940      6.12384009
C      10.08586749      0.55673011      4.57787517
C      11.79597953      0.52682811      4.36539382
C       2.69465449      1.52383363      9.56816440
C       2.22271636      2.33986263     10.99422631
C      12.53492296      0.28280303      2.82139175
C      14.24921622      0.24678851      2.59643451
C      15.05277800      0.00781819      1.08305002
C      16.76933524     -0.00950502      0.98978883
C      -1.56265019      1.01034878     12.08238093
C      -1.42213477      1.79749354     13.48060342
H      17.34601055     -0.17984155     -0.09113528
H      -2.55075478      2.15225947     13.78456829
H       7.38860068      2.03225798      8.38255289
H       5.00292656      2.20637664     10.02121628
H       7.16132323      1.60932046      5.45201325
H       9.85857847      1.79680455      6.68955723
H       4.69936751      1.84361439      7.07692058
H       9.57775982      1.34745806      3.75202560
H       2.74714556      3.19202633     11.71970376
H      12.29016673      1.53255224      4.92111776
H      12.02382832      1.06219419      1.98824904
H       2.08942186      2.00113287      8.58665097
H      14.73716993      1.25811046      3.14356212
H      14.60645459      0.75742817      0.18869117
H      -0.85048176      2.87691166     13.59250581
H      17.40737930      1.00303137      1.31860623
H       1.34403292      3.18945999     10.81298959
   94

C      -4.53205268     -0.43906908     -0.65326787
C      -2.84057114     -0.48143788     -0.57556631
H      -4.84268028      0.40200361     -1.51773383
C      -5.49916408     -0.19646327      0.73090951
H      -4.90516887     -1.47582730     -1.22777248
H      -2.41994077      0.62171391     -0.22363341
C      -1.78543827     -0.71865798     -1.77214078
H      -2.40927952     -1.35782854      0.18380231
H      -3.55186346     -2.47344322    -10.65328387
H      -3.54415227     -3.24283722    -10.52532521
C      -0.23802057     -0.73509585     -2.20197010
H      -0.51989576      0.41602450     -2.55331722
C       1.43464039     -0.56396880     -2.32183999
H      -0.30287567     -1.94375439     -1.92945157
H       1.75251622     -0.02154820     -3.40644584
H       1.87223965     -1.46446526     -3.07766319
C       2.10429222     -0.09508175     -0.77507753
H       3.04073231      0.66965478     -1.10026537
C       1.32081452      0.36411574      0.77499924
H       3.04212607     -0.91588858     -0.67848884
H       1.41706164      1.55889683      0.46188026
H       1.99331521     -0.51891051      1.31348021
C       0.19071945      0.59306185      2.18434792
H       0.65161168      1.71063125      2.44549804
C       7.96527833     -1.20731748     -6.73129679
H       0.51391539     -0.48488571      2.68334961
H       7.26969789     -0.34962494     -7.22375941
H       7.26684710     -2.17318197     -6.93447881
C       9.45001673     -1.09368941     -6.00046158
H      -5.22879424      0.92651021      1.17599163
H      -5.26412172     -1.08251800      1.57573971
C      -7.15584387     -0.10269671      0.76339797
H      -7.87352158      0.85697716      0.59278652
C      -1.29013608      0.79057901      3.23870884
H      -7.96377335     -0.98270794      0.94299842
H      -1.19618554      2.01518823      3.31607726
H      -1.04513785     -0.19479022      3.93314380
C      -2.94877491      0.86255511      3.96588180
H      -3.13650622      2.05406280      3.70629792
C      -4.55719218      0.93352486      4.71954114
H      -2.97170618     -0.32017924      4.31176363
H      -5.01729695      1.92433241      5.31429538
H      -5.02423966      0.07576375      5.49325549
H      -5.72842674      0.90365226      4.30546438
H       9.68351101     -0.04014226     -5.40344507
H      10.39454077     -1.21794424     -6.78514424
H       9.68210694     -1.91355303     -5.10891245
H       7.37492168      0.25461639      8.65214217
H       4.74659985      0.41769671     10.25606845
H       7.16251332     -0.20033631      5.72567805
H       9.86493821      0.02187300      6.96524532
H       4.66464273      0.04791665      7.36286107
H       9.58359818     -0.45045168      4.02986726
H       2.14031637      1.55701095     11.94578077
H      12.29608944     -0.25564004      5.20093291
H      12.02927010     -0.71582277      2.26483446
H       2.02813378      0.49954495      9.28983100
H      14.74139332     -0.54803289      3.42399155
H      14.61095701     -0.97928740      0.45715067
H      -0.83799204      1.06765965     14.27245014
H      17.41126698     -0.87541955      1.60821673
H      -1.68615546      0.42379362     11.06809568
C       6.88588147      1.03546461      7.80472249
C       7.64834855      0.81079817      6.27977004
C       5.16587816      1.05102397      7.91833082
C       4.38647555      1.28824940      9.43049722
C       9.36227237      0.79555789      6.11991727
C      10.08787776      0.55635351      4.57491608
C      11.79830524      0.52624269      4.36125082
C       2.68749514      1.52565124      9.56681829
C       2.21763761      2.34580108     10.99176487
C      12.53963853      0.28229356      2.81793254
C      14.25416766      0.24612484      2.59212212
C      15.05909886      0.00721295      1.07918123
C      16.77577586     -0.01021064      0.98530584
C      -1.57588319      1.00841945     12.08253946
C      -1.43464930      1.79445796     13.48140191
H      17.35258077     -0.18055048     -0.09562313
H      -2.56249309      2.14816766     13.78989406
H       7.38245153      2.03123793      8.37799156
H       4.99711508      2.20218766     10.01842555
H       7.15991543      1.60863723      5.44852694
H       9.85693291      1.79619262      6.68592422
H       4.69288551      1.84159364      7.07279011
H       9.58020014      1.34701349      3.74883612
H       2.74557910      3.19803830     11.71474100
H      12.29229751      1.53198655      4.91695472
H      12.02896163      1.06155371      1.98448099
H       2.08134297      2.00075785      8.58488208
H      14.74217184      1.25741162      3.13915995
H      14.61324018      0.75688732      0.18467305
H      -0.86258226      2.87400046     13.58984497
H      17.41423977      1.00215374      1.31382226
H       1.33938471      3.19616954     10.81170954
