   94

C       7.15113389     -6.80981590     -7.68321012
C       5.69986544     -7.62753806     -7.25187278
H       7.41447774     -5.98278091     -6.79084594
C       3.64995237     -0.96993659      4.77526728
H     -18.89185999     -7.18329685     -1.80818867
H       4.69294211     -7.02400525     -6.85239711
C       4.56169869     -1.39390129      6.24955752
H       5.73536191     -8.45021441     -6.32414710
H      -7.81523282     -6.27941550    -16.91792814
H      -7.80752163     -7.04880949    -16.78996947
C       9.10254300      1.65518347      7.01101370
H       9.88439278      1.06831139      7.76815311
C       5.63370723     -2.70334091      5.95593779
H       6.88617774      5.12347087     -5.27414105
H       5.88089299     -2.18870209      4.87819622
H      -0.14327263     -7.37313961     12.68688568
C       5.87835811     -4.05412630      6.87816823
H       5.03472494     -4.64954077      7.54517126
C       5.62229200      7.15849104     -4.15548899
H       6.41810616     -4.80429233      7.70024235
H       6.34603525      8.01843481     -4.68165876
H       4.65406923      7.69396572     -4.71293265
C       5.89768617      5.79592306     -5.08273076
H      10.49334511      4.38942486    -14.13512651
C       9.84068150      4.03841648    -13.28124111
H       9.38417703      2.04724055      4.42747930
H       5.19874521      5.15978571     -5.83886520
H      -3.00408555     13.84794160     10.96389429
C       8.54674417     -7.64838348     -8.25337763
H       2.66530179     -0.31472054      5.02461678
H     -19.27118577     -7.16726916     -1.12682601
C      -1.26400008     -8.37246212      0.62488775
H       3.43062634     -1.70097943      6.61631960
C      -1.16836746     -7.12814256     13.27901552
H      -2.07500289     -8.84335915      1.31388387
H      -3.40368435     -8.07766679     13.53437257
H      -1.16509017     -5.92173203     13.19495763
C      -3.94925518      0.01934142     -7.52171157
H       6.11482608      8.24452379     -2.10400891
C       4.11218982      7.11638238     -1.55959177
H      -4.45343848      0.92590953     -8.04908116
H       4.01257290      7.72310338     -0.48166004
H       3.59582134      6.03924329     -1.23498602
H       3.04079684      7.55595122     -1.99332697
H       8.81912888     -7.48130875     -9.45304286
H       8.44159924     -8.84813053     -8.54613840
H      10.44546404     -8.26688892     -6.53545374
H       5.51840398      1.67089852      8.48518375
H       4.23385607     -0.64971358      8.39720817
H      -2.03574256     -9.35619948     13.92869563
H       6.93752143      1.35975708      5.99939352
H      -8.74526114     -4.13751913     22.51988062
H       4.78428295     13.78760266     17.27630823
H       3.36254627     13.38959210     20.35787782
H       5.98768672     -1.95047512     10.13322582
H      17.43837817      4.39965506      0.15020649
H      -4.76113507     12.91559780     10.66978309
H      18.12855175      4.54803080      0.48193601
H       3.54208825     -1.06253595      1.94766015
H       7.13925824     -4.43606076      4.79671384
H       6.90967322     -5.83052135     -8.41556078
H       7.28626145     -1.88130439      9.28282874
C       3.17566264     -0.98371688      3.10211555
C      -2.26250977     -8.14629541     13.99853115
C       6.20629542      0.73606063      8.05707404
C       5.29365371     -0.72282495      7.76292076
C       7.47934414      1.21162219      7.06724773
C       5.07606484     14.28538407     18.35991884
C       6.14974012     -1.53532282      8.99995603
C      -4.20622018     14.01157358     10.75361368
C       4.08903074     13.76496062     19.51628223
C       6.72568416      6.11473513     -1.73084853
C      11.11967744      1.14740463      4.94506477
C       9.76851290      1.65748944      5.49807926
C       9.96758282     -7.54295653     -7.38043743
C       5.60357869      7.15267631     -2.42580663
C       6.91388162     -3.66663211      5.73650332
H       7.82738815      6.27328177     -1.25397055
H       5.08542575     -8.27716225     -8.11137581
H       1.98521200     -1.22353935      2.82219479
H      -8.61696244     -3.46529564     22.89411990
H      -2.38564133     -7.98143119     15.21515116
H       9.33348314      2.74901572      7.54111918
H       6.68338476      1.10314885      9.14471263
H       6.24439817     13.99264497     18.59745192
H       5.01352964     15.50655861     18.25060747
H      -3.44510373     -0.88724676     -6.99434604
H       6.73660402      4.92457069     -1.50536853
H      -4.35808925     14.63018583      9.69987001
H      -0.45299820     -7.90156499     -0.06410938
H       3.49547629     -0.53666396      2.01791454
H       8.10616644     -3.33648151      5.83880375
H      10.84476791     -6.70695684     -7.38378879
H      -4.70157084     14.65256910     11.68090732
   94

C       7.15112157     -6.80977382     -7.68336352
C       5.70008072     -7.62775102     -7.25175954
H       7.41448156     -5.98252927     -6.79119661
C       3.65212747     -0.96088283      4.79184627
H     -18.89186036     -7.18329695     -1.80818865
H       4.69317682     -7.02443980     -6.85190777
C       4.56434592     -1.40032093      6.25708415
H       5.73590993     -8.45054743     -6.32415508
H      -7.81523513     -6.27941702    -16.91792951
H      -7.80752381     -7.04881099    -16.78997074
C       9.09736247      1.65493921      7.00630920
H       9.87319639      1.06271829      7.76526683
C       5.63874482     -2.70514176      5.95070560
H       6.86572383      5.13779734     -5.22683743
H       5.88678728     -2.19121662      4.87250060
H      -0.14328781     -7.37315899     12.68691430
C       5.87589399     -4.06041270      6.86660576
H       5.02276873     -4.65920093      7.51817831
C       5.60942396      7.23823053     -4.22930035
H       6.40911978     -4.80921843      7.69381119
H       6.35946340      8.07630816     -4.73936660
H       4.63137932      7.75517755     -4.77446768
C       5.87857005      5.80077658     -4.99400320
H      10.49371608      4.38926076    -14.13595560
C       9.84104792      4.03823569    -13.28208163
H       9.39364785      2.05172810      4.42485996
H       5.20539833      5.14888720     -5.76125216
H      -3.00409145     13.84794659     10.96390099
C       8.54675263     -7.64823834     -8.25361722
H       2.68039243     -0.28697186      5.04608794
H     -19.27118613     -7.16726926     -1.12682599
C      -1.26401522     -8.37247913      0.62488538
H       3.43733078     -1.72619175      6.62295339
C      -1.16838459     -7.12815819     13.27903831
H      -2.07501857     -8.84337418      1.31388197
H      -3.40370043     -8.07768128     13.53438797
H      -1.16510554     -5.92174771     13.19498554
C      -3.94930590      0.01931746     -7.52171283
H       6.11667450      8.20348368     -2.11233667
C       4.11560724      7.09667390     -1.57035870
H      -4.45347898      0.92589112     -8.04908288
H       4.01738308      7.70947909     -0.49554117
H       3.59166681      6.02498094     -1.24243774
H       3.04825250      7.55006693     -2.00037503
H       8.81922945     -7.48081834     -9.45321003
H       8.44173526     -8.84788013     -8.54686610
H      10.44395853     -8.26637090     -6.53395144
H       5.50984760      1.68233722      8.46332133
H       4.23094609     -0.63822757      8.39838156
H      -2.03575860     -9.35621530     13.92871225
H       6.93376839      1.36687950      5.98911047
H      -8.74526230     -4.13751938     22.51988225
H       4.78426480     13.78780243     17.27620515
H       3.36276232     13.38942034     20.35798888
H       5.97274356     -1.95294230     10.13250280
H      17.43841761      4.39965560      0.15020818
H      -4.76114106     12.91560246     10.66978926
H      18.12858897      4.54803344      0.48194134
H       3.55958225     -1.10001186      1.97141702
H       7.14737053     -4.44220120      4.79223497
H       6.90941202     -5.83054463     -8.41571406
H       7.28105034     -1.88152372      9.28067261
C       3.18260537     -0.98490144      3.12042462
C      -2.26252737     -8.14631185     13.99854926
C       6.20043865      0.74267313      8.05004746
C       5.29140767     -0.71987728      7.76579406
C       7.47283118      1.21620534      7.05838103
C       5.07601405     14.28542764     18.35989610
C       6.14401833     -1.53516876      9.00172630
C      -4.20622603     14.01157817     10.75361982
C       4.08897085     13.76501696     19.51625718
C       6.73889993      6.08950923     -1.73064691
C      11.12272905      1.14288240      4.95039062
C       9.77051921      1.65773284      5.49654803
C       9.96736902     -7.54315807     -7.38028353
C       5.60923618      7.10923280     -2.43046821
C       6.91688493     -3.67174828      5.73021841
H       7.83739463      6.26748109     -1.25266758
H       5.08553999     -8.27732129     -8.11123129
H       1.99434929     -1.23669344      2.84380836
H      -8.61696353     -3.46529588     22.89412146
H      -2.38565790     -7.98144651     15.21516897
H       9.33052966      2.74721728      7.53863618
H       6.67270095      1.11158599      9.13915835
H       6.24421937     13.99250081     18.59782884
H       5.01362282     15.50658296     18.25028829
H      -3.44516026     -0.88727359     -6.99434636
H       6.74747960      4.90272081     -1.49178957
H      -4.35809543     14.63019076      9.69987643
H      -0.45301182     -7.90158468     -0.06411154
H       3.50578627     -0.50352427      2.05067571
H       8.10956151     -3.34405263      5.83450979
H      10.84550093     -6.70815751     -7.38457913
H      -4.70157652     14.65257371     11.68091352
   94

C       7.15110728     -6.80970479     -7.68351394
C       5.70029618     -7.62794210     -7.25164466
H       7.41448270     -5.98225048     -6.79154411
C       3.65436124     -0.95216129      4.80835200
H     -18.89186062     -7.18329701     -1.80818863
H       4.69341205     -7.02485242     -6.85141676
C       4.56712064     -1.40664788      6.26451471
H       5.73645770     -8.45085993     -6.32416255
H      -7.81523618     -6.27941775    -16.91793007
H      -7.80752482     -7.04881172    -16.78997127
C       9.09216071      1.65468946      7.00161050
H       9.86194883      1.05714110      7.76234409
C       5.64372972     -2.70692400      5.94547416
H       6.84258126      5.15969195     -5.17968878
H       5.89268110     -2.19375288      4.86679246
H      -0.14330066     -7.37317599     12.68693906
C       5.87334890     -4.06664601      6.85499062
H       5.01093840     -4.66868062      7.49100058
C       5.59742481      7.31351831     -4.30540297
H       6.39992684     -4.81410985      7.68730666
H       6.37370367      8.12963638     -4.79802158
H       4.60847567      7.81115923     -4.83691216
C       5.85705029      5.80769655     -4.89355628
H      10.49405148      4.38909106    -14.13672548
C       9.84138121      4.03806617    -13.28285348
H       9.40314546      2.05618837      4.42234453
H       5.21261330      5.14730417     -5.68062616
H      -3.00409370     13.84794926     10.96390252
C       8.54675569     -7.64807291     -8.25385363
H       2.69580102     -0.25997908      5.06748113
H     -19.27118640     -7.16726931     -1.12682598
C      -1.26402890     -8.37249277      0.62488259
H       3.44429655     -1.75078032      6.62935883
C      -1.16839908     -7.12817198     13.27905815
H      -2.07503267     -8.84338680      1.31387922
H      -3.40371423     -8.07769391     13.53440160
H      -1.16511847     -5.92176155     13.19500973
C      -3.94934119      0.01929770     -7.52171442
H       6.11765122      8.15879297     -2.12698099
C       4.12001682      7.07661457     -1.58281769
H      -4.45350652      0.92587549     -8.04908496
H       4.02445861      7.69677639     -0.51168828
H       3.58763452      6.01145255     -1.24945820
H       3.05682087      7.54426766     -2.00859505
H       8.81932511     -7.48030780     -9.45337381
H       8.44186701     -8.84760956     -8.54759067
H      10.44245071     -8.26583506     -6.53245314
H       5.50131103      1.69356373      8.44140665
H       4.22801224     -0.62681190      8.39934025
H      -2.03577244     -9.35622909     13.92872702
H       6.93005090      1.37398975      5.97881848
H      -8.74526332     -4.13751954     22.51988367
H       4.78424660     13.78800156     17.27610010
H       3.36297843     13.38924847     20.35809823
H       5.95768548     -1.95538335     10.13168339
H      17.43845657      4.39965587      0.15020980
H      -4.76114342     12.91560502     10.66979071
H      18.12862565      4.54803595      0.48194665
H       3.57725620     -1.13760873      1.99615293
H       7.15544111     -4.44836377      4.78781680
H       6.90914910     -5.83053942     -8.41586260
H       7.27576068     -1.88173684      9.27849850
C       3.18978674     -0.98576692      3.13845224
C      -2.26254245     -8.14632613     13.99856515
C       6.19454403      0.74928770      8.04298511
C       5.28917094     -0.71688707      7.76861630
C       7.46631916      1.22077885      7.04950973
C       5.07596314     14.28547058     18.35987137
C       6.13822879     -1.53499240      9.00349063
C      -4.20622827     14.01158065     10.75362127
C       4.08891107     13.76507273     19.51623039
C       6.75155294      6.06433566     -1.72785401
C      11.12573399      1.13837544      4.95576548
C       9.77251850      1.65796037      5.49506691
C       9.96715029     -7.54334152     -7.38012717
C       5.61437945      7.06167767     -2.44135003
C       6.91984141     -3.67686225      5.72394398
H       7.84705020      6.26287882     -1.25048029
H       5.08565461     -8.27745916     -8.11108493
H       2.00375120     -1.24964786      2.86558136
H      -8.61696446     -3.46529601     22.89412280
H      -2.38567210     -7.98145974     15.21518461
H       9.32753151      2.74539745      7.53617997
H       6.66195180      1.12003449      9.13355151
H       6.24404036     13.99235627     18.59820364
H       5.01371594     15.50660662     18.24996722
H      -3.44519990     -0.88729520     -6.99434674
H       6.75927788      4.88107178     -1.47533607
H      -4.35809781     14.63019331      9.69987794
H      -0.45302408     -7.90159934     -0.06411317
H       3.51543211     -0.47052086      2.08396307
H       8.11290585     -3.35163947      5.83025343
H      10.84622744     -6.70934185     -7.38536429
H      -4.70157866     14.65257616     11.68091504
   94

C       7.15109120     -6.80960909     -7.68365960
C       5.70051161     -7.62811090     -7.25152657
H       7.41448112     -5.98194440     -6.79188697
C       3.65663579     -0.94379158      4.82476618
H     -18.89186073     -7.18329703     -1.80818862
H       4.69364766     -7.02524254     -6.85092244
C       4.57001988     -1.41287202      6.27184609
H       5.73700512     -8.45115121     -6.32416775
H      -7.81523627     -6.27941789    -16.91792995
H      -7.80752492     -7.04881186    -16.78997116
C       9.08693622      1.65443670      6.99690601
H       9.85064920      1.05158208      7.75937279
C       5.64866352     -2.70868214      5.94024061
H       6.81633066      5.18630718     -5.13124186
H       5.89857738     -2.19630128      4.86107119
H      -0.14331106     -7.37319049     12.68695954
C       5.87072303     -4.07282121      6.84331860
H       4.99923179     -4.67796416      7.46364252
C       5.58720963      7.38042462     -4.38415550
H       6.39052468     -4.81896648      7.68071936
H       6.38816062      8.17842502     -4.85465739
H       4.58594744      7.86108765     -4.89755677
C       5.83621484      5.82198878     -4.79171732
H      10.49436604      4.38891575    -14.13745997
C       9.84169578      4.03790030    -13.28358412
H       9.41266206      2.06062744      4.41991853
H       5.21910378      5.15256353     -5.59664253
H      -3.00409351     13.84795045     10.96390055
C       8.54675332     -7.64788729     -8.25408574
H       2.71152727     -0.23371587      5.08877573
H     -19.27118652     -7.16726933     -1.12682597
C      -1.26403979     -8.37250072      0.62487924
H       3.45151930     -1.77478477      6.63555669
C      -1.16841078     -7.12818388     13.27907471
H      -2.07504383     -8.84339520      1.31387516
H      -3.40372560     -8.07770458     13.53441322
H      -1.16512880     -5.92177347     13.19502987
C      -3.94936218      0.01928202     -7.52171463
H       6.11782868      8.11202776     -2.14739879
C       4.12504797      7.05649119     -1.59621564
H      -4.45352247      0.92586228     -8.04908588
H       4.03326874      7.68513425     -0.52936626
H       3.58362988      5.99876197     -1.25574698
H       3.06623184      7.53868324     -2.01753287
H       8.81941583     -7.47977753     -9.45353313
H       8.44199429     -8.84731894     -8.54831087
H      10.44094010     -8.26528084     -6.53095705
H       5.49279591      1.70457831      8.41943993
H       4.22506373     -0.61546712      8.40009608
H      -2.03578391     -9.35624076     13.92873968
H       6.92636428      1.38109001      5.96850974
H      -8.74526417     -4.13751964     22.51988489
H       4.78422836     13.78820025     17.27599375
H       3.36319461     13.38907650     20.35820643
H       5.94252061     -1.95779594     10.13076556
H      17.43849093      4.39965585      0.15021074
H      -4.76114337     12.91560623     10.66978895
H      18.12865791      4.54803797      0.48195101
H       3.59507584     -1.17529192      2.02184124
H       7.16346829     -4.45454275      4.78345499
H       6.90888444     -5.83050658     -8.41600524
H       7.27039976     -1.88194338      9.27630417
C       3.19723796     -0.98638225      3.15615162
C      -2.26255483     -8.14633817     13.99857858
C       6.18861490      0.75590485      8.03588301
C       5.28694716     -0.71385479      7.77138664
C       7.45980605      1.22534621      7.04062476
C       5.07591216     14.28551309     18.35984533
C       6.13237912     -1.53479248      9.00524795
C      -4.20622812     14.01158181     10.75361949
C       4.08885134     13.76512812     19.51620246
C       6.76336388      6.03970207     -1.72274460
C      11.12868546      1.13388919      4.96117647
C       9.77450324      1.65817854      5.49362149
C       9.96692649     -7.54350674     -7.37996716
C       5.61882407      7.01152486     -2.45609074
C       6.92275116     -3.68196952      5.71767667
H       7.85604100      6.25954999     -1.24758688
H       5.08576937     -8.27757553     -8.11093506
H       2.01341404     -1.26232828      2.88748789
H      -8.61696525     -3.46529608     22.89412395
H      -2.38568379     -7.98147080     15.21519782
H       9.32448720      2.74355788      7.53374070
H       6.65114323      1.12849468      9.12788686
H       6.24386118     13.99221148     18.59857702
H       5.01380904     15.50662977     18.24964492
H      -3.44522311     -0.88731127     -6.99434532
H       6.77163375      4.85993221     -1.45722409
H      -4.35809765     14.63019431      9.69987608
H      -0.45303368     -7.90160607     -0.06411407
H       3.52446353     -0.43761866      2.11777132
H       8.11619946     -3.35923823      5.82603101
H      10.84694756     -6.71050995     -7.38614320
H      -4.70157842     14.65257725     11.68091335
   94

C       7.15107359     -6.80949137     -7.68379978
C       5.70072658     -7.62826056     -7.25140435
H       7.41447711     -5.98161559     -6.79222464
C       3.65893654     -0.93578535      4.84106800
H     -18.89186065     -7.18329699     -1.80818859
H       4.69388333     -7.02561317     -6.85042388
C       4.57304011     -1.41898345      6.27907321
H       5.73755185     -8.45142400     -6.32416943
H      -7.81523571     -6.27941764    -16.91792930
H      -7.80752440     -7.04881162    -16.78997054
C       9.08168724      1.65418451      6.99218161
H       9.83929682      1.04604503      7.75633827
C       5.65354732     -2.71041052      5.93500100
H       6.78754678      5.21432053     -5.08069535
H       5.90447895     -2.19885212      4.85533512
H      -0.14331882     -7.37320225     12.68697519
C       5.86801683     -4.07893235      6.83158583
H       4.98764734     -4.68703382      7.43611115
C       5.57899943      7.43802848     -4.46533346
H       6.38091226     -4.82378683      7.67403991
H       6.40226059      8.22351658     -4.90748212
H       4.56413999      7.90559187     -4.95467641
C       5.81800876      5.84613150     -4.69479574
H      10.49467102      4.38873681    -14.13817765
C       9.84200218      4.03773456    -13.28429511
H       9.42218692      2.06505294      4.41756381
H       5.22431888      5.16204966     -5.50934830
H      -3.00409209     13.84795094     10.96389685
C       8.54674626     -7.64768492     -8.25431323
H       2.72757230     -0.20815729      5.10995015
H     -19.27118647     -7.16726929     -1.12682596
C      -1.26404681     -8.37250098      0.62487538
H       3.45899527     -1.79824096      6.64156180
C      -1.16841945     -7.12819371     13.27908755
H      -2.07505097     -8.84339772      1.31386960
H      -3.40373432     -8.07771312     13.53442251
H      -1.16513632     -5.92178329     13.19504548
C      -3.94937043      0.01927065     -7.52171187
H       6.11727815      8.06450635     -2.17237733
C       4.13032926      7.03651129     -1.60991717
H      -4.45352820      0.92585173     -8.04908423
H       4.04316487      7.67443518     -0.54785698
H       3.57961557      5.98683093     -1.26132467
H       3.07618789      7.53336389     -2.02680903
H       8.81950221     -7.47923115     -9.45368774
H       8.44211751     -8.84701166     -8.54902617
H      10.43942697     -8.26471054     -6.52946198
H       5.48430436      1.71538151      8.39742041
H       4.22210857     -0.60419279      8.40065721
H      -2.03579281     -9.35625011     13.92874990
H       6.92270336      1.38818383      5.95817455
H      -8.74526485     -4.13751971     22.51988588
H       4.78421013     13.78839860     17.27588676
H       3.36341086     13.38890444     20.35831397
H       5.92725670     -1.96017636     10.12974620
H      17.43851727      4.39965576      0.15021073
H      -4.76114210     12.91560677     10.66978556
H      18.12868253      4.54803945      0.48195382
H       3.61300178     -1.21302761      2.04844421
H       7.17144980     -4.46073240      4.77914535
H       6.90861826     -5.83045129     -8.41614187
H       7.26497418     -1.88214181      9.27408604
C       3.20499254     -0.98680168      3.17347434
C      -2.26256430     -8.14634777     13.99858920
C       6.18265480      0.76252535      8.02873551
C       5.28473964     -0.71078032      7.77410215
C       7.45328963      1.22991170      7.03171504
C       5.07586117     14.28555532     18.35981862
C       6.12647603     -1.53456706      9.00699575
C      -4.20622676     14.01158231     10.75361608
C       4.08879164     13.76518324     19.51617394
C       6.77438873      6.01578232     -1.71650149
C      11.13157475      1.12943141      4.96660768
C       9.77646392      1.65839627      5.49219384
C       9.96669829     -7.54365668     -7.37980311
C       5.62248432      6.96008368     -2.47234164
C       6.92561409     -3.68706501      5.71141289
H       7.86410873      6.25730538     -1.24439277
H       5.08588381     -8.27767344     -8.11078076
H       2.02333533     -1.27466545      2.90950173
H      -8.61696587     -3.46529613     22.89412488
H      -2.38569277     -7.98147953     15.21520825
H       9.32139473      2.74170152      7.53130571
H       6.64028187      1.13696666      9.12215761
H       6.24368186     13.99206655     18.59894959
H       5.01390220     15.50665257     18.24932201
H      -3.44523133     -0.88732144     -6.99434038
H       6.78412348      4.83939583     -1.43900635
H      -4.35809618     14.63019456      9.69987250
H      -0.45303955     -7.90160237     -0.06411387
H       3.53292839     -0.40478563      2.15210108
H       8.11944212     -3.36684420      5.82183796
H      10.84766218     -6.71166502     -7.38691566
H      -4.70157701     14.65257768     11.68091001
   94

C       7.15105460     -6.80935618     -7.68393449
C       5.70094076     -7.62839445     -7.25127768
H       7.41447091     -5.98126861     -6.79255718
C       3.66125090     -0.92814841      4.85724082
H     -18.89186033     -7.18329687     -1.80818857
H       4.69411877     -7.02596755     -6.84992074
C       4.57617726     -1.42497602      6.28619337
H       5.73809761     -8.45168133     -6.32416701
H      -7.81523469     -6.27941709    -16.91792821
H      -7.80752344     -7.04881108    -16.78996950
C       9.07641207      1.65393570      6.98742612
H       9.82789097      1.04053315      7.75322897
C       5.65838304     -2.71210525      5.92975328
H       6.75696778      5.24208049     -5.02801356
H       5.91038901     -2.20139751      4.84958446
H      -0.14332384     -7.37321113     12.68698563
C       5.86523130     -4.08497524      6.81978993
H       4.97618339     -4.69587359      7.40841493
C       5.57269845      7.48668153     -4.54905058
H       6.37108926     -4.82857095      7.66726054
H       6.41554467      8.26563005     -4.95593927
H       4.54333223      7.94569969     -5.00763942
C       5.80288137      5.87995415     -4.60415768
H      10.49497310      4.38855617    -14.13888978
C       9.84230652      4.03756774    -13.28499954
H       9.43171183      2.06946979      4.41526634
H       5.22841733      5.17476591     -5.41925073
H      -3.00409029     13.84795120     10.96389264
C       8.54673517     -7.64746928     -8.25453623
H       2.74393657     -0.18328175      5.13098950
H     -19.27118620     -7.16726918     -1.12682596
C      -1.26404927     -8.37249217      0.62487114
H       3.46672123     -1.82118465      6.64738822
C      -1.16842497     -7.12820135     13.27909637
H      -2.07505341     -8.84339327      1.31386250
H      -3.40374025     -8.07771944     13.53442924
H      -1.16514088     -5.92179091     13.19505625
C      -3.94936650      0.01926429     -7.52170503
H       6.11604931      8.01694057     -2.20067002
C       4.13561856      7.01675663     -1.62355352
H      -4.45352404      0.92584462     -8.04907900
H       4.05364222      7.66440356     -0.56665921
H       3.57559025      5.97548742     -1.26639609
H       3.08648849      7.52830005     -2.03620055
H       8.81958485     -7.47867222     -9.45383780
H       8.44223712     -8.84669116     -8.54973661
H      10.43791150     -8.26412678     -6.52796722
H       5.47583763      1.72597383      8.37534728
H       4.21915330     -0.59298855      8.40103146
H      -2.03579899     -9.35625704     13.92875746
H       6.91906351      1.39527363      5.94780503
H      -8.74526533     -4.13751975     22.51988663
H       4.78419194     13.78859668     17.27577953
H       3.36362717     13.38873226     20.35842118
H       5.91190019     -1.96252136     10.12862306
H      17.43853381      4.39965587      0.15020968
H      -4.76114043     12.91560709     10.66978169
H      18.12869786      4.54804048      0.48195486
H       3.63098878     -1.25079440      2.07592531
H       7.17938396     -4.46692892      4.77488526
H       6.90835064     -5.83037844     -8.41627288
H       7.25948938     -1.88233090      9.27184167
C       3.21308174     -0.98706899      3.19037829
C      -2.26257071     -8.14635481     13.99859676
C       6.17666643      0.76914940      8.02153800
C       5.28255090     -0.70766419      7.77676082
C       7.44676779      1.23447870      7.02277147
C       5.07581018     14.28559731     18.35979162
C       6.12052505     -1.53431469      9.00873242
C      -4.20622500     14.01158259     10.75361216
C       4.08873198     13.76523813     19.51614518
C       6.78484488      5.99250057     -1.71030491
C      11.13439558      1.12500746      4.97204755
C       9.77839340      1.65861996      5.49077009
C       9.96646627     -7.54379457     -7.37963508
C       5.62535804      6.90813706     -2.48852389
C       6.92843072     -3.69214549      5.70515064
H       7.87114631      6.25582723     -1.24127419
H       5.08599751     -8.27775611     -8.11062170
H       2.03351116     -1.28660198      2.93160424
H      -8.61696630     -3.46529615     22.89412559
H      -2.38569888     -7.98148582     15.21521567
H       9.31825219      2.73983086      7.52886449
H       6.62937297      1.14545037      9.11635805
H       6.24350244     13.99192153     18.59932177
H       5.01399544     15.50667506     18.24899888
H      -3.44522522     -0.88732502     -6.99433075
H       6.79644705      4.81937437     -1.42184222
H      -4.35809429     14.63019455      9.69986839
H      -0.45304100     -7.90158659     -0.06411223
H       3.54086898     -0.37200318      2.18696155
H       8.12263422     -3.37445458      5.81767145
H      10.84837223     -6.71281059     -7.38768206
H      -4.70157523     14.65257791     11.68090614
   94

C       7.15103426     -6.80920572     -7.68406383
C       5.70115396     -7.62851422     -7.25114642
H       7.41446261     -5.98090561     -6.79288478
C       3.66356804     -0.92088236      4.87327298
H     -18.89185977     -7.18329667     -1.80818854
H       4.69435386     -7.02630723     -6.84941288
C       4.57942688     -1.43084763      6.29320701
H       5.73864226     -8.45192476     -6.32416030
H      -7.81523330     -6.27941626    -16.91792668
H      -7.80752210     -7.04881026    -16.78996804
C       9.07110953      1.65369130      6.98263368
H       9.81643139      1.03504800      7.75003877
C       5.66317343     -2.71376461      5.92449799
H       6.72507741      5.26948555     -4.97324724
H       5.91631096     -2.20393180      4.84382195
H      -0.14332611     -7.37321713     12.68699071
C       5.86236800     -4.09094805      6.80793042
H       4.96483819     -4.70446981      7.38056408
C       5.56812890      7.52685163     -4.63570497
H       6.36105612     -4.83332090      7.66037551
H       6.42749621      8.30501486     -5.00025802
H       4.52390912      7.98218932     -5.05652686
C       5.79061257      5.92267084     -4.51925191
H      10.49527640      4.38837439    -14.13960309
C       9.84261264      4.03739844    -13.28570521
H       9.44123251      2.07387824      4.41301910
H       5.23173912      5.19099289     -5.32692099
H      -3.00408855     13.84795145     10.96388862
C       8.54672027     -7.64724213     -8.25475490
H       2.76061818     -0.15907338      5.15188711
H     -19.27118568     -7.16726900     -1.12682596
C      -1.26404675     -8.37247347      0.62486661
H       3.47469443     -1.84365201      6.65305066
C      -1.16842731     -7.12820680     13.27910107
H      -2.07505072     -8.84338115      1.31385381
H      -3.40374338     -8.07772352     13.53443334
H      -1.16514248     -5.92179632     13.19506206
C      -3.94934975      0.01926391     -7.52169334
H       6.11419058      7.96957119     -2.23111199
C       4.14079143      6.99719586     -1.63693136
H      -4.45350935      0.92584185     -8.04906950
H       4.06435405      7.65469144     -0.58543607
H       3.57155780      5.96451208     -1.27119973
H       3.09703459      7.52343237     -2.04558148
H       8.81966395     -7.47810249     -9.45398346
H       8.44235321     -8.84635918     -8.55044234
H      10.43639358     -8.26353095     -6.52647236
H       5.46739610      1.73635489      8.35322140
H       4.21620314     -0.58185502      8.40122762
H      -2.03580244     -9.35626153     13.92876225
H       6.91544128      1.40235918      5.93739721
H      -8.74526562     -4.13751979     22.51988714
H       4.78417384     13.78879450     17.27567227
H       3.36384358     13.38855992     20.35852827
H       5.89645646     -1.96482888     10.12739569
H      17.43854028      4.39965635      0.15020751
H      -4.76113879     12.91560739     10.66977798
H      18.12870364      4.54804117      0.48195403
H       3.64898664     -1.28858533      2.10425359
H       7.18726967     -4.47313062      4.77067389
H       6.90808156     -5.83029034     -8.41639853
H       7.25394986     -1.88251053      9.26957060
C       3.22153316     -0.98721924      3.20682808
C      -2.26257402     -8.14635927     13.99860118
C       6.17065158      0.77577583      8.01428853
C       5.28038266     -0.70450825      7.77936265
C       7.44023913      1.23904855      7.01378922
C       5.07575923     14.28563911     18.35976456
C       6.11453074     -1.53403526      9.01045815
C      -4.20622330     14.01158287     10.75360837
C       4.08867232     13.76529285     19.51611637
C       6.79498564      5.96962404     -1.70494215
C      11.13714543      1.12061880      4.97749102
C       9.78028833      1.65885157      5.48934337
C       9.96623064     -7.54392216     -7.37946318
C       5.62752731      6.85603769     -2.50369410
C       6.93120220     -3.69721007      5.69888987
H       7.87718874      6.25472897     -1.23845769
H       5.08611019     -8.27782514     -8.11045772
H       2.04393592     -1.29809324      2.95378470
H      -8.61696656     -3.46529618     22.89412606
H      -2.38570210     -7.98148965     15.21521999
H       9.31505827      2.73794695      7.52641100
H       6.61842036      1.15394491      9.11048523
H       6.24332292     13.99177640     18.59969380
H       5.01408883     15.50669728     18.24867573
H      -3.44520418     -0.88732103     -6.99431562
H       6.80844438      4.79965108     -1.40635445
H      -4.35809243     14.63019454      9.69986441
H      -0.45303760     -7.90155773     -0.06410893
H       3.54832096     -0.33926822      2.22236755
H       8.12577675     -3.38206891      5.81353074
H      10.84907819     -6.71394873     -7.38844281
H      -4.70157353     14.65257817     11.68090238
   94

C       7.15101253     -6.80904013     -7.68418770
C       5.70136613     -7.62861997     -7.25101044
H       7.41445216     -5.98052666     -6.79320740
C       3.66587953     -0.91398467      4.88915500
H     -18.89185891     -7.18329637     -1.80818852
H       4.69458861     -7.02663223     -6.84890011
C       4.58278426     -1.43659846      6.30011618
H       5.73918572     -8.45215437     -6.32414914
H      -7.81523153     -6.27941515    -16.91792469
H      -7.80752040     -7.04880917    -16.78996614
C       9.06577916      1.65345097      6.97780263
H       9.80491887      1.02959003      7.74676567
C       5.66792131     -2.71538828      5.91923722
H       6.69211408      5.29740792     -4.91634616
H       5.92224788     -2.20645099      4.83805171
H      -0.14332572     -7.37322037     12.68699044
C       5.85942901     -4.09685020      6.79600843
H       4.95361038     -4.71280964      7.35257153
C       5.56501091      7.55910338     -4.72510475
H       6.35081465     -4.83803957      7.65338064
H       6.43750425      8.34122571     -5.04147688
H       4.50645288      8.01524358     -5.10216930
C       5.78075460      5.97384117     -4.43925398
H      10.49558433      4.38819084    -14.14032282
C       9.84292399      4.03722413    -13.28641814
H       9.45074686      2.07827503      4.41082044
H       5.23458906      5.21176657     -5.23301733
H      -3.00408709     13.84795180     10.96388513
C       8.54670144     -7.64700378     -8.25496915
H       2.77761190     -0.13552277      5.17264234
H     -19.27118490     -7.16726873     -1.12682598
C      -1.26403891     -8.37244434      0.62486182
H       3.48291246     -1.86567802      6.65856297
C      -1.16842653     -7.12821015     13.27910166
H      -2.07504259     -8.84336095      1.31384350
H      -3.40374375     -8.07772543     13.53443478
H      -1.16514117     -5.92179962     13.19506295
C      -3.94931925      0.01927027     -7.52167624
H       6.11177764      7.92240352     -2.26233847
C       4.14579798      6.97772405     -1.64991628
H      -4.45348340      0.92584403     -8.04905523
H       4.07503298      7.64491264     -0.60389928
H       3.56753097      5.95365042     -1.27593921
H       3.10778247      7.51865633     -2.05483211
H       8.81973944     -7.47752225     -9.45412464
H       8.44246569     -8.84601601     -8.55114331
H      10.43487292     -8.26292331     -6.52497714
H       5.45898004      1.74652313      8.33104620
H       4.21326245     -0.57079388      8.40125496
H      -2.03580319     -9.35626364     13.92876427
H       6.91183424      1.40943792      5.92695088
H      -8.74526572     -4.13751983     22.51988741
H       4.78415583     13.78899208     17.27556512
H       3.36406012     13.38838739     20.35863536
H       5.88093065     -1.96709759     10.12606508
H      17.43853706      4.39965719      0.15020408
H      -4.76113741     12.91560779     10.66977475
H      18.12870020      4.54804157      0.48195129
H       3.66694218     -1.32640338      2.13340284
H       7.19510569     -4.47933711      4.76651156
H       6.90781094     -5.83018719     -8.41651875
H       7.24835974     -1.88268138      9.26727369
C       3.23037142     -0.98727786      3.22279131
C      -2.26257430     -8.14636124     13.99860246
C       6.16461179      0.78240215      8.00698789
C       5.27823625     -0.70131551      7.78190899
C       7.43370314      1.24362071      7.00476729
C       5.07570833     14.28568073     18.35973757
C       6.10849715     -1.53372990      9.01217435
C      -4.20622187     14.01158325     10.75360504
C       4.08861262     13.76534743     19.51608761
C       6.80506457      5.94683475     -1.70085952
C      11.13982420      1.11626459      4.98293703
C       9.78214792      1.65908988      5.48791206
C       9.96599129     -7.54403980     -7.37928734
C       5.62916980      6.80393522     -2.51729350
C       6.93392978     -3.70225908      5.69263184
H       7.88236308      6.25357476     -1.23602455
H       5.08622175     -8.27788065     -8.11028863
H       2.05460368     -1.30910377      2.97603595
H      -8.61696664     -3.46529621     22.89412631
H      -2.38570248     -7.98149111     15.21522122
H       9.31181243      2.73604975      7.52394293
H       6.60742762      1.16244802      9.10453898
H       6.24314330     13.99163118     18.60006583
H       5.01418238     15.50671925     18.24835270
H      -3.44516709     -0.88730859     -6.99429441
H       6.82003156      4.77993769     -1.39278997
H      -4.35809083     14.63019462      9.69986087
H      -0.45302900     -7.90151516     -0.06410389
H       3.55531421     -0.30658964      2.25833388
H       8.12887083     -3.38968787      5.80941597
H      10.84978010     -6.71507996     -7.38919805
H      -4.70157213     14.65257855     11.68089903
   94

C       7.15098949     -6.80885943     -7.68430585
C       5.70157733     -7.62871177     -7.25086962
H       7.41443956     -5.98013163     -6.79352487
C       3.66818054     -0.90744724      4.90487681
H     -18.89185777     -7.18329597     -1.80818851
H       4.69482312     -7.02694254     -6.84838235
C       4.58624454     -1.44222890      6.30692252
H       5.73972803     -8.45237025     -6.32413341
H      -7.81522943     -6.27941382    -16.91792227
H      -7.80751837     -7.04880786    -16.78996382
C       9.06042087      1.65321449      6.97293227
H       9.79335509      1.02415996      7.74340824
C       5.67262913     -2.71697612      5.91397311
H       6.65817602      5.32736901     -4.85739299
H       5.92820239     -2.20895146      4.83227772
H      -0.14332273     -7.37322092     12.68698482
C       5.85641679     -4.10268070      6.78402607
H       4.94249907     -4.72087929      7.32445291
C       5.56289517      7.58446632     -4.81500448
H       6.34036838     -4.84272905      7.64627239
H       6.44509064      8.37304281     -5.08167639
H       4.49168474      8.04425387     -5.14640503
C       5.77264275      6.03313574     -4.36326580
H      10.49589976      4.38800480    -14.14105327
C       9.84324351      4.03704245    -13.28714330
H       9.46025228      2.08265659      4.40866968
H       5.23721743      5.23857999     -5.13863445
H      -3.00408603     13.84795227     10.96388231
C       8.54667864     -7.64675440     -8.25517884
H       2.79490911     -0.11262547      5.19325831
H     -19.27118385     -7.16726837     -1.12682602
C      -1.26402548     -8.37240447      0.62485686
H       3.49137310     -1.88729438      6.66393608
C      -1.16842268     -7.12821147     13.27909814
H      -2.07502877     -8.84333240      1.31383160
H      -3.40374139     -8.07772522     13.53443358
H      -1.16513701     -5.92180086     13.19505897
C      -3.94927513      0.01928335     -7.52165348
H       6.10893375      7.87539225     -2.29254610
C       4.15065535      6.95820669     -1.66240977
H      -4.45344645      0.92585106     -8.04903596
H       4.08547253      7.63466667     -0.62177290
H       3.56357529      5.94262842     -1.28078468
H       3.11870597      7.51383313     -2.06378600
H       8.81981132     -7.47693175     -9.45426120
H       8.44257459     -8.84566186     -8.55183934
H      10.43334953     -8.26230390     -6.52348144
H       5.45059007      1.75647641      8.30882672
H       4.21033513     -0.55980711      8.40112203
H      -2.03580128     -9.35626345     13.92876352
H       6.90824012      1.41650682      5.91646743
H      -8.74526563     -4.13751988     22.51988744
H       4.78413791     13.78918943     17.27545821
H       3.36427676     13.38821469     20.35874253
H       5.86532818     -1.96932589     10.12463264
H      17.43852423      4.39965833      0.15019919
H      -4.76113641     12.91560827     10.66977211
H      18.12868759      4.54804162      0.48194646
H       3.68480162     -1.36425468      2.16335040
H       7.20289026     -4.48554800      4.76239889
H       6.90753884     -5.83006904     -8.41663332
H       7.24272323     -1.88284391      9.26495191
C       3.23961925     -0.98725886      3.23823525
C      -2.26257159     -8.14636077     13.99860061
C       6.15854877      0.78902533      7.99963795
C       5.27611285     -0.69808930      7.78440113
C       7.42715984      1.24819415      6.99570618
C       5.07565746     14.28572220     18.35971076
C       6.10242820     -1.53340005      9.01388249
C      -4.20622083     14.01158372     10.75360227
C       4.08855289     13.76540190     19.51605902
C       6.81529539      5.92381976     -1.69833099
C      11.14243174      1.11194458      4.98838413
C       9.78397161      1.65933369      5.48647541
C       9.96574819     -7.54414759     -7.37910746
C       5.63055480      6.75197666     -2.52919887
C       6.93661456     -3.70729273      5.68637810
H       7.88681419      6.25194053     -1.23398403
H       5.08633225     -8.27792279     -8.11011425
H       2.06550996     -1.31960284      2.99835020
H      -8.61696654     -3.46529626     22.89412634
H      -2.38570005     -7.98149023     15.21521936
H       9.30851441      2.73413937      7.52145880
H       6.59639889      1.17095661      9.09852023
H       6.24296358     13.99148589     18.60043798
H       5.01427609     15.50674098     18.24802987
H      -3.44511391     -0.88728765     -6.99426688
H       6.83112312      4.75996599     -1.38119646
H      -4.35808957     14.63019480      9.69985789
H      -0.45301491     -7.90145856     -0.06409696
H       3.56187438     -0.27398362      2.29487060
H       8.13191744     -3.39731164      5.80532682
H      10.85047787     -6.71620431     -7.38994765
H      -4.70157114     14.65257907     11.68089620
   94

C       7.15099550     -6.80867511     -7.68443985
C       5.70187569     -7.62888029     -7.25072780
H       7.41444159     -5.97962120     -6.79395641
C       3.67191695     -0.89719290      4.92932365
H     -18.89185999     -7.18329685     -1.80818867
H       4.69514483     -7.02739837     -6.84776734
C       4.59217439     -1.44943010      6.31740075
H       5.74044509     -8.45268236     -6.32414275
H      -7.81523282     -6.27941550    -16.91792814
H      -7.80752163     -7.04880949    -16.78996947
C       9.05113567      1.65317699      6.96437754
H       9.77397372      1.01521206      7.73663048
C       5.67809289     -2.71991452      5.90249764
H       6.59256683      5.39591947     -4.73519370
H       5.93659914     -2.21461225      4.81932406
H      -0.14327518     -7.37313991     12.68688144
C       5.85026068     -4.11135328      6.76323140
H       4.92295080     -4.73032019      7.27911618
C       5.56106703      7.61600599     -4.97175722
H       6.32325814     -4.84829217      7.63381113
H       6.45595518      8.41384492     -5.16250745
H       4.47216212      8.08086362     -5.23377264
C       5.75796949      6.16199097     -4.21621998
H      10.49632071      4.38785729    -14.14197872
C       9.84365710      4.03684891    -13.28809332
H       9.47375729      2.09037261      4.40435473
H       5.24906483      5.31065983     -4.96390993
H      -3.00408555     13.84794160     10.96389429
C       8.54666323     -7.64651288     -8.25541806
H       2.82719350     -0.07294994      5.22772829
H     -19.27118577     -7.16726916     -1.12682601
C      -1.26400034     -8.37246218      0.62488750
H       3.50780464     -1.92591455      6.67153416
C      -1.16836749     -7.12814256     13.27901554
H      -2.07500282     -8.84335917      1.31388403
H      -3.40368365     -8.07766823     13.53437059
H      -1.16508772     -5.92173176     13.19496167
C      -3.94926243      0.01933685     -7.52171249
H       6.10009011      7.78194008     -2.34247746
C       4.15967631      6.92176517     -1.68412719
H      -4.45343486      0.92591181     -8.04908070
H       4.10531723      7.61485242     -0.65324002
H       3.55723437      5.92194035     -1.28850894
H       3.13924628      7.50562930     -2.07684464
H       8.81987472     -7.47626982     -9.45441920
H       8.44279426     -8.84527450     -8.55277164
H      10.43130328     -8.26147524     -6.52149164
H       5.43685849      1.77331220      8.27106389
H       4.20545150     -0.53907133      8.39988878
H      -2.03574099     -9.35619933     13.92869823
H       6.90108476      1.42962906      5.89919933
H      -8.74526115     -4.13751912     22.51988064
H       4.78406590     13.78957283     17.27527384
H       3.36453856     13.38800347     20.35887501
H       5.83788897     -1.97211590     10.12257797
H      17.43837817      4.39965506      0.15020648
H      -4.76113507     12.91559780     10.66978309
H      18.12855175      4.54803080      0.48193601
H       3.71741524     -1.44045817      2.21745392
H       7.21481980     -4.49757072      4.75572854
H       6.90724326     -5.82993066     -8.41672403
H       7.23388259     -1.88280725      9.25933725
C       3.25835115     -0.98771423      3.26016284
C      -2.26250979     -8.14629542     13.99853119
C       6.14860612      0.80045207      7.98796190
C       5.27272722     -0.69227636      7.78853651
C       7.41593436      1.25609762      6.98038660
C       5.07558290     14.28578061     18.35967589
C       6.09201165     -1.53377038      9.01676359
C      -4.20622018     14.01157358     10.75361368
C       4.08859977     13.76537313     19.51608868
C       6.83460478      5.87891032     -1.69865833
C      11.14537852      1.10670518      4.99538594
C       9.78603335      1.66130837      5.48331816
C       9.96542561     -7.54424521     -7.37883554
C       5.63095463      6.64957574     -2.55220701
C       6.93962954     -3.71548719      5.67445021
H       7.89188868      6.24858273     -1.23119932
H       5.08653194     -8.27801868     -8.10995690
H       2.08584684     -1.33587693      3.03478475
H      -8.61696245     -3.46529564     22.89411991
H      -2.38564357     -7.98142993     15.21515079
H       9.30273505      2.73129066      7.51688431
H       6.57897643      1.18398273      9.08935064
H       6.24267660     13.99125273     18.60107528
H       5.01438888     15.50676025     18.24745781
H      -3.44510011     -0.88724448     -6.99434558
H       6.84920517      4.72090323     -1.36505620
H      -4.35808925     14.63018583      9.69987001
H      -0.45299817     -7.90156529     -0.06410945
H       3.57318522     -0.20938612      2.36271446
H       8.13562725     -3.40941360      5.79476305
H      10.85142812     -6.71767884     -7.39099733
H      -4.70157084     14.65256910     11.68090732
