   94

C      -5.40434226     -0.56803251     -1.02614829
C      -3.90383872     -0.62111195     -0.23713775
H      -5.43948530      0.06645429     -2.10046317
C      -6.55839892     -0.26746082      0.20737653
H      -5.56901128     -1.48335277     -1.85997562
H      -3.66917582      0.61200981     -0.14056080
C      -2.36961273     -1.04199715      0.20162738
H      -4.02190318     -1.82818331      0.01914460
H      -6.00107002     -3.73394695    -11.08085471
H      -5.99335883     -4.50334095    -10.95289605
C      -1.21686524     -1.01321115     -1.01079572
H      -1.71668528     -0.14493161     -1.72348332
C       0.35482993     -0.61563940     -1.53793150
H      -1.35626882     -2.22159125     -1.23760645
H       0.36507250      0.10489963     -2.55776631
H       0.70230119     -1.47084969     -2.37462977
C       1.55968358     -0.11306782     -0.42171857
H       2.47771320      0.50984449     -1.01418846
C       1.14053659      0.66931253      1.08180360
H       2.36718565     -1.06994457     -0.37544077
H       0.76568816      1.78526358      0.65999334
H       2.29438488      0.53430436      1.51780594
C       0.27190368      0.57323329      2.60984137
H       1.19851572      1.03301177      3.28637501
C       3.24234319      3.50504662    -10.56323360
H       0.18687208     -0.66746167      2.69257110
H       2.59633639      4.31317411    -11.02261235
H      10.33279905     -4.53428062     -8.94662119
C      11.42198583     -4.23072006     -8.45913364
H      -6.39297313      0.84659670      0.73434967
H      -6.48985095     -1.05495918      1.17134857
C      -8.19606081     -0.26492357      0.01295288
H      -8.90489665      0.68178711     -0.23037702
C      -1.03468994      1.15805035      3.65538064
H      -8.95911825     -1.19321632      0.13583728
H      -0.87150106      2.38996905      3.74590469
H      -0.70611078      0.78439342      4.80033153
C      -2.77733274      1.05202904      3.81017019
H      -3.15145054      1.83123215      2.91025483
C      -4.12855780      1.20829968      4.88692964
H      -2.94088429     -0.16858564      3.73121200
H      -4.20755104      2.22352148      5.59140651
H      -4.34930113      0.35643020      5.76509635
H      -5.32039593      1.21395818      4.52118200
H      11.36912993     -3.08402903     -8.01368230
H      12.29161373     -4.29221520     -9.32866604
H      11.69440061     -5.01235538     -7.54756502
H       8.25801322     -1.13802236      9.51390964
H       5.11031657     -0.94887998     11.18679631
H       8.54346094     -1.48958867      6.54481960
H      11.27298603     -1.34579634      7.68375506
H       5.50434939     -1.23212978      8.28345537
H      12.58454348     -0.19622900      2.57438774
H      -0.57035686      6.69003769     15.00317771
H      15.31540966      0.00790440      3.68230388
H      15.56199170     -0.52463601      0.73829888
H      -0.30902841      5.38441903     12.31337892
H      18.21532509     -0.29567492      1.97781111
H      18.23423992     -0.76427247     -0.99340848
H      -8.97677746     -0.44350135     18.73299670
H      21.02087251     -0.65523075      0.10892714
H      -9.67560273     -1.06425409     15.36149228
C       7.83568874     -0.31355347      8.68068524
C       8.80344783     -0.51194699      7.26600540
C       6.11699107     -0.30189306      8.83340773
C       5.47408131     -0.13086615     10.37021514
C      10.46722140     -0.47079342      7.45141002
C      13.38476083      0.71408790      2.55975577
C      15.05356742      0.72851607      2.70386229
C      -0.28634065      6.56960110     12.55077486
C      -0.42710785      7.37990230     13.99133105
C      16.01712342      0.49998309      1.28354750
C      17.75078777      0.46845360      1.10851653
C      18.64887364      0.23327556     -0.36733733
C      20.36989083      0.20895629     -0.49871060
C      -9.49568076     -0.52128943     16.37675227
C      -9.10752159      0.18432175     17.72453296
H      20.95070930      0.03777180     -1.58176360
H      -2.41293704     -1.50887561      1.34099202
H       8.24481429      0.71962372      9.24398386
H       5.27892404      0.84976106     11.05559731
H       8.52952709      0.21377524      6.29547441
H      11.25193595      0.45282769      7.46175210
H       5.49331226      0.47900200      8.09504602
H      12.58625282      1.60225781      2.35312748
H       0.54749879      8.06941860     14.30270120
H      15.32520080      1.71247253      3.41314389
H      15.56380769      1.30539415      0.44676779
H      -0.13408368      6.99416395     11.42878829
H      18.21920066      1.46141092      1.70001410
H      18.23771876      0.99082366     -1.27068118
H      -8.89510411      1.35948531     17.77255509
H      21.02497037      1.21500156     -0.18479919
H      -1.39361839      8.14511180     14.04456288
   94

C      -5.42850466     -0.57028628     -1.03586021
C      -3.91745449     -0.64965547     -0.26242553
H      -5.46416736      0.07580531     -2.10307209
C      -6.59245098     -0.26209810      0.18803136
H      -5.60923086     -1.47835890     -1.87365743
H      -3.67504556      0.57878333     -0.15284412
C      -2.36701219     -1.07108130      0.12977587
H      -4.05424988     -1.84966959      0.01567801
H      -6.00139235     -3.73447093    -11.08293460
H      -5.99366873     -4.50385358    -10.95490686
C      -1.21078046     -1.03477270     -1.07726843
H      -1.72511005     -0.19144634     -1.81075901
C       0.37231068     -0.61395952     -1.55401294
H      -1.34285612     -2.24215316     -1.31672034
H       0.39340905      0.12377938     -2.56138732
H       0.74672004     -1.46243681     -2.38690631
C       1.55878350     -0.11472914     -0.41424578
H       2.48994792      0.48843861     -1.00582065
C       1.14654200      0.68982696      1.08020887
H       2.35138361     -1.08141137     -0.33546334
H       0.75389056      1.79685535      0.65436140
H       2.31486981      0.63954500      1.49723096
C       0.29484314      0.57405458      2.61457023
H       1.22827145      0.98150384      3.31648280
C       3.24237419      3.50553531    -10.56520166
H       0.20907872     -0.66547862      2.69935737
H       2.59629284      4.31373995    -11.02433741
H      10.33151110     -4.53599551     -8.94980845
C      11.42067016     -4.23245805     -8.46225539
H      -6.42871182      0.85122628      0.71660082
H      -6.52789872     -1.03287354      1.16504497
C      -8.23001382     -0.26514763     -0.02123562
H      -8.94498218      0.67521507     -0.27255943
C      -1.01268196      1.17695128      3.64548629
H      -8.99523466     -1.19325750      0.09209756
H      -0.84587740      2.40894134      3.72899930
H      -0.69688906      0.83004184      4.80214874
C      -2.75454874      1.06299804      3.77239871
H      -3.12446342      1.82986336      2.86121226
C      -4.10184737      1.23944079      4.84821648
H      -2.92392040     -0.15636443      3.68069214
H      -4.17526843      2.25995598      5.54521261
H      -4.32067486      0.39239232      5.73062417
H      -5.29426214      1.25034113      4.48635056
H      11.36742003     -3.08568275     -8.01708580
H      12.29051859     -4.29392901     -9.33156146
H      11.69303620     -5.01409798     -7.55068460
H       8.04737739     -1.26996420      9.86255656
H       4.89625317     -1.07817092     11.51841059
H       8.32530212     -1.64690207      6.89643351
H      11.06021900     -1.48501198      8.00616269
H       5.29550687     -1.37613363      8.61928061
H      12.19023211      0.04283279      2.48425006
H      -0.57259992      6.89007271     15.01586650
H      14.91980859      0.22139210      3.89550524
H      15.25854169     -0.58380896      0.90601359
H      -0.28541441      5.58535397     12.31709585
H      17.89475714     -0.33550222      2.05032712
H      17.96171173     -0.76163814     -0.88093225
H      -7.16416378     -0.43506111     17.54696787
H      20.75832659     -0.62106220      0.17127737
H      -7.75311921     -1.29367157     14.17468223
C       7.62317480     -0.45254626      9.02355244
C       8.58487020     -0.66202227      7.60752849
C       5.90455698     -0.44172667      9.16566164
C       5.25547267     -0.26243022     10.69787195
C      10.24843554     -0.61270036      7.78565118
C      13.01123877      0.92329180      2.62769802
C      14.66389710      0.88252512      2.87727507
C      -0.29878245      6.77029509     12.55677196
C      -0.44153533      7.57628023     13.99984109
C      15.68775655      0.47056683      1.41081921
C      17.42523757      0.45562448      1.21248861
C      18.35617359      0.24173733     -0.25239990
C      20.07787868      0.23294744     -0.41731307
C      -7.45727348     -0.63064200     15.08748019
C      -7.20214377      0.05831176     16.46409770
H      20.64687605      0.07067350     -1.50915986
H      -2.35984542     -1.55763101      1.26057617
H       8.03161486      0.58332100      9.58212971
H       5.06489367      0.72095231     11.38028132
H       8.30400967      0.05820353      6.63525786
H      11.02638156      0.31634115      7.80951796
H       5.28433199      0.33800524      8.42351370
H      12.27987713      1.84052029      2.32542312
H       0.53144455      8.26930335     14.30902210
H      14.91531434      1.87071581      3.58538870
H      15.25710632      1.26358685      0.55078438
H      -0.16984940      7.19560386     11.43195102
H      17.86345709      1.47313435      1.78021228
H      17.96865486      1.02314870     -1.14530624
H      -7.19554479      1.22391381     16.71009916
H      20.74492046      1.23570799     -0.11796605
H      -1.41175386      8.33643562     14.05910628
   94

C      -5.45257944     -0.57807808     -1.06689560
C      -3.92935070     -0.68206587     -0.31303322
H      -5.49050710      0.07758555     -2.12809058
C      -6.62890479     -0.26035765      0.14409924
H      -5.64990148     -1.48049685     -1.90614407
H      -3.67905833      0.54212005     -0.19816576
C      -2.36392078     -1.10205267      0.03536106
H      -4.08377380     -1.87231359     -0.00555689
H      -6.00207692     -3.73549043    -11.08651333
H      -5.99432521     -4.50484580    -10.95832028
C      -1.19968483     -1.05892002     -1.16217522
H      -1.72672639     -0.24307113     -1.91881608
C       0.39434956     -0.61524123     -1.58384545
H      -1.32378783     -2.26556017     -1.41270609
H       0.42622948      0.13922948     -2.57858326
H       0.79643525     -1.45717059     -2.41145076
C       1.56417833     -0.11982688     -0.42236877
H       2.51026242      0.45945605     -1.01327376
C       1.16261404      0.71306276      1.05907025
H       2.33891801     -1.09647829     -0.30663752
H       0.75290627      1.80962444      0.62517330
H       2.33895748      0.75028508      1.45646037
C       0.32910546      0.57626475      2.59836936
H       1.26837129      0.92336730      3.32586091
C       3.24293944      3.50642559    -10.56865696
H       0.23419560     -0.66128705      2.68575062
H       2.59665001      4.31471058    -11.02735610
H      10.33105625     -4.53758387     -8.95290858
C      11.42017798     -4.23407195     -8.46526740
H      -6.46656875      0.85520827      0.66775309
H      -6.56582104     -1.01074298      1.13617366
C      -8.26737280     -0.26862452     -0.07357634
H      -8.99026325      0.66569835     -0.32658761
C      -0.98010879      1.21396227      3.60069173
H      -9.03481103     -1.19543269      0.03874419
H      -0.80100210      2.44468080      3.67657434
H      -0.68731774      0.89535058      4.77085020
C      -2.72233735      1.10601607      3.68100621
H      -3.07318601      1.85705530      2.75008583
C      -4.08378743      1.32499773      4.72780107
H      -2.90331663     -0.11182767      3.58497885
H      -4.15057755      2.35335086      5.41311828
H      -4.31877054      0.48351618      5.60988801
H      -5.27402604      1.35071280      4.36103648
H      11.36662266     -3.08720389     -8.02039118
H      12.29023864     -4.29553643     -9.33435421
H      11.69250144     -5.01569870     -7.55368085
H       7.88319629     -1.40087489     10.18446595
H       4.79771954     -1.19774467     11.84777783
H       8.13810040     -1.80663287      7.22132867
H      10.87868102     -1.62709868      8.31094140
H       5.12787905     -1.51432288      8.93385955
H      11.79882420      0.31320360      2.40452877
H      -0.52589535      7.21296304     15.01553924
H      14.51774880      0.44414707      4.08919064
H      14.95640673     -0.66117116      1.10300291
H      -0.08560768      5.96996257     12.27916708
H      17.57833848     -0.37978311      2.12745877
H      17.68872715     -0.75828449     -0.76451963
H      -5.62870583     -0.64860910     16.63058992
H      20.49552431     -0.58654191      0.23171080
H      -6.15578127     -1.83306357     13.49955009
C       7.45483727     -0.58954180      9.34169780
C       8.40077451     -0.81413506      7.91991103
C       5.73711646     -0.57541909      9.47115048
C       5.09931247     -0.38153176     11.00495007
C      10.06375752     -0.75791391      8.09056365
C      12.63494214      1.14897757      2.67709451
C      14.26388359      1.04406449      3.03524070
C      -0.24575596      7.14067185     12.53596419
C      -0.41483857      7.90402529     14.00024792
C      15.35825419      0.42567120      1.55591754
C      17.10031098      0.43664117      1.32346430
C      18.06321736      0.24953477     -0.13185995
C      19.78473703      0.25687003     -0.33497956
C      -5.53309997     -1.07419717     14.14117866
C      -5.46509722     -0.29983988     15.50511090
H      20.33945704      0.10439437     -1.43678248
H      -2.30539320     -1.60379117      1.15695531
H       7.86617786      0.44927348      9.89254298
H       4.94666560      0.60479070     11.69261813
H       8.11051376     -0.09979863      6.94669529
H      10.83412614      0.17661675      8.13551541
H       5.11669732      0.20293550      8.72848462
H      11.99123915      2.09888059      2.28891185
H       0.54495272      8.61145631     14.31959564
H      14.49670145      2.03590471      3.74304324
H      14.94954574      1.19193702      0.66147310
H      -0.16873639      7.58297491     11.41243839
H      17.50595668      1.47876105      1.86562448
H      17.69784772      1.05714055     -1.01047125
H      -5.86970823      0.77370570     15.82821949
H      20.46337807      1.25662744     -0.05147092
H      -1.40351348      8.63920235     14.07239175
   94

C      -5.48297367     -0.59279513     -1.11524210
C      -3.94676785     -0.71703305     -0.38288029
H      -5.52448586      0.06945608     -2.17224498
C      -6.67455214     -0.26528756      0.07986744
H      -5.69582307     -1.49198157     -1.95307282
H      -3.68983490      0.50366858     -0.26952850
C      -2.36740253     -1.13228902     -0.07293240
H      -4.11658815     -1.89424814     -0.03766784
H      -6.00314757     -3.73704037    -11.09145973
H      -5.99534555     -4.50634900    -10.96298517
C      -1.19045579     -1.08427655     -1.25747798
H      -1.72775014     -0.29963406     -2.04092345
C       0.41392009     -0.61942418     -1.62210065
H      -1.30537537     -2.29080406     -1.51610217
H       0.45704281      0.14971119     -2.60529972
H       0.84467401     -1.45600153     -2.44169470
C       1.56667742     -0.12574437     -0.43905184
H       2.53020300      0.42514293     -1.02797894
C       1.17346715      0.74246177      1.02417629
H       2.32061307     -1.11183183     -0.28124958
H       0.75246378      1.82732085      0.57425589
H       2.34974160      0.86354680      1.40652812
C       0.34852633      0.59561538      2.56502545
H       1.28983225      0.88050886      3.31775785
C       3.24389733      3.50766902    -10.57329817
H       0.23960018     -0.63907016      2.66094529
H       2.59730102      4.31604153    -11.03140892
H      10.33120414     -4.53891240     -8.95583849
C      11.42029770     -4.23543414     -8.46812482
H      -6.51523716      0.85623087      0.59108257
H      -6.61032316     -0.98930192      1.09045908
C      -8.31477229     -0.27890728     -0.14116686
H      -9.04780127      0.64934780     -0.38964392
C      -0.96855886      1.27874312      3.52336571
H      -9.08416589     -1.20317835     -0.01860719
H      -0.77191589      2.50769521      3.58507301
H      -0.70237832      0.99893496      4.70900452
C      -2.71363239      1.18853556      3.56429367
H      -3.03638758      1.91290671      2.60288664
C      -4.10199551      1.45952318      4.56405188
H      -2.90895265     -0.02755214      3.46681124
H      -4.15974702      2.49309549      5.24250745
H      -4.38549036      0.62811091      5.44072318
H      -5.28493365      1.52178938      4.17752821
H      11.36652017     -3.08847191     -8.02353534
H      12.29055228     -4.29692099     -9.33700938
H      11.69259228     -5.01704366     -7.55652272
H       7.88107422     -1.52826408     10.43780636
H       5.04166936     -1.27498611     12.22356113
H       8.03847325     -1.97258008      7.48035547
H      10.79717330     -1.77944798      8.56042615
H       5.09672363     -1.62916406      9.24569153
H      11.41778402      0.61776776      2.30751745
H      -0.60349901      7.52148717     15.05315575
H      14.12041635      0.67753104      4.25492184
H      14.65861117     -0.74753044      1.32390135
H       0.04799461      6.45195603     12.25430752
H      17.27219118     -0.43334100      2.20314951
H      17.41530012     -0.75159032     -0.64925277
H      -4.37701969     -0.97591320     15.89467073
H      20.23332031     -0.55187164      0.28391994
H      -4.65594297     -2.64607770     13.08651036
C       7.43028399     -0.71922779      9.60376672
C       8.32259877     -0.97178094      8.15667475
C       5.71703800     -0.68599292      9.76002410
C       5.16209525     -0.46841758     11.32457878
C       9.98745484     -0.91458305      8.30449694
C      12.26576939      1.39779345      2.69121419
C      13.85651415      1.21354714      3.17104890
C      -0.29082221      7.57387931     12.55476685
C      -0.49415518      8.24593390     14.06095950
C      15.03630671      0.36832882      1.72142080
C      16.78216615      0.41100238      1.44055999
C      17.77155691      0.25800703     -0.00960800
C      19.49131800      0.28111634     -0.25661057
C      -4.07198184     -1.70141819     13.47564594
C      -3.99411449     -0.80376463     14.78113124
H      20.02749909      0.13952794     -1.37019020
H      -2.26098216     -1.63795197      1.04250925
H       7.86233110      0.32383323     10.13115665
H       5.12137190      0.52646529     12.01940537
H       8.00446639     -0.26407133      7.18876553
H      10.74725782      0.02548407      8.40228522
H       5.08330085      0.09082519      9.02847364
H      11.73074758      2.38032656      2.22662250
H       0.44684340      8.95961393     14.42191033
H      14.07130657      2.20963758      3.87836085
H      14.64602507      1.09569350      0.78730756
H      -0.25597443      8.06365118     11.44841997
H      17.15548407      1.47502824      1.95825289
H      17.42527967      1.09620507     -0.86702061
H      -4.64567764      0.16202298     15.04913439
H      20.18191102      1.27771897      0.00935200
H      -1.50356004      8.95080816     14.15276782
   94

C      -5.52256528     -0.61453736     -1.17912768
C      -3.97304279     -0.75433791     -0.46882187
H      -5.56858158      0.05151742     -2.23372309
C      -6.73270877     -0.27785990     -0.00306839
H      -5.74893931     -1.51286508     -2.01316968
H      -3.71162491      0.46370201     -0.36206869
C      -2.38018521     -1.16071777     -0.19209975
H      -4.15521118     -1.91503380     -0.07886700
H      -6.00450852     -3.73923851    -11.09799046
H      -5.99662781     -4.50847682    -10.96909452
C      -1.18618069     -1.11091072     -1.36028360
H      -1.73103307     -0.36127880     -2.17373258
C       0.42786545     -0.62807270     -1.66808563
H      -1.29095235     -2.31832547     -1.62251775
H       0.48266351      0.15115593     -2.64296243
H       0.88762006     -1.46255021     -2.47498137
C       1.56282302     -0.13138132     -0.46460008
H       2.54697886      0.38474216     -1.04980611
C       1.17450079      0.78416285      0.97114962
H       2.29197326     -1.12568838     -0.25645714
H       0.75036233      1.85503111      0.49342964
H       2.34400726      0.97993746      1.34490869
C       0.34341136      0.64857270      2.50879108
H       1.28032288      0.88000318      3.28646417
C       3.24533491      3.50916876    -10.57884307
H       0.21961706     -0.58196661      2.62543832
H       2.59834418      4.31761011    -11.03627660
H      10.33165230     -4.53904622     -8.95837883
C      11.42071482     -4.23566203     -8.47054493
H      -6.57871944      0.85167649      0.49149215
H      -6.66558957     -0.97105479      1.02789941
C      -8.37521954     -0.29716198     -0.22540672
H      -9.12001840      0.62483939     -0.46508375
C      -0.98912961      1.38552722      3.40309145
H      -9.14623504     -1.21787972     -0.08450405
H      -0.78244998      2.61447439      3.42646125
H      -0.74358814      1.17351693      4.60662182
C      -2.73777626      1.30278581      3.42508477
H      -3.04238587      1.98805185      2.42986876
C      -4.15154782      1.61408885      4.38102303
H      -2.93812408      0.08661362      3.33033752
H      -4.19993089      2.64837483      5.05976333
H      -4.48871147      0.79353960      5.24880445
H      -5.32471571      1.71862501      3.97228927
H      11.36689793     -3.08872377     -8.02590730
H      12.29113283     -4.29717438     -9.33926054
H      11.69292305     -5.01750559     -7.55912257
H       8.15065783     -1.67029005     10.67392906
H       5.64608122     -1.40489978     12.76715447
H       8.05226197     -2.13888591      7.72082141
H      10.87406945     -1.95395174      8.69917576
H       5.31031017     -1.75024173      9.72481366
H      11.24386880      0.75967441      1.98836385
H      -0.78795245      7.70699568     15.14920284
H      13.71704619      0.80140982      4.34972408
H      14.25914660     -0.75799448      1.20936627
H      -0.16423964      6.78351840     12.29083539
H      16.98668938     -0.63984760      2.19703711
H      17.03164817     -0.71999648     -0.55423751
H      -3.41156331     -1.18353260     15.08626805
H      19.89254972     -0.52495897      0.29206166
H      -3.33538041     -3.30449874     12.61250588
C       7.63415954     -0.85847798      9.88013035
C       8.39182659     -1.13408297      8.36356858
C       5.94637933     -0.80518347     10.21425657
C       5.60839186     -0.60730184     11.84783392
C      10.06692482     -1.09222375      8.41582003
C      12.06061037      1.51152198      2.47963557
C      13.54286296      1.32351094      3.23448061
C      -0.46200807      7.90254101     12.64149101
C      -0.66614186      8.47272635     14.18973438
C      14.76816093     -0.24531861      2.21265263
C      16.37719863      0.28195713      1.60191837
C      17.38176842      0.26386189      0.12966596
C      19.10337123      0.30027563     -0.19480007
C      -3.59865623     -2.15248769     12.70565174
C      -3.04602267     -1.29551914     13.95739992
H      19.60337098      0.17984739     -1.32931152
H      -2.22869430     -1.65925594      0.92057760
H       8.10547566      0.19167832     10.35857466
H       5.67353075      0.38609882     12.54829547
H       7.99975286     -0.43028991      7.42150153
H      10.82301086     -0.15226328      8.56137562
H       5.27715417     -0.02502492      9.51960189
H      11.47026509      2.50846841      2.12710277
H       0.28074528      9.15877218     14.58736912
H      13.53160837      2.26880619      4.04774691
H      14.87162475      2.74013880      1.28934110
H      -0.39551439      8.43520178     11.55670980
H      16.83463975      1.27088132      2.19364352
H      17.02673093      1.13841999     -0.68083785
H      -3.46824982     -0.22814111     14.30207201
H      19.81834970      1.28702513      0.04921523
H      -1.67440217      9.17480935     14.31194853
   94

C      -5.60797873     -0.66677708     -1.31664562
C      -4.03800716     -0.81431487     -0.64176110
H      -5.66566741     -0.00257888     -2.37240165
C      -6.84218730     -0.32393192     -0.16408839
H      -5.84683298     -1.56946583     -2.14075934
H      -3.77730116      0.40342833     -0.56125771
C      -2.42978997     -1.20002056     -0.38999864
H      -4.22607907     -1.95031514     -0.18957743
H      -6.00758519     -3.74465208    -11.11334588
H      -5.99946784     -4.51371552    -10.98341075
C      -1.20487677     -1.15378015     -1.52966417
H      -1.75410367     -0.45029927     -2.38201531
C       0.42004506     -0.65967080     -1.78393501
H      -1.29606018     -2.36533125     -1.78197236
H       0.48899305      0.11130049     -2.76492086
H       0.91208426     -1.50545898     -2.56025379
C       1.53888116     -0.13643359     -0.57117685
H       2.55267860      0.32198485     -1.15249652
C       1.14153802      0.87650668      0.79469074
H       2.23317999     -1.13316967     -0.27867211
H       0.73829856      1.92343476      0.25267985
H       2.29720683      1.13073928      1.17750332
C       0.25154658      0.81631505      2.30402004
H       1.16628975      1.03107056      3.11425239
C       3.25079045      3.51242827    -10.59146439
H       0.12126109     -0.40570935      2.48144276
H       2.60269060      4.32087457    -11.04732469
H      10.33472048     -4.53956369     -8.96013408
C      11.42384313     -4.23612581     -8.47248264
H      -6.69675176      0.81891157      0.30129500
H      -6.76376117     -0.97829092      0.89020235
C      -8.49045339     -0.34411075     -0.37087886
H      -9.25023637      0.57323356     -0.58548520
C      -1.12167748      1.62327977      3.07205650
H      -9.26237330     -1.25643300     -0.18440971
H      -0.93620294      2.85331151      2.98306804
H      -0.88249958      1.56743892      4.29421827
C      -2.87562527      1.50093603      3.14189508
H      -3.20194356      2.11901666      2.11087409
C      -4.31523750      1.80341850      4.07462075
H      -3.04244882      0.27732513      3.06834960
H      -4.37136996      2.83695228      4.75522290
H      -4.68235699      0.98807330      4.93638389
H      -5.48759990      1.92445533      3.66338200
H      11.36997226     -3.08886403     -8.02871742
H      12.29418707     -4.29815787     -9.34121713
H      11.69597311     -5.01735847     -7.56052195
H       8.78689936     -1.90384001     11.22624093
H       6.35115688     -1.82616064     13.57056419
H       8.17204681     -2.33086890      8.21447216
H      11.07993642     -2.14177165      8.79471536
H       5.92117982     -2.19072935     10.66666618
H      11.13464120      1.09317201      1.65366559
H      -0.98815972      7.88400642     15.31545776
H      12.94104854      1.14579087      4.46478716
H       5.69817739     -3.56867417     21.55670735
H      -0.70055470      7.07671755     12.39590917
H      16.53457597     -0.23095367      2.25907836
H      16.71112494     -0.79045846     -0.41087588
H      -2.64764037     -0.94392498     13.76549091
H      19.54981464     -0.48308548      0.37019522
H      -2.53034105     -3.54656263     11.69092613
C       8.13925213     -1.12599136     10.49872962
C       8.57254604     -1.34068314      8.84712575
C       6.52430649     -1.18603780     11.06559728
C       6.34970269     -0.97516633     12.70820830
C      10.23382164     -1.28481375      8.63639879
C      11.91098384      1.82221090      2.22922902
C      13.09458747      1.74129350      3.39617482
C      -0.65735821      8.21574258     12.79824584
C      -0.84746503      8.68054254     14.38366608
C      22.39236694      1.32689096    -16.77458409
C      15.96659188      0.59278609      1.53631997
C      17.03024089      0.29090169      0.11332201
C      18.76165005      0.31492373     -0.16384325
C      -2.05052734     -2.46816918     11.78349537
C      -2.78156344     -1.29707148     12.63331436
H      19.29370087      0.14562707     -1.27835566
H      -2.23414135     -1.66810338      0.72840022
H       8.59791892     -0.05352290     10.93595007
H       6.40153716     -0.00639175     13.43453623
H       8.03722884     -0.61761673      7.99206259
H      10.98230460     -0.33507536      8.75822470
H       5.74672128     -0.44167282     10.45463091
H      11.59280667      2.82394208      1.63756963
H       0.13080402      9.31303046     14.79204799
H      12.68016186      2.58726464      4.20613952
H      15.76343049      1.73905739      4.04258211
H      -0.50991602      8.74762018     11.72152934
H      16.19157710      1.80537783      1.56760504
H      16.68537378      1.06918684     -0.79710159
H      -2.33120982     -0.26648569     13.04831067
H      19.49358745      1.29920697      0.04317278
H      -1.83637212      9.40237347     14.54164743
   94

C      -5.96831181     -0.78728218     -1.45137719
C      -4.36505105     -1.03686896     -0.87927202
H      -6.03789975     -0.08745766     -2.48503622
C      -7.15500651     -0.44294953     -0.25251015
H      -6.23835741     -1.66219893     -2.29300037
H      -4.08741076      0.17410889     -0.80355137
C      -2.74864222     -1.47021254     -0.77027367
H      -4.57524620     -2.14355921     -0.37066004
H      -6.02485786     -3.75811439    -11.14852468
H      -6.01581777     -4.52686842    -11.01678404
C      -1.50068200     -1.37593326     -1.90970504
H      -2.08847874     -0.73156991     -2.78230453
C       0.12552648     -0.85608796     -2.19914509
H      -1.54425770     -2.59491820     -2.13153387
H       0.19400022     -0.14518670     -3.22451090
H       0.68763200     -1.73147531     -2.88597881
C       1.22202799     -0.19537256     -1.03205251
H       2.26183755      0.21441937     -1.59954439
C       0.61654590      0.99046495      0.09817791
H       1.91088633     -1.13407844     -0.58184484
H       0.16972556      1.97092503     -0.52498121
H       1.72979457      1.42414237      0.44998528
C      -0.46013867      0.91478614      1.51921638
H       0.43713826      1.30665985      2.27165443
C       3.25429827      3.51969963    -10.62373806
H      -0.37334955     -0.28160320      1.87094470
H       2.60416178      4.32865980    -11.07579388
H      10.33407618     -4.54177590     -8.95806065
C      11.42237489     -4.23789980     -8.46883352
H      -7.01878101      0.69274988      0.23176300
H      -7.07832078     -1.10640742      0.79593943
C      -8.80511515     -0.41920860     -0.44299466
H      -9.55100614      0.51348979     -0.63674831
C      -1.88249224      1.58020796      2.39816641
H      -9.58163460     -1.32054102     -0.23328277
H      -1.84178272      2.82193775      2.26844178
H      -1.51780163      1.58593329      3.58492625
C      -3.55238702      1.18971228      2.99883373
H      -4.11668082      1.85925508      2.12126573
C      -4.75452620      1.28658915      4.27515464
H      -3.55874278     -0.04361946      2.92034861
H      -4.86633537      2.31829110      4.95751741
H      -4.85404149      0.45208605      5.19363254
H      -5.98384607      1.23667182      4.05953074
H      11.36739597     -3.09086313     -8.02459816
H      12.29357180     -4.29949697     -9.33676527
H      11.69376333     -5.01905089     -7.55657742
H       8.41973902     -3.07241607     12.77769528
H       4.72086170     -3.06628835     14.88827365
H       8.93182353     -3.70571691     10.02263042
H      11.65191592     -2.55085948     10.12894569
H       5.83192940     -4.21417464     12.53614809
H      10.79727175      1.45347778      1.64039705
H      -1.31553033      7.86940242     15.77622920
H      12.57919598      1.57200095      4.81566077
H      13.64659831     -0.95162179      1.86779260
H      -2.10624241      7.18900134     13.01713316
H      16.38269634     -0.44444144      2.30849809
H      16.36707272     -0.64777435     -0.37253336
H       2.08205974      1.77023897      9.59004537
H      19.24761670     -0.37609448      0.39500127
H       4.10623098      2.55779918      7.60892167
C       8.31755049     -2.19331447     11.91623491
C       9.07026712     -2.52238360     10.39539503
C       4.75141359     -4.75371492     12.85186121
C       5.74068325     -2.48538739     14.56730982
C      10.64633783     -1.89974896     10.32003001
C      11.58859636      2.06943263      2.32214516
C      12.60605770      1.73733294      3.58982310
C      -1.42745622      8.15553061     13.29541683
C      -1.24457041      8.68473858     14.85625534
C      14.00527946      0.07047963      2.47831100
C      15.61972723      0.34894098      1.73440975
C      16.68206645      0.35985320      0.28467906
C      18.40658586      0.41837014     -0.06145007
C       3.91554050      3.55314822      8.25318365
C       2.79921449      2.66613494      9.19572252
H      18.90470554      0.31217856     -1.19955804
H      -2.48983525     -1.94755074      0.33521500
H       8.77784442     -1.29043406     12.64169731
H       5.53519825     -1.54576773     15.32127687
H       8.71480512     -2.24287892      9.22699187
H      11.13744949     -0.84777487      9.95804728
H       8.82940420      1.91696252     13.57383417
H      11.54787178      3.05930509      1.63243911
H      -0.18567190      9.26613574     15.09029371
H      12.64112743      2.83694391      4.16881000
H      14.26333718     -0.36250457      3.61226766
H      -1.47437429      8.76857259     12.25231670
H      15.76111391      1.53937100      2.03801364
H      16.32194531      1.28519829     -0.45910865
H       1.83027232      2.51283087      9.86886126
H      19.13560381      1.40119904      0.16237431
H      -2.15282491      9.47981802     15.11006664
   94

C      -5.91070305     -0.65242695     -1.13500168
C      -4.34681959     -0.95447637     -0.50193873
H      -5.93855249      0.07563207     -2.14889023
C      -7.05864615     -0.27909718      0.09426431
H      -6.18992013     -1.50066951     -2.00315766
H      -4.03989292      0.23564062     -0.31488058
C      -2.75036518     -1.44701238     -0.51158409
H      -4.58840847     -2.07941517     -0.04551504
H      -6.01942977     -3.74720505    -11.11752939
H      -6.01072531     -4.51627939    -10.98768561
C      -1.59518778     -1.34064344     -1.72834035
H      -2.21024606     -0.69018556     -2.57752491
C      -0.00637921     -0.74243189     -2.00737932
H      -1.62664098     -2.54921414     -1.99816060
H       0.04057176      0.05203211     -2.96801362
H       0.58245469     -1.55628414     -2.74687038
C       0.97665188     -0.12666667     -0.72603622
H       1.97637235      0.36909918     -1.29635097
C       0.34538931      0.85212712      0.59893374
H       1.69626875     -1.09604349     -0.40312126
H      -0.23164290      1.85024552      0.11925693
H       1.40804883      1.45014301      0.83082354
C      -0.38446781      0.56510341      2.19477521
H       0.61927721      0.69791876      2.90371566
C       3.23839116      3.51227311    -10.61069478
H      -0.36835407     -0.67054225      2.37667463
H       2.59082584      4.32261931    -11.06393028
H      10.33371164     -4.54749766     -8.97200326
C      11.42302381     -4.24438577     -8.48459631
H      -6.90461429      0.83121189      0.62976879
H      -7.02019142     -0.94529967      1.14397732
C      -8.69091183     -0.29640815     -0.18240382
H      -9.42428603      0.61429110     -0.48547574
C      -1.53370118      1.22713812      3.37774488
H      -9.46104409     -1.22480338     -0.11416681
H      -1.41190285      2.46691200      3.39961751
H      -1.15555781      1.04033625      4.55112020
C      -3.23585377      0.97547438      3.62742498
H      -3.69962341      1.66599221      2.70429149
C      -4.36505314      1.22627489      4.90948962
H      -3.39382855     -0.23852964      3.45706796
H      -4.36685103      2.26106419      5.59211515
H      -4.46663848      0.41361256      5.84256595
H      -5.58695213      1.25051399      4.68025046
H      11.36891661     -3.09670617     -8.04195249
H      12.29390627     -4.30683060     -9.35278069
H      11.69506562     -5.02505728     -7.57214312
H       6.69367472     -2.71485266     13.56069755
H       3.12988327     -2.09959893     14.55634433
H       7.62330602     -3.81298010     11.05630930
H      10.37196466     -2.97867422     10.84543128
H       4.16671276     -3.17027013     12.07130016
H      11.63613744      2.10427595      1.00384873
H      -1.26131439      7.49186177     15.36233297
H      13.33032822      2.13476380      4.62952139
H      13.57683243     -1.06236979      2.01969386
H      -1.09062558      6.18728546     12.66924361
H      16.26398632     -0.67412178      2.29460754
H      16.26710631     -0.74486004     -0.36718088
H       5.78920710      3.74660421      6.89470281
H      19.16029218     -0.39137740      0.38525912
H       6.82972182      0.87926932      4.87178440
C       6.41210870     -2.11992071     12.50173424
C       7.77900760     -2.64765173     11.48158839
C       4.66437990     -2.08332327     12.42602894
C       3.83879748     -1.49473357     13.78149581
C       9.45823355     -2.33528087     11.34447599
C      12.28548919      2.59805233      1.91980554
C      12.98329773      2.19401143      3.43062473
C      -1.02384883      7.36925125     12.91134904
C      -1.12569101      8.18253351     14.35075344
C      13.97871050     -0.03668308      2.59158603
C      15.56420523      0.19963264      1.76921540
C      16.58291765      0.25498479      0.29368552
C      18.29844292      0.38609260     -0.05391236
C       6.95372044      2.03221710      5.22328803
C       6.52535884      3.40846651      6.01834522
H      18.77438822      0.29539944     -1.20134399
H      -2.44980356     -2.01358856      0.53793243
H       6.78279658     -1.00879515     12.93129053
H       3.49314461     -0.38828991     14.14361403
H       7.40342287     -2.29250361     10.34699166
H      10.07685773     -1.28790039     11.27164571
H       3.97647320     -1.56676340     11.52623378
H      12.34244781      3.65991125      1.33984009
H      -0.13920822      8.86351284     14.64055707
H      13.21507859      3.31185974      3.92847063
H      14.26060698     -0.38912770      3.74582992
H      -0.93715216      7.81057212     11.78958597
H      15.81676265      1.37503842      2.05793448
H      16.25314283      1.21430638     -0.42293962
H       6.03179519      4.28423853      6.66081074
H      19.02765748      1.37291679      0.15363161
H      -2.08997728      8.94880493     14.41972493
   94

C      -5.74110535     -0.59176980     -1.00029248
C      -4.17767984     -0.86493917     -0.34662447
H      -5.77052108      0.13600063     -2.01352538
C      -6.93124212     -0.22178392      0.19325793
H      -6.01758591     -1.44437482     -1.86600316
H      -3.87516852      0.32055639     -0.13106991
C      -2.56417174     -1.31132883     -0.36663933
H      -4.40775630     -1.98770236      0.12308027
H      -6.01091195     -3.73876491    -11.09629287
H      -6.00283118     -4.50804691    -10.96766937
C      -1.41599870     -1.20318526     -1.58127545
H      -2.03103516     -0.56629341     -2.44270856
C       0.16816911     -0.56918089     -1.78089877
H      -1.45483466     -2.40478190     -1.88689546
H       0.21635624      0.26544742     -2.70602920
H       0.76109529     -1.36109884     -2.54472165
C       1.13160067      0.02264783     -0.46609664
H       2.14240561      0.51317696     -1.01835033
C       0.66324823      0.94335507      0.95469612
H       1.81398571     -0.98010916     -0.17185887
H       0.09596122      1.95772434      0.50870459
H       1.73309304      1.53120462      1.19770253
C      -0.00207785      0.63618081      2.56001780
H       0.99488780      0.67032573      3.29743366
C       3.23620597      3.51125904    -10.59070489
H      -0.06499117     -0.60058555      2.67214656
H       2.58942795      4.32106360    -11.04598602
H      10.33980680     -4.54557749     -8.99065583
C      11.42940920     -4.24252151     -8.50390566
H      -6.78585771      0.88315589      0.74245639
H      -6.90080007     -0.87328142      1.25198427
C      -8.55792947     -0.26863167     -0.12925182
H      -9.30150933      0.62377381     -0.46422212
C      -1.18713347      1.30722436      3.68523774
H      -9.32548097     -1.20261416     -0.09708300
H      -1.02069630      2.54063492      3.72826508
H      -0.84674108      1.13261284      4.87100053
C      -2.90289142      1.05823392      3.78162224
H      -3.32320951      1.73541122      2.82715395
C      -4.11963333      1.29069608      4.98492745
H      -3.08719831     -0.14632653      3.56271570
H      -4.15317815      2.32479858      5.66639807
H      -4.27158697      0.47510125      5.90827088
H      -5.32818410      1.32071579      4.69411429
H      11.37608096     -3.09499860     -8.06081530
H      12.30039053     -4.30448671     -9.37199089
H      11.70390227     -5.02492278     -7.59370692
H       6.14554225     -2.22902753     13.39584509
H       2.70849830     -1.93271231     14.27195560
H       6.89626514     -3.15920035     10.77715599
H       9.68069565     -2.66533236     11.21952932
H       3.60217042     -2.47685515     11.57050640
H      11.43529831      2.58624371      1.01283628
H      -1.32663080      7.58249338     15.34126453
H      13.01831803      2.63491479      4.69047956
H      13.43163278     -0.88941042      2.28950213
H      -1.07165184      6.26938183     12.64671058
H      15.96413086     -0.52197772      2.39090371
H      16.00069954     -0.67906850     -0.23627495
H       6.77815938     -3.94383086      4.52572467
H      18.89587262     -0.33704455      0.42892601
H       8.18877436     -1.74314715      3.55897692
C       5.86068415     -1.55967487     12.38656846
C       7.12199282     -2.05271815     11.29631567
C       4.15257089     -1.50901160     12.12389716
C       3.19895937     -1.18104048     13.46031028
C       8.78617184     -1.86550756     11.41820634
C      12.02897808      3.04529713      1.97815600
C      12.63698053      2.63852468      3.50474837
C      -1.04022415      7.45419084     12.88467011
C      -1.17804354      8.26483172     14.32515139
C      13.72273452      0.22527645      2.75600931
C      15.29619588      0.37765790      1.86889305
C      16.30820014      0.34316457      0.39251394
C      18.02168659      0.43733767      0.00770821
C       8.11983387     -0.65011484      4.11617719
C       7.35058953      1.68932879      5.21633106
H      18.48190004      0.33628047     -1.14635815
H      -2.22184385     -1.87405880      0.66918182
H       6.23536931     -0.46725393     12.85095446
H       2.95479912     -0.14601263     14.03874806
H       6.85624474     -1.50693339     10.21552673
H       9.49874081     -0.88736223     11.30025203
H       3.65541867     -0.76787423     11.25839719
H      12.11726144      4.11928294      1.43141719
H      -0.19658299      8.94956874     14.62546401
H      12.63904716      3.74598507      4.06786124
H      14.12593633      0.08232282      3.92053552
H      -0.88928791      7.87919728     11.76264651
H      15.46166613      1.58684249      2.04046120
H      15.99275887      1.30538923     -0.32498802
H       6.90321483      2.66245084      5.77129573
H      18.77618454      1.41091204      0.18757796
H      -2.14573712      9.02803974     14.38493692
   94

C      -5.60205313     -0.58170644     -0.92776175
C      -4.01476811     -0.87491763     -0.31046499
H      -5.63284580      0.16042537     -1.93036333
C      -6.84992569     -0.20677877      0.21375924
H      -5.90007071     -1.42410687     -1.79661024
H      -3.70701214      0.29674854     -0.05190016
C      -2.37646297     -1.28429167     -0.36437176
H      -4.25290112     -1.96877006      0.21946251
H      -6.00107242     -3.73394911    -11.08085477
H      -5.99336123     -4.50334310    -10.95289611
C      -1.15747024     -1.17905296     -1.51451366
H      -1.74989127     -0.57023234     -2.41507047
C       0.46532810     -0.58159357     -1.52288496
H      -1.21248255     -2.37018728     -1.86767960
H       0.54561140      0.30187559     -2.40170152
H       1.07720371     -1.35796639     -2.29125798
C       1.46707437     -0.10777294     -0.17686040
H       2.51510332      0.33687324     -0.69780658
C       1.10444354      0.86252284      1.24147850
H       2.10043082     -1.12756398      0.16372304
H       0.56426334      1.88924425      0.79958913
H       2.17124965      1.45986635      1.49158917
C       0.41302175      0.54114597      2.82780092
H       1.39152640      0.46116697      3.59409800
C       3.24231175      3.50508117    -10.56324283
H       0.30292332     -0.69077844      2.91635859
H       2.59630495      4.31320867    -11.02262158
H      10.33254329     -4.53341522     -8.94656194
C      11.42199937     -4.23073302     -8.45912992
H      -6.71363004      0.89246587      0.77711017
H      -6.83037723     -0.82712560      1.29049212
C      -8.47598115     -0.27072178     -0.14726349
H      -9.23834319      0.60596563     -0.48781946
C      -0.87642678      1.25729591      3.79841617
H      -9.25275920     -1.19954518     -0.12602635
H      -0.68680460      2.48906377      3.82567858
H      -0.58427494      1.15160534      5.00477436
C      -2.61145806      1.04908117      3.83425376
H      -3.00236900      1.69966278      2.84929683
C      -3.88793443      1.30045126      4.98233522
H      -2.82043620     -0.14377279      3.56723959
H      -3.93767782      2.34106256      5.65387573
H      -4.07499637      0.49887344      5.91251562
H      -5.09081975      1.34489144      4.66739150
H      11.36822844     -3.08404599     -8.01377772
H      12.29196970     -4.29298493     -9.32826590
H      11.69525605     -5.01248593     -7.54791414
H       6.21888403     -2.27531351     12.58713040
H       2.88192701     -2.08309799     14.11317919
H       6.48849991     -2.83327211      9.65753241
H       9.26353347     -2.53934833     10.48183967
H       3.47957191     -2.48906033     11.29310075
H      10.28595689      2.17143365      1.40395949
H      -1.40739228      7.68071233     15.37804904
H      11.55324112      2.18516206      5.08858929
H      12.59849090     -1.13434630      2.59618292
H      -1.13684307      6.36941302     12.68369164
H      15.08684185     -0.55505776      2.59929721
H      15.40278741     -0.61500571      0.08536600
H       8.59758590      0.27323274      5.02610137
H      18.27868249     -0.25595573      0.64051311
H      10.56563627     -0.62464607      3.21146027
C       5.77823179     -1.52293391     11.69694468
C       6.73564088     -1.78928356     10.28388644
C       4.05455556     -1.51892401     11.81356808
C       3.31352529     -1.29657465     13.29875845
C       8.40532033     -1.69131610     10.37001985
C      10.82512875      2.60653995      2.40033159
C      11.10657473      2.03615366      3.94040808
C      -1.11564734      7.55454824     12.92132528
C      -1.25835296      8.36359619     14.36235589
C      12.85553581     -0.00608066      3.03024408
C      14.38875955      0.31277640      2.06768156
C      15.64868257      0.39897407      0.76079824
C      17.35841419      0.49742284      0.27757279
C      11.17801750      0.35365858      3.65607109
C       9.66485603      0.21850235      4.47969028
H      17.79725021      0.40873525     -0.89198497
H      -1.96389143     -1.85611445      0.63930657
H       6.18151905     -0.47326878     12.23227627
H       3.05876257     -0.29445017     13.93122983
H       6.42348546     -1.12713461      9.28068113
H       9.15817547     -0.74147723     10.37252510
H       3.45621487     -0.75645563     11.03601744
H      11.22956294      3.59105337      1.84467974
H      -0.27667930      9.04855674     14.66167583
H      10.80475800      3.04400251      4.59051087
H      13.36232799      0.00902396      4.15982595
H      -0.96001671      7.98095921     11.80041450
H      14.31444567      1.54001239      2.12893387
H      15.37263036      1.42130070      0.11228345
H       8.59669964      0.30384372      5.02131947
H      18.13981327      1.45786327      0.41465844
H      -2.22763113      9.12464433     14.42390066
