   94
energy=      0.00000000
C       7.13610992     -6.84372872     -7.67322266
C       5.65252105     -7.60922230     -7.24847599
H       7.40631988     -6.04175641     -6.76096319
C     -10.35223719     -0.90292630      5.86262389
H     -18.89185999     -7.18329685     -1.80818867
H       4.66667289     -6.95116223     -6.87927203
C       9.84392006     -1.88931490      8.26508052
H       5.63682396     -8.42081831     -6.31075499
H      -7.56622560     -6.01512687    -16.99155064
H      -7.55851441     -6.78452087    -16.86359197
C      10.13666092      2.29285474      6.92656094
H      11.14966769      2.61840472      7.53824728
C       9.61225115     -2.85030851      6.96849393
H       7.64178064      3.80266397     -4.42874540
H      10.75987511     -2.66701879      6.57425893
H      -0.14324894     -7.37313387     12.68691924
C       8.66436962     -4.13343268      7.08099446
H       7.66301338     -4.33241503      7.77105564
C       6.12677865      5.62771356     -3.61374223
H       9.05656243     -5.27574696      7.32165345
H       6.79813272      6.57654639     -4.06025039
H       5.07244088      6.10482843     -4.05859085
C       6.54045943      4.31363724     -4.66645980
H       6.90897697      4.85702674     -7.23045655
C       6.21826884      4.49169622     -6.30347733
H       6.28675806      3.11346078     -4.50992602
H       5.20157117      4.33473571     -6.94750670
H      -3.00364170     13.84794703     10.96428889
C       8.55707945     -7.65691902     -8.22158053
H     -10.74359595      0.21633235      5.71281672
H     -19.27118577     -7.16726916     -1.12682601
C       0.53424371     -6.42643055      1.99231562
H     -11.01390178     -1.78378982      5.39934946
C      -1.16836751     -7.12813881     13.27900883
H      -0.28197753     -6.89520472      2.67657734
H      -3.40368981     -8.07765133     13.53438852
H      -1.16511451     -5.92173120     13.19490827
C      -3.76246754     -0.05256756     -7.36662863
H       6.58353295      6.88354731     -1.63577536
C       4.61083624      5.87098538     -0.93944071
H      -4.35003564      0.80321422     -7.89177108
H       4.53155512      6.66841039      0.01038224
H       4.13149786      4.88659376     -0.36222727
H       3.49884982      6.17103114     -1.38982213
H       8.85214324     -7.47622444     -9.41439840
H       8.43478903     -8.86228849     -8.48127198
H      10.61850139     -8.31455266     -6.70249909
H       7.98976281      0.05723629      9.62652475
H      11.38635313     -0.93623782      8.89467103
H      -2.03575366     -9.35619581     13.92867335
H       8.00734773      1.17863340      7.07916459
H      -8.74525928     -4.13752018     22.51987819
H       5.30719112     13.65660482     17.32018644
H       3.19716894     13.73754317     20.39422849
H      10.84840147     -1.20612162     11.87142502
H      17.27663155      4.29847217      0.29107835
H      -4.76069122     12.91560322     10.67017769
H      17.96680581      4.44684818      0.62280753
H       1.28497187      1.77933824    -18.00471786
H       7.67749077     -3.25138990      5.02790637
H       6.89421282     -5.89466015     -8.44437597
H      11.81802603      0.19288208     11.25468810
C      -9.02049327     -1.20442128      6.63797963
C      -2.26250834     -8.14629052     13.99852837
C       9.06256486      0.48169687      9.17105908
C      10.26561170     -0.71793936      9.33314833
C       9.04593546      1.30620919      7.71007183
C       5.06099461     14.16835493     18.39426950
C      10.99074423     -0.59795726     10.83574887
C      -4.20577633     14.01157900     10.75400828
C       3.98827801     13.73668777     19.51723300
C       7.15782747      4.77562335     -1.08467655
C      11.45576982      1.82272927      4.17326817
C      10.80079287      1.85740448      5.53772447
C      10.00175841     -7.52931790     -7.38748836
C       6.06485978      5.77371110     -1.87519956
C       8.70057297     -3.29983314      5.70862650
H       8.25299611      4.96763975     -0.60427346
H       5.02659086     -8.26947174     -8.09147714
H      -8.03208998     -1.42818700      7.21343874
H      -8.61696058     -3.46529670     22.89411747
H      -2.38561986     -7.98143464     15.21515161
H       9.66806370      3.39683006      6.66852668
H       8.87679287      1.38123454     10.00306441
H       6.16786904     14.14278373     17.90673724
H       4.84613165     15.28474149     18.82381884
H      -3.34387520     -1.00225913     -6.84104356
H       7.13998770      3.60464667     -0.77457897
H      -4.35764540     14.63019125      9.70026461
H       1.33999177     -5.95342915      1.29861528
H       1.22522505      2.55375970    -18.07614389
H       9.12092234     -3.18704830      4.55683254
H      10.79251498     -6.61774026     -7.27395708
H      -4.70112699     14.65257452     11.68130192
   94
energy=      0.00000000
C       7.13875900     -6.83572456     -7.67257819
C       5.66098620     -7.61206650     -7.24923431
H       7.40663108     -6.02893101     -6.76374143
C     -10.35223719     -0.90292630      5.86262389
H     -18.89185999     -7.18329685     -1.80818867
H       4.66892271     -6.96570656     -6.87723420
C       9.87465546     -1.90962228      8.28691485
H       5.65483288     -8.42466593     -6.31217384
H      -7.79459229     -6.25680611    -16.92497689
H      -7.78688110     -7.02620011    -16.79701822
C      10.13382571      2.31254736      6.95448142
H      11.15083169      2.63822027      7.55986436
C       9.64528507     -2.88866069      7.00618160
H       7.26495422      4.03979606     -3.88178218
H      10.80403476     -2.74870397      6.62476520
H      -0.14325058     -7.37313422     12.68691672
C       8.67978606     -4.15855526      7.11991533
H       7.68840506     -4.35463949      7.82473979
C       5.83964449      5.75446153     -2.76522937
H       9.05745907     -5.30836781      7.34705255
H       6.56426232      6.66320589     -3.21656565
H       4.80270609      6.26335765     -3.21349571
C       6.09653690      4.43538337     -3.84938903
H      10.06135663      4.52405364    -13.26815452
C       9.40869299      4.17304527    -12.41426904
H       5.86762328      3.23830024     -3.68393742
H       5.59441392      4.44215161     -5.00024740
H      -3.00407118     13.84794178     10.96390706
C       8.55242461     -7.65813001     -8.22490546
H     -10.74359595      0.21633235      5.71281672
H     -19.27118577     -7.16726916     -1.12682601
C       0.53237992     -6.42567805      1.99063443
H     -11.01390178     -1.78378982      5.39934946
C      -1.16836746     -7.12813897     13.27900916
H      -0.28105909     -6.89558879      2.67742775
H      -3.40368927     -8.07765248     13.53438752
H      -1.16511283     -5.92173117     13.19491134
C      -3.85857337     -0.09853118     -7.36510218
H       6.37240523      6.97771976     -0.77600276
C       4.39492410      5.97734854     -0.07516082
H      -4.40267786      0.78488785     -7.89190956
H       4.31724302      6.76259607      0.88474654
H       3.90985461      4.99064269      0.49210334
H       3.28602558      6.29459840     -0.51820800
H       8.84076306     -7.48779017     -9.42080166
H       8.43160101     -8.86355089     -8.48517797
H      10.59625439     -8.31219004     -6.68351306
H       7.99011279      0.04153388      9.61132449
H      11.40320064     -0.85638831      8.86920188
H      -2.03575257     -9.35619587     13.92867540
H       8.02129455      1.16276735      7.07017684
H      -8.74525986     -4.13751985     22.51987896
H       5.05957906     13.60585690     17.32595385
H       3.22307639     13.62442962     20.35621151
H      10.81660314     -1.29190537     11.86457108
H      17.32066155      4.32686045      0.25060614
H      -4.76112071     12.91559797     10.66979586
H      18.01083541      4.47523631      0.58233550
H       0.12703865      1.58825898    -19.49091687
H       7.66606808     -3.17408448      5.11369568
H       6.90080786     -5.87726035     -8.43331648
H      11.80954075      0.11654533     11.30588055
C      -9.02049327     -1.20442128      6.63797963
C      -2.26250827     -8.14629068     13.99852871
C       9.06765142      0.47228970      9.17352000
C      10.27958146     -0.71853289      9.33614783
C       9.04774939      1.30550568      7.71767703
C       5.07774554     14.22009589     18.38303177
C      10.98206380     -0.65333410     10.85151148
C      -4.20620582     14.01157376     10.75362645
C       4.02266644     13.73106728     19.49789549
C       6.94239891      4.89139049     -0.22784640
C      11.44681867      1.75797541      4.20820476
C      10.78575592      1.86416572      5.56497208
C       9.99381234     -7.53140662     -7.38602067
C       5.83907566      5.87760515     -1.02290780
C       8.70549973     -3.30685444      5.75780426
H       8.02824943      5.08350182      0.27524923
H       5.03998349     -8.27101395     -8.09686094
H      -8.03208998     -1.42818700      7.21343874
H      -8.61696116     -3.46529637     22.89411823
H      -2.38562123     -7.98143390     15.21515168
H       9.67387121      3.42473361      6.71510545
H       8.88068121      1.36189904     10.01558224
H       6.26255016     14.15033863     18.10587993
H       4.92416322     15.39495382     18.68941011
H      -3.39355426     -1.02590263     -6.83808763
H       6.93258977      3.72653944      0.10208608
H      -4.35807489     14.63018600      9.69988278
H       1.34093780     -5.95379719      1.29944214
H       0.06729184      2.36268043    -19.56234290
H       9.11759497     -3.23731393      4.59913605
H      10.79048242     -6.62382063     -7.28371532
H      -4.70155648     14.65256928     11.68092009
