   94

C      -8.28267116     -4.49093641     -4.59811565
C      -7.14643293     -5.01288798     -3.58876532
H      -9.10028172     -4.10190306     -5.34453404
C     -19.88683282      4.48673766     -4.14928255
H     -18.83560498     -7.16969647     -1.82045356
H      -6.60879291     -4.06985998     -3.01539207
C       9.53853275     -4.64552755      7.02402880
H      -7.60397525     -5.75432044     -2.72384800
H      -7.28388872     -5.67953628    -16.88575718
H      -7.27617753     -6.44893027    -16.75779851
C       6.70181685      0.67527917      9.49426307
H       5.86643820     -0.07049648      9.03149043
C       9.13368190     -5.19486616      5.60139407
H       6.14089808     -0.38604690      9.30109579
H       9.86869857     -4.48647906      4.91363077
H       8.13321190     -4.51313120      5.37829207
C       9.09809793     -6.88914765      5.47015099
H       8.14157143     -7.29914226      4.79656425
C       5.47508832      0.43763980     -4.05126268
H       8.69089217     -7.48000483      6.48248963
H       5.45570140      1.00177276     -5.14711133
H       5.85406841      1.41360790     -3.39767310
C       4.07151184     -0.35279121     -3.52342146
H       3.85108892     -0.36795976     -2.30821081
C       6.77725769      9.35277083    -15.75254447
H       3.98853773     -1.57566080     -3.66597728
H       6.13125099     10.16089785    -16.21192283
H      -0.77720873     12.48904571     11.36357135
C      12.37234461     -6.91729667    -13.67192055
H     -18.96942594      4.91089830     -3.57260399
H     -19.21493076     -7.15366878     -1.13909090
C      -3.17972218      3.80564586    -11.36533425
H     -20.82157189      4.11898188     -4.73675538
C      -2.53539730     -5.57810544     12.53393346
H      -4.34496149      3.74067691    -11.08979293
H      -1.16141931     -5.71871979     10.63569431
H      -3.51163865     -5.20332635     13.06633678
C       2.68332350      0.15883621     -4.17198853
H      -2.47285711      3.05447970      3.13574592
C      -3.27363891      3.05250404      4.07108844
H       1.69943405      0.55491487     -4.67937334
H      -3.17352108      4.10673387      4.69933752
H      -3.02967940      2.10469612      4.81825974
H      -4.41849806      2.94410646      3.63101058
H      11.94284700     -5.83658463    -13.37948360
H      12.89496904     -7.08642857    -14.73783995
H      12.27921780     -7.82887681    -12.89843808
H       8.43336120      2.35878263     12.67988213
H       6.37039291      4.60372885     13.51321923
H      -1.13488669     -7.31733327     11.80967044
H       8.16311942      0.91231015     10.91639262
H      -8.70101793     -4.16259184     22.46177845
H       6.50360237      7.33216946     11.56734736
H      -2.36257759     13.40054632     23.42277100
H       9.14274705      6.31398980     13.40402049
H       8.64780661     -1.21642712     -5.58226316
H      -2.53425782     11.55670231     11.06946201
H      17.22127530      0.28702895     -4.28318333
H      -2.51714743      2.80710144    -11.40810739
H      10.65643323     -8.60784321      4.22226639
H      28.53745501     -1.46704196     -0.02461405
H       9.46461482      5.51641411     12.03584867
C      17.30322965     -4.04092092     16.91429424
C      -1.19851047     -6.09134005     11.80484316
C       7.39608746      2.74925759     12.16789948
C       7.41763336      4.36417988     12.90919445
C       7.22125733      1.65172064     10.81639183
C       7.63472848      7.14032486     11.94349807
C       8.38101068      5.77658461     12.57150668
C      -1.97934341     12.65267842     11.15329161
C      -1.84322649     14.36487636     23.02967149
C       8.06757794     -1.33417213     -4.54429720
C      17.25413085      0.80154965     -5.35676962
C      17.91918836      0.02984045     -6.51112472
C      28.24055379     -0.49960615     -0.66792090
C       6.81133473     -0.44404352     -4.21737967
C      10.48198565     -7.66898301      4.96463085
H      27.78743460     -0.62874992     -1.77061350
H      -6.28575807     -5.64395647     -4.19546971
H      16.35524265     -3.75935048     17.46515407
H      -8.57271924     -3.49036836     22.83601772
H      -0.19529162     -5.66177091     12.36711796
H       7.32494203      0.76933890      8.42524230
H       6.85130808      2.01435326     12.98441163
H       7.95441463      8.29082563     11.72534121
H      -1.32387540     15.32920641     22.63657198
H       7.27978415      4.56800342     14.12005776
H       8.47433271     -2.16629485     -3.79091261
H      -2.13121206     13.27129161     10.09954844
H      16.80197574      1.87877874     -5.58818293
H      -2.67704752      4.86915977    -11.59810484
H      11.65074255     -7.48475155      5.21538525
H      28.39677175      0.59697342     -0.20853516
H      -2.47469505     13.29367405     12.08058466
   94

C      -8.28566104     -4.49256813     -4.59818642
C      -7.14942964     -5.01469659     -3.58892691
H      -9.10283171     -4.10299654     -5.34480631
C     -19.88706305      4.48694328     -4.14936988
H     -18.83581807     -7.16977674     -1.82048096
H      -6.61144673     -4.07189019     -3.01551514
C       9.54624679     -4.65484026      7.02675128
H      -7.60749859     -5.75594304     -2.72413410
H      -7.28447126     -5.67992905    -16.88654464
H      -7.27672700     -6.44931478    -16.75853806
C       6.78813871      0.68651860      9.54441612
H       5.93023751     -0.02764193      9.06801843
C       9.13837613     -5.20279558      5.60450838
H       6.24939508     -0.39022399      9.36307045
H       9.87307579     -4.49499134      4.91580348
H       8.13786556     -4.52002189      5.38479337
C       9.10241569     -6.89710400      5.47390355
H       8.14557360     -7.30636063      4.80037158
C       5.48598348      0.44145873     -4.04396323
H       8.69557205     -7.48786086      6.48643013
H       5.48401383      0.99723905     -5.14480022
H       5.86036824      1.42891213     -3.40774653
C       4.07184039     -0.31910437     -3.51262765
H       3.84575263     -0.43175967     -2.30797057
C       6.77751255      9.35312062    -15.75294762
H       4.01456840     -1.54326535     -3.60531342
H       6.13143595     10.16122360    -16.21226967
H      -0.78833753     12.50608472     11.36007208
C      12.37310522     -6.91790183    -13.67284200
H     -18.96955799      4.91083713     -3.57263935
H     -19.21512768     -7.15374173     -1.13910951
C      -3.18435664      3.80871075    -11.37184348
H     -20.82171990      4.11889585     -4.73680239
C      -2.53831096     -5.58574610     12.53246804
H      -4.34922639      3.74380542    -11.09473354
H      -1.16366898     -5.72555546     10.63427441
H      -3.51470583     -5.21120363     13.06482485
C       2.65664902      0.19272059     -4.09844547
H      -2.48142010      3.05300680      3.12887002
C      -3.28315366      3.05107458      4.06338254
H       1.67466831      0.58393934     -4.61225304
H      -3.18400383      4.10564978      4.69118375
H      -3.03994208      2.10308301      4.81054675
H      -4.42791167      2.94273348      3.62303165
H      11.94368993     -5.83714930    -13.38044386
H      12.89568983     -7.08701184    -14.73878215
H      12.27997172     -7.82949169    -12.89937534
H       8.71202857      2.34841455     12.61927428
H       6.79691209      4.53454619     13.71463768
H      -1.13720098     -7.32426042     11.80808959
H       8.28376273      0.91884130     10.92148195
H      -8.70203245     -4.16336187     22.46253710
H       6.55933030      7.28697867     11.52677317
H      -2.36345608     13.40214803     23.42474224
H       9.34465401      6.47942363     13.30693632
H       8.66600967     -1.22387904     -5.59033468
H      -2.54713761     11.57420628     11.06553025
H      17.22229868      0.28750595     -4.28337887
H      -2.52270183      2.80970563    -11.41802056
H      10.66049244     -8.61556584      4.22563460
H      28.53761221     -1.46705928     -0.02472953
H       9.51922913      5.58952272     11.95939734
C      17.30851780     -4.04616513     16.91577907
C      -1.20108112     -6.09826867     11.80339148
C       7.63567860      2.78574806     12.23989513
C       7.95282562      4.27130474     13.36262900
C       7.34368199      1.66823102     10.87066458
C       7.66586052      7.12180420     11.97896846
C       8.51304793      5.81423197     12.64889522
C      -1.99053102     12.66924565     11.14995094
C      -1.84400079     14.36635066     23.03146004
C       8.07778922     -1.32944639     -4.55524139
C      17.25498723      0.80197251     -5.35699819
C      17.91994375      0.03019836     -6.51137152
C      28.24071215     -0.49962210     -0.66803504
C       6.82304209     -0.43978878     -4.21701028
C      10.48625859     -7.67759800      4.96918623
H      27.78757699     -0.62876377     -1.77072143
H      -6.28864397     -5.64586818     -4.19536435
H      16.36098331     -3.76589346     17.46807336
H      -8.57380860     -3.49116592     22.83685161
H      -0.19765118     -5.66930676     12.36577026
H       7.39183284      0.81720534      8.46636423
H       7.13401200      2.01225740     13.05335431
H       7.96861523      8.26418305     11.67646835
H      -1.32452952     15.33053300     22.63815044
H       4.49029934      4.37295418     13.15535898
H       8.48406114     -2.16398253     -3.80464975
H      -2.14128131     13.28745416     10.09583465
H      16.80265419      1.87912556     -5.58842321
H      -2.68106391      4.87224484    -11.60317538
H      11.65512157     -7.49454121      5.22040781
H      28.39694633      0.59695876     -0.20865757
H      -2.48515341     13.30991001     12.07783415
   94

C      -8.28406273     -4.49232029     -4.59896499
C      -7.14818506     -5.01464762     -3.58942030
H      -9.10252651     -4.10342661     -5.34451813
C     -19.88809811      4.48953837     -4.14997363
H     -18.83585774     -7.16983820     -1.82051220
H      -6.61026298     -4.07210599     -3.01552217
C       9.59777535     -4.74143339      7.07494962
H      -7.60730370     -5.75600804     -2.72528328
H      -7.28381710     -5.67956247    -16.88575946
H      -7.27610206     -6.44895471    -16.75779062
C       6.90764216      0.38602191      9.62881471
H       5.98743208     -0.22772318      9.12428137
C       9.18195363     -5.28420685      5.65343954
H       6.30890384     -0.65759751      9.46245935
H       9.91485007     -4.57647528      4.96275523
H       8.18024174     -4.60272712      5.43637167
C       9.14153340     -6.97838493      5.52869555
H       8.18454607     -7.38681274      4.85513227
C       5.53376185      0.50260695     -3.95667242
H       8.73474826     -7.56791881      6.54185630
H       5.45584539      1.01209325     -5.07759671
H       5.96874705      1.51323308     -3.40372448
C       4.15064159     -0.18663237     -3.27495130
H       4.06328303     -0.52073922     -2.09777636
C       6.77733520      9.35281483    -15.75273173
H       4.02311287     -1.39179904     -3.45026228
H       6.13132341     10.16094219    -16.21210266
H      -0.79845224     12.53342143     11.37683038
C      12.37243709     -6.91753433    -13.67234497
H     -18.96934543      4.90958293     -3.57242531
H     -19.21517575     -7.15380574     -1.13914532
C      -3.18104575      3.80633758    -11.36817912
H     -20.82161421      4.11751803     -4.73670605
C      -2.53846283     -5.58187553     12.53517084
H      -4.34624181      3.74137827    -11.09242629
H      -1.16476725     -5.72398163     10.63686690
H      -3.51417697     -5.20584276     13.06764587
C       2.70730891      0.50416495     -3.50925073
H      -2.56654271      3.05153997      3.15470603
C      -3.36854093      3.04823893      4.08890677
H       1.68254180      0.91434600     -3.91457221
H      -3.27559523      4.10445002      4.71478793
H      -3.12519686      2.10067447      4.83647137
H      -4.51291996      2.93835469      3.64808467
H      11.94291078     -5.83681809    -13.37997319
H      12.89509775     -7.08664035    -14.73824914
H      12.27930584     -7.82912242    -12.89887495
H       8.52792511      2.35300316     12.70917119
H       6.39424335      4.57919786     13.34186103
H      -1.13867037     -7.32215979     11.81119430
H       8.37801172      0.78731330     11.02655770
H      -8.70106834     -4.16261640     22.46190210
H       6.77750247      7.81036129     12.33108518
H      -2.36277376     13.40174454     23.43077393
H       9.20389190      6.10630505     13.49298256
H       8.64940450     -1.18844724     -5.65289718
H      -2.55689479     11.59811069     11.08156518
H      17.22376344      0.28736322     -4.28349887
H      -2.51847915      2.80778447    -11.41110311
H      10.70303521     -8.68902453      4.27824466
H      28.53774125     -1.46703984     -0.02467762
H       9.47369782      5.48140527     12.00348021
C      17.30716383     -4.04308169     16.91667287
C      -1.20197327     -6.09615701     11.80614435
C       7.47556994      2.65341455     12.16431413
C       7.42726871      4.33224898     12.72053005
C       7.34008782      1.38781980     10.95943389
C       7.84562258      7.27575681     12.14991930
C       8.41644737      5.75552893     12.58422602
C      -2.00066482     12.69339181     11.16466776
C      -1.84349612     14.36617025     23.03780875
C       8.07258970     -1.30175107     -4.61206319
C      17.25641269      0.80185867     -5.35710711
C      17.92094716      0.02995826     -6.51164127
C      28.24083298     -0.49960288     -0.66797971
C       6.84049511     -0.40149072     -4.22202446
C      10.52769269     -7.75594058      5.02738936
H      27.78771873     -0.62874639     -1.77067448
H      -6.28661504     -5.64533931     -4.19523778
H      16.35954759     -3.76191910     17.46837871
H      -8.57274988     -3.49038700     22.83612396
H      -0.19868531     -5.66700739     12.36859745
H       7.52561627      0.52450085      8.56205114
H       6.90182747      1.99584977     13.02985768
H       8.36399058      8.33887017     11.86370785
H      -1.32421385     15.33058890     22.64483159
H       4.56122975      5.22808306      9.68257426
H       8.50086570     -2.14017275     -3.87873873
H      -2.15162326     13.31126320     10.11042708
H      16.80434751      1.87913075     -5.58850598
H      -2.67826597      4.86988161    -11.60061636
H      11.69597578     -7.57461514      5.28254907
H      28.39703678      0.59697700     -0.20858961
H      -2.49505428     13.33303405     12.09333626
   94

C      -8.28390761     -4.49238563     -4.59913455
C      -7.14812936     -5.01477736     -3.58951474
H      -9.10294078     -4.10379620     -5.34422007
C     -19.88858972      4.49095072     -4.15023671
H     -18.83585580     -7.16984254     -1.82049482
H      -6.60998263     -4.07247090     -3.01544265
C       9.61994962     -4.78058824      7.10852935
H      -7.60805080     -5.75608345     -2.72575957
H      -7.28375230     -5.67952996    -16.88566724
H      -7.27603961     -6.44892263    -16.75770091
C       6.86524713      0.35234094      9.69868551
H       5.92228681     -0.23637357      9.20924183
C       9.20186812     -5.32261383      5.68739740
H       6.26074323     -0.69998937      9.61495604
H       9.93365022     -4.61496796      4.99546008
H       8.19946251     -4.64102962      5.47384764
C       9.16171451     -7.01677079      5.56218849
H       8.20479825     -7.42470144      4.88825797
C       5.55241971      0.52933132     -3.91843551
H       8.75536832     -7.60674365      6.57524846
H       5.43272541      1.00381454     -5.05184788
H       6.02645275      1.55503791     -3.43193826
C       4.18862772     -0.09296199     -3.13833815
H       4.13799666     -0.64292371     -2.04665083
C       6.77733463      9.35283365    -15.75300430
H       4.00045795     -1.27105608     -3.39986976
H       6.13131516     10.16096801    -16.21235209
H      -0.79310035     12.53198784     11.38384452
C      12.37252715     -6.91771005    -13.67256867
H     -18.96915423      4.90889227     -3.57224665
H     -19.21517361     -7.15380937     -1.13912785
C      -3.18077386      3.80594160    -11.36802819
H     -20.82148555      4.11678310     -4.73659301
C      -2.53956740     -5.58141504     12.53552716
H      -4.34600901      3.74097319    -11.09243588
H      -1.16579185     -5.72373303     10.63742945
H      -3.51499831     -5.20480832     13.06808463
C       2.80151855      0.75376101     -3.07167355
H      -2.61094297      3.05195099      3.17910182
C      -3.41064493      3.04825222      4.11524044
H       1.73944649      1.05614382     -3.48576802
H      -3.31867784      4.10431735      4.74149687
H      -3.16460946      2.10145037      4.86286678
H      -4.55485103      2.93739040      3.67422991
H      11.94299372     -5.83698606    -13.38024099
H      12.89519930     -7.08680440    -14.73846799
H      12.27939321     -7.82929315    -12.89909469
H       8.48725446      2.36502953     12.73535385
H       6.39832034      4.55957142     13.39799272
H      -1.14020374     -7.32225195     11.81150238
H       8.35644010      0.78725931     11.07810659
H      -8.70112663     -4.16259357     22.46191778
H       6.59135583      7.58735358     12.15008004
H      -2.36265747     13.40215628     23.43433140
H       9.16215636      6.11616227     13.50184275
H       8.64541342     -1.17304621     -5.68860503
H      -2.55015552     11.59709126     11.08829028
H      17.22474452      0.28724556     -4.28376200
H      -2.51806821      2.80745881    -11.41047443
H      10.72403274     -8.72495524      4.30959716
H      28.53779043     -1.46705136     -0.02465004
H       9.45818745      5.48415672     12.00736971
C      17.30698583     -4.04269664     16.91674180
C      -1.20328458     -6.09624448     11.80658167
C       7.43870867      2.65710026     12.17436700
C       7.39949321      4.32620310     12.72126122
C       7.33340827      1.41116342     10.96135836
C       7.73541449      7.20121163     12.13450609
C       8.39826217      5.73123085     12.59078606
C      -1.99518612     12.69303168     11.17157222
C      -1.84335461     14.36655959     23.04134591
C       8.06661656     -1.28621683     -4.64859786
C      17.25736714      0.80173358     -5.35737509
C      17.92172062      0.02976904     -6.51196893
C      28.24089140     -0.49961442     -0.66795628
C       6.83458172     -0.39444783     -4.23763176
C      10.54818538     -7.79419392      5.06151419
H      27.78779064     -0.62875977     -1.77065630
H      -6.28615205     -5.64530962     -4.19491791
H      16.35936394     -3.76145714     17.46839729
H      -8.57280639     -3.49036266     22.83613633
H      -0.20012687     -5.66739193     12.36947637
H       7.53717498      0.38604143      8.65650142
H       6.82539789      2.01178239     13.02338387
H       8.16296379      8.31996798     11.93180722
H      -1.32404951     15.33095942     22.64835418
H       5.18349278      5.53987143      7.72542742
H       8.50606453     -2.12541737     -3.92327910
H      -2.14710082     13.31183078     10.11798764
H      16.80539450      1.87903140     -5.58883375
H      -2.67808947      4.86948548    -11.60068091
H      11.71623706     -7.61479738      5.31912461
H      28.39709232      0.59696560     -0.20856569
H      -2.49014912     13.33309157     12.09967919
   94

C      -8.28329459     -4.49207195     -4.59929451
C      -7.14754436     -5.01445075     -3.58963615
H      -9.10298846     -4.10392916     -5.34388536
C     -19.88904477      4.49235440     -4.15051381
H     -18.83584357     -7.16984642     -1.82049774
H      -6.60904539     -4.07237835     -3.01550911
C       9.63865351     -4.81366175      7.14585506
H      -7.60829034     -5.75566975     -2.72624610
H      -7.28370321     -5.67948860    -16.88557508
H      -7.27599433     -6.44888233    -16.75761487
C       6.84127544      0.37052030      9.75251132
H       5.88813407     -0.21828670      9.28418360
C       9.21949051     -5.35575735      5.72505131
H       6.25702548     -0.69906204      9.76149470
H       9.95026972     -4.64828988      5.03188796
H       8.21644557     -4.67394592      5.51502075
C       9.18049653     -7.04984226      5.59796892
H       8.22359973     -7.45713545      4.92361531
C       5.55931627      0.55606932     -3.88663175
H       8.77471930     -7.64060694      6.61078085
H       5.39036543      0.99176587     -5.03025261
H       6.06879558      1.59708771     -3.47716327
C       4.23525188     -0.01006255     -2.99661686
H       4.15514172     -0.76821251     -2.04353957
C       6.77731629      9.35286753    -15.75324280
H       3.96650496     -1.14093638     -3.36595557
H       6.13128475     10.16100797    -16.21256258
H      -0.78484351     12.53070765     11.38526430
C      12.37263201     -6.91786479    -13.67273107
H     -18.96892913      4.90820361     -3.57209299
H     -19.21516492     -7.15381472     -1.13913269
C      -3.18014539      3.80543502    -11.36700893
H     -20.82132501      4.11605593     -4.73648954
C      -2.54032031     -5.58184909     12.53584793
H      -4.34542757      3.74044443    -11.09162414
H      -1.16631961     -5.72413881     10.63790843
H      -3.51563152     -5.20497477     13.06842926
C       2.96031650      0.95151071     -2.62503587
H      -2.65571160      3.05492684      3.20313883
C      -3.45330109      3.05097366      4.14104570
H       1.87204504      1.22789188     -3.00091014
H      -3.36024477      4.10670064      4.76768464
H      -3.20524054      2.10412531      4.88791386
H      -4.59752567      2.93961133      3.70022071
H      11.94310192     -5.83713076    -13.38043980
H      12.89530473     -7.08695415    -14.73863002
H      12.27949670     -7.82943841    -12.89924740
H       8.46934663      2.38489296     12.78302730
H       6.39625492      4.57486402     13.42980398
H      -1.14102269     -7.32283884     11.81179144
H       8.36345876      0.81749780     11.11548709
H      -8.70123584     -4.16262471     22.46201667
H       6.50671492      7.41776724     11.76859117
H      -2.36243313     13.40258652     23.43776155
H       9.09644691      6.17326381     13.46876568
H       8.63530221     -1.15344466     -5.72184762
H      -2.54194731     11.59719112     11.09037654
H      17.22533582      0.28699974     -4.28406753
H      -2.51731425      2.80701801    -11.40899494
H      10.74270449     -8.75664166      4.34284895
H      28.53784018     -1.46707688     -0.02463837
H       9.43634858      5.49100767     11.99307781
C      17.30686439     -4.04234564     16.91685448
C      -1.20405812     -6.09683132     11.80699163
C       7.42869711      2.67209653     12.20267662
C       7.38724189      4.33164028     12.74375175
C       7.36428962      1.47258024     10.95157342
C       7.65880738      7.14636418     12.00431107
C       8.36621549      5.73506206     12.55732361
C      -1.98693261     12.69311049     11.17392644
C      -1.84309471     14.36694815     23.04472232
C       8.05291061     -1.26537237     -4.68340517
C      17.25797361      0.80149273     -5.35767712
C      17.92222799      0.02949084     -6.51229875
C      28.24095270     -0.49963996     -0.66794991
C       6.81516443     -0.38718922     -4.25805496
C      10.56670202     -7.82762951      5.09693440
H      27.78785895     -0.62878678     -1.77065262
H      -6.28523004     -5.64489900     -4.19464861
H      16.35925381     -3.76102667     17.46848882
H      -8.57291640     -3.49039333     22.83623467
H      -0.20099264     -5.66818705     12.37020361
H       7.54080822      0.33304349      8.72874378
H       6.77114062      2.03405826     13.02351034
H       8.02342452      8.28997955     11.82670974
H      -1.32375884     15.33131214     22.65168518
H       5.42402250      5.31366404      6.41100661
H       8.50261098     -2.10462948     -3.96489023
H      -2.13917582     13.31226038     10.12057736
H      16.80611046      1.87882075     -5.58920344
H      -2.67758241      4.86896804    -11.59996988
H      11.73457849     -7.65072487      5.35706692
H      28.39715905      0.59694027     -0.20856174
H      -2.48191686     13.33352315     12.10179728
   94

C      -8.28290693     -4.49174445     -4.59957114
C      -7.14716981     -5.01410972     -3.58989072
H      -9.10324818     -4.10404083     -5.34367623
C     -19.88949841      4.49377186     -4.15079745
H     -18.83586509     -7.16985902     -1.82050884
H      -6.60824964     -4.07226726     -3.01577959
C       9.65199095     -4.83823426      7.19016404
H      -7.60873729     -5.75520641     -2.72683505
H      -7.28374426     -5.67949324    -16.88560075
H      -7.27603588     -6.44888738    -16.75764293
C       6.80873956      0.45881234      9.77717133
H       5.84075476     -0.11687680      9.32392904
C       9.23596126     -5.38397711      5.76978820
H       6.27168420     -0.63665584      9.82337324
H       9.96637534     -4.67727305      5.07547158
H       8.23225025     -4.70244695      5.56144571
C       9.19885039     -7.07787494      5.63837280
H       8.24199054     -7.48458722      4.96350741
C       5.55403628      0.58301201     -3.86683617
H       8.79374683     -7.66961343      6.65085289
H       5.33666816      0.98050211     -5.01694640
H       6.08356534      1.64051370     -3.53490322
C       4.28937202      0.04788139     -2.87009808
H       4.11494512     -0.86952180     -2.08763967
C       6.77731543      9.35300511    -15.75352803
H       3.92544064     -1.01432701     -3.34162953
H       6.13125330     10.16114810    -16.21279936
H      -0.77607617     12.52990955     11.38397682
C      12.37279541     -6.91805543    -13.67294618
H     -18.96870372      4.90752762     -3.57195111
H     -19.21518740     -7.15382813     -1.13914430
C      -3.17989156      3.80521058    -11.36630354
H     -20.82116074      4.11534170     -4.73638803
C      -2.53958888     -5.58161212     12.53617525
H      -4.34518379      3.74020104    -11.09097414
H      -1.16548065     -5.72359252     10.63826812
H      -3.51512079     -5.20502681     13.06856538
C       3.17035593      1.06698523     -2.21113433
H      -2.70899521      3.06127643      3.22580364
C      -3.50203210      3.05789540      4.16753367
H       2.07125814      1.41099048     -2.50134864
H      -3.40460483      4.11309624      4.79434352
H      -3.25257046      2.11023164      4.91285608
H      -4.64704462      2.94734331      3.72857286
H      11.94327781     -5.83730634    -13.38069703
H      12.89546324     -7.08714437    -14.73884653
H      12.27965634     -7.82961306    -12.89944557
H       8.47600023      2.41066302     12.82919298
H       6.40197367      4.60369184     13.44668423
H      -1.13995647     -7.32225841     11.81215759
H       8.37649967      0.86575826     11.12803417
H      -8.70127372     -4.16264678     22.46206399
H       6.49357264      7.34836968     11.57556698
H      -2.36237390     13.40315315     23.44134221
H       9.06308768      6.20757198     13.45549487
H       8.61983718     -1.12967856     -5.75446144
H      -2.53338275     11.59751510     11.08989346
H      17.22594585      0.28672268     -4.28456967
H      -2.51704381      2.80680346    -11.40818687
H      10.75956450     -8.78427444      4.37922925
H      28.53786396     -1.46709478     -0.02461924
H       9.42289400      5.50711835     11.98034412
C      17.30640258     -4.04206236     16.91659051
C      -1.20316027     -6.09625743     11.80736512
C       7.43372837      2.69194692     12.24792713
C       7.38955861      4.34881802     12.76228161
C       7.38527047      1.53558947     10.96770061
C       7.62450055      7.12990669     11.93567878
C       8.35102068      5.75170914     12.54033763
C      -1.97819830     12.69335716     11.17354636
C      -1.84301835     14.36748819     23.04826086
C       8.03248990     -1.23886414     -4.71816608
C      17.25857672      0.80122401     -5.35817392
C      17.92272015      0.02916276     -6.51281295
C      28.24098832     -0.49965758     -0.66793578
C       6.78928852     -0.37259259     -4.28130856
C      10.58384552     -7.85687855      5.13547350
H      27.78790343     -0.62880571     -1.77064195
H      -6.28458796     -5.64454867     -4.19453381
H      16.35876204     -3.76071190     17.46815692
H      -8.57296066     -3.49041630     22.83628583
H      -0.20011284     -5.66742616     12.37047039
H       7.50003438      0.44245886      8.74755507
H       6.74721289      2.06168870     13.05050701
H       7.97111141      8.27629700     11.74496668
H      -1.32366455     15.33182586     22.65518356
H       5.41971554      4.46834021      5.05489553
H       8.49025632     -2.07870666     -4.00584703
H      -2.13041060     13.31241747     10.12012540
H      16.80686669      1.87860043     -5.58976399
H      -2.67739280      4.86873076    -11.59945229
H      11.75166387     -7.68283632      5.39775177
H      28.39719783      0.59692300     -0.20854954
H      -2.47320746     13.33412491     12.10117045
   94

C      -8.28268542     -4.49132376     -4.59969923
C      -7.14697790     -5.01368806     -3.58998563
H      -9.10363186     -4.10406822     -5.34336773
C     -19.88986627      4.49519642     -4.15105228
H     -18.83586032     -7.16984456     -1.82050960
H      -6.60763394     -4.07208179     -3.01588281
C       9.66757949     -4.86519086      7.23372450
H      -7.60936345     -5.75465465     -2.72725677
H      -7.28381512     -5.67950528    -16.88566215
H      -7.27610618     -6.44889974    -16.75770624
C       6.76423794      0.57711005      9.73342468
H       5.77343678      0.04247152      9.27923842
C       9.25535759     -5.41560990      5.81400356
H       6.27920726     -0.54422779      9.75354922
H       9.98549609     -4.70996206      5.11833012
H       8.25085992     -4.73482851      5.60655801
C       9.21871208     -7.10925615      5.67839086
H       8.26185978     -7.51530738      5.00301748
C       5.54159326      0.61572809     -3.84907664
H       8.81405493     -7.70152605      6.69067636
H       5.28369080      0.97860919     -5.00272690
H       6.07538915      1.68910500     -3.58507624
C       4.33951721      0.09675776     -2.76313726
H       4.03018456     -0.90519522     -2.14622821
C       6.77730834      9.35312106    -15.75352423
H       3.89231904     -0.89437680     -3.30545933
H       6.13122367     10.16125637    -16.21277633
H      -0.77221955     12.53422539     11.38499696
C      12.37289275     -6.91812544    -13.67303393
H     -18.96838554      4.90684031     -3.57178535
H     -19.21518314     -7.15381487     -1.13914532
C      -3.17987015      3.80533616    -11.36577836
H     -20.82091116      4.11463663     -4.73625132
C      -2.53831808     -5.58098802     12.53642204
H      -4.34514659      3.74031437    -11.09039497
H      -1.16433425     -5.72271046     10.63842638
H      -3.51419123     -5.20487616     13.06853591
C       3.40213202      1.12485581     -1.85850841
H      -2.73983780      3.07126235      3.24932453
C      -3.53120251      3.06792356      4.19244734
H       2.30566541      1.54866840     -2.04890060
H      -3.42943464      4.12249130      4.81961664
H      -3.28241567      2.11936881      4.93684535
H      -4.67658734      2.95847767      3.75420659
H      11.94339154     -5.83736521    -13.38080460
H      12.89555177     -7.08721893    -14.73893726
H      12.27974883     -7.82967101    -12.89952040
H       8.48924240      2.41515295     12.82697058
H       6.41601731      4.60543092     13.44823871
H      -1.13828230     -7.32117472     11.81248835
H       8.37899798      0.90315513     11.07856369
H      -8.70122836     -4.16265324     22.46204539
H       6.49225027      7.34014827     11.54796583
H      -2.36236231     13.40373117     23.44508467
H       9.04666783      6.19800237     13.46675667
H       8.59819752     -1.10077528     -5.78350483
H      -2.52948174     11.60203988     11.09107565
H      17.22598738      0.28665611     -4.28478723
H      -2.51709821      2.80689082    -11.40787625
H      10.77803274     -8.81446023      4.41461473
H      28.53785649     -1.46709382     -0.02460914
H       9.41656724      5.51366185     11.97413430
C      17.30533852     -4.04160782     16.91593627
C      -1.20169891     -6.09518107     11.80760190
C       7.43837298      2.69546314     12.26057266
C       7.39653303      4.34831579     12.75625835
C       7.38333151      1.57560731     10.96007658
C       7.61735969      7.12754503     11.92918512
C       8.34623085      5.75359210     12.53833329
C      -1.97434909     12.69791111     11.17476094
C      -1.84300619     14.36806213     23.05199376
C       8.00535903     -1.20657211     -4.74958813
C      17.25860209      0.80117131     -5.35838485
C      17.92272133      0.02909793     -6.51302694
C      28.24098323     -0.49965651     -0.66792660
C       6.76188953     -0.34662183     -4.29767229
C      10.60256318     -7.88937620      5.17382524
H      27.78790090     -0.62880472     -1.77063380
H      -6.28417758     -5.64416521     -4.19427980
H      16.35756027     -3.76018924     17.46723157
H      -8.57292023     -3.49042422     22.83627154
H      -0.19857370     -5.66597247     12.37029001
H       7.42011643      0.66500219      8.68547310
H       6.73210085      2.06850634     13.04861218
H       7.96694933      8.27202565     11.73406161
H      -1.32365016     15.33239415     22.65890532
H       5.32144016      3.50600848      4.06544611
H       8.46922529     -2.04867899     -4.04427316
H      -2.12640072     13.31675197     10.12118287
H      16.80696195      1.87857652     -5.58997217
H      -2.67735660      4.86884838    -11.59892040
H      11.77035638     -7.71780501      5.43780525
H      28.39719184      0.59692418     -0.20854031
H      -2.46949096     13.33884018     12.10220726
   94

C      -8.28244420     -4.49093837     -4.59966750
C      -7.14676728     -5.01329084     -3.58991184
H      -9.10398284     -4.10414509     -5.34292119
C     -19.89020480      4.49661493     -4.15129369
H     -18.83582719     -7.16981744     -1.82050085
H      -6.60702059     -4.07192888     -3.01578398
C       9.68484267     -4.89314341      7.27192399
H      -7.60996085     -5.75413805     -2.72751385
H      -7.28386867     -5.67951876    -16.88570892
H      -7.27615790     -6.44891316    -16.75775267
C       6.73318436      0.66693766      9.66438534
H       5.71771804      0.18217982      9.20667789
C       9.27413068     -5.44654347      5.85290052
H       6.28284039     -0.46953888      9.66496672
H      10.00364401     -4.74167588      5.15578703
H       8.26885830     -4.76630952      5.64720924
C       9.23772366     -7.14004170      5.71524142
H       8.28088334     -7.54568086      5.03955701
C       5.52885334      0.65468321     -3.82044362
H       8.83351592     -7.73243976      6.72758619
H       5.23623446      0.98578943     -4.97562477
H       6.05446546      1.74294233     -3.61243090
C       4.38339512      0.15369265     -2.66100142
H       3.92160498     -0.86216665     -2.18084477
C       6.77730174      9.35317015    -15.75338928
H       3.88910708     -0.79085140     -3.23720380
H       6.13120968     10.16129595    -16.21264728
H      -0.77023365     12.54043849     11.38734623
C      12.37285862     -6.91803396    -13.67288797
H     -18.96803774      4.90613886     -3.57160834
H     -19.21515083     -7.15378884     -1.13913700
C      -3.17999169      3.80556473    -11.36555639
H     -20.82063082      4.11392951     -4.73609873
C      -2.53729852     -5.58026370     12.53629407
H      -4.34524318      3.74054100    -11.09007542
H      -1.16341698     -5.72174618     10.63823085
H      -3.51339990     -5.20457882     13.06830055
C       3.62153957      1.16047625     -1.57259295
H      -2.75397911      3.07753248      3.27022188
C      -3.54703447      3.07396132      4.21194698
H       2.53203443      1.63798947     -1.67704126
H      -3.44416081      4.12820692      4.83951871
H      -3.29954242      2.12526460      4.95662938
H      -4.69230762      2.96483874      3.77331861
H      11.94336984     -5.83727184    -13.38064549
H      12.89550722     -7.08714171    -14.73879455
H      12.27971035     -7.82957140    -12.89936471
H       8.49506695      2.40890555     12.79799712
H       6.42952032      4.59186895     13.43509169
H      -1.13700157     -7.32010861     11.81236567
H       8.37899994      0.92752352     11.00995199
H      -8.70116332     -4.16264511     22.46199947
H       6.49067899      7.33784927     11.54346190
H      -2.36230636     13.40424434     23.44879884
H       9.02810109      6.17065684     13.47765697
H       8.57148596     -1.06805528     -5.80698002
H      -2.52744640     11.60825432     11.09341192
H      17.22525652      0.28668147     -4.28458446
H      -2.51731208      2.80707251    -11.40794583
H      10.79627404     -8.84449136      4.44887310
H      28.53781039     -1.46708598     -0.02460674
H       9.40919818      5.51169104     11.96426678
C      17.30446337     -4.04119684     16.91544399
C      -1.20054697     -6.09411884     11.80744943
C       7.43687326      2.68748273     12.24346360
C       7.39913139      4.33585446     12.72878417
C       7.37552416      1.59444052     10.92809684
C       7.61335677      7.12207967     11.92995045
C       8.33994492      5.74478488     12.53259476
C      -1.97236344     12.70415088     11.17712010
C      -1.84295237     14.36857668     23.05570846
C       7.97389944     -1.17008553     -4.77495855
C      17.25792124      0.80120819     -5.35817551
C      17.92215669      0.02919641     -6.51279351
C      28.24093198     -0.49964896     -0.66792229
C       6.73673247     -0.31084410     -4.30072247
C      10.62092032     -7.92094380      5.21001889
H      27.78784339     -0.62879653     -1.77062701
H      -6.28373969     -5.64379740     -4.19385433
H      16.35656197     -3.75970254     17.46648985
H      -8.57285708     -3.49041719     22.83622822
H      -0.19736191     -5.66465652     12.36984507
H       7.35569357      0.84888779      8.60903580
H       6.70958364      2.06575055     13.01713266
H       7.96907139      8.26470588     11.73608110
H      -1.32359829     15.33290981     22.66262013
H       5.20785194      2.74197112      3.36370050
H       8.44357098     -2.01572534     -4.07802674
H      -2.12432877     13.32287430     10.12345888
H      16.80626588      1.87861388     -5.58973083
H      -2.67743373      4.86907456    -11.59860503
H      11.78854842     -7.75202270      5.47639857
H      28.39714136      0.59693156     -0.20853587
H      -2.46757964     13.34513113     12.10449322
   94

C      -8.28221628     -4.49069473     -4.59954558
C      -7.14655877     -5.01302344     -3.58975152
H      -9.10434172     -4.10436164     -5.34239009
C     -19.89055033      4.49802945     -4.15152697
H     -18.83577668     -7.16978778     -1.82048249
H      -6.60643157     -4.07190610     -3.01557699
C       9.69979798     -4.91781741      7.30412173
H      -7.61053372     -5.75375304     -2.72767186
H      -7.28393240     -5.67955605    -16.88577816
H      -7.27621680     -6.44894946    -16.75781624
C       6.71836230      0.71729682      9.61410379
H       5.68077782      0.28083724      9.15346278
C       9.28897590     -5.47322178      5.88584558
H       6.28938875     -0.42828901      9.62189896
H      10.01793015     -4.76910700      5.18735955
H       8.28328344     -4.79290544      5.68211848
C       9.25450159     -7.16688744      5.74881624
H       8.29784506     -7.57295784      5.07308870
C       5.51904961      0.69251285     -3.78420610
H       8.85091965     -7.75907551      6.76153840
H       5.19486459      0.99238784     -4.93966519
H       6.02831893      1.79473960     -3.62388539
C       4.42342641      0.22451949     -2.55861731
H       3.81380896     -0.75788697     -2.19291207
C       6.77732145      9.35322525    -15.75332620
H       3.91882821     -0.70880821     -3.13735960
H       6.13122163     10.16134270    -16.21258793
H      -0.76862381     12.54691964     11.38993968
C      12.37280309     -6.91792516    -13.67269230
H     -18.96770054      4.90543019     -3.57142306
H     -19.21510030     -7.15375930     -1.13911864
C      -3.18042423      3.80584547    -11.36596469
H     -20.82035358      4.11322007     -4.73593766
C      -2.53651179     -5.57947612     12.53562591
H      -4.34563447      3.74083297    -11.09030935
H      -1.16259868     -5.72063237     10.63752413
H      -3.51270625     -5.20418141     13.06774232
C       3.79029380      1.19774940     -1.35203136
H      -2.76034941      3.07940393      3.28785406
C      -3.55641450      3.07597820      4.22708834
H       2.70256942      1.69609361     -1.40556034
H      -3.45431004      4.13013605      4.85500192
H      -3.31014885      2.12754770      4.97257857
H      -4.70142967      2.96696091      3.78770997
H      11.94332523     -5.83716294    -13.38043029
H      12.89544194     -7.08705279    -14.73860138
H      12.27964908     -7.82945320    -12.89915757
H       8.49844269      2.40509290     12.77733739
H       6.44142912      4.57898858     13.41852628
H      -1.13608845     -7.31905889     11.81159514
H       8.38410929      0.94042984     10.96565107
H      -8.70111317     -4.16263205     22.46194067
H       6.48880383      7.33572512     11.53971007
H      -2.36224869     13.40474667     23.45248986
H       9.00881445      6.14213282     13.48622251
H       8.54520787     -1.03611843     -5.82780207
H      -2.52578834     11.61470372     11.09596119
H      17.22407667      0.28671420     -4.28411221
H      -2.51784349      2.80730238    -11.40869082
H      10.81289460     -8.87225900      4.48275782
H      28.53771822     -1.46707597     -0.02460214
H       9.40070411      5.50779930     11.95292703
C      17.30405091     -4.04098873     16.91521239
C      -1.19967886     -6.09306895     11.80672637
C       7.43510947      2.67611444     12.22715193
C       7.39890880      4.32285734     12.69691448
C       7.37309545      1.59913606     10.90251698
C       7.60964325      7.11585273     11.92909396
C       8.33277226      5.73462465     12.52545100
C      -1.97075406     12.71062383     11.17970159
C      -1.84289558     14.36907969     23.05940011
C       7.94358883     -1.13395804     -4.79718421
C      17.25687946      0.80125745     -5.35769211
C      17.92133137      0.02935593     -6.51226266
C      28.24083065     -0.49963948     -0.66791425
C       6.71475706     -0.27477766     -4.29668727
C      10.63737380     -7.94893627      5.24418951
H      27.78773097     -0.62878635     -1.77061449
H      -6.28328029     -5.64353597     -4.19333334
H      16.35609534     -3.75945694     17.46614664
H      -8.57280929     -3.49040557     22.83617280
H      -0.19648281     -5.66352285     12.36904569
H       7.32224137      0.95211298      8.55820006
H       6.68519494      2.06529654     12.98896860
H       7.97127930      8.25696549     11.73827116
H      -1.32354248     15.33341368     22.66631269
H       5.09149778      2.16544424      2.64539095
H       8.42001723     -1.98294577     -4.10911705
H      -2.12267406     13.32928669     10.12599703
H      16.80517177      1.87864558     -5.58922993
H      -2.67781392      4.86935860    -11.59888216
H      11.80463749     -7.78309734      5.51406130
H      28.39704271      0.59694083     -0.20852824
H      -2.46601766     13.35162481     12.10703631
   94

C      -8.28137556     -4.49016434     -4.59913089
C      -7.14542030     -5.01224105     -3.58952977
H      -9.10420195     -4.10448300     -5.34154021
C     -19.89073938      4.49945095     -4.15171551
H     -18.83561723     -7.16969893     -1.82045098
H      -6.60446424     -4.07155234     -3.01542473
C       9.71082414     -4.93780316      7.32796318
H      -7.61075870     -5.75273996     -2.72798537
H      -7.28389008     -5.67953955    -16.88575898
H      -7.27617889     -6.44893354    -16.75780031
C       6.70166191      0.75812486      9.57193791
H       5.63023661      0.40764196      9.10746862
C       9.29810409     -5.49491507      5.91076132
H       6.31736334     -0.40489705      9.62236863
H      10.02676653     -4.79215305      5.21045756
H       8.29246590     -4.81330174      5.70976107
C       9.26954591     -7.18946099      5.77875376
H       8.31334328     -7.59720347      5.10330194
C       5.51001630      0.74821460     -3.64441904
H       8.86743288     -7.78113242      6.79244291
H       5.11229022      0.99242523     -4.79000116
H       5.98388675      1.87198038     -3.57232042
C       4.52343429      0.38491605     -2.28958236
H       3.69820564     -0.48363807     -2.13345536
C       6.77725769      9.35277083    -15.75254447
H       3.97362524     -0.54424861     -2.81401289
H       6.13125099     10.16089785    -16.21192283
H      -0.76700915     12.55321506     11.39220641
C      12.37234461     -6.91729667    -13.67192055
H     -18.96717283      4.90466984     -3.57119905
H     -19.21494301     -7.15367124     -1.13908832
C      -3.17971963      3.80564759    -11.36533380
H     -20.81991843      4.11249704     -4.73572736
C      -2.53539749     -5.57810561     12.53393322
H      -4.34495877      3.74067866    -11.08979251
H      -1.16141875     -5.71872082     10.63569383
H      -3.51163793     -5.20332572     13.06633767
C       4.22415868      1.12770443     -0.80522146
H      -2.75369301      3.07646117      3.29807848
C      -3.55447451      3.07448551      4.23342114
H       3.17201290      1.70427239     -0.70348715
H      -3.45435672      4.12871540      4.86167012
H      -3.31051441      2.12667747      4.98059208
H      -4.69933367      2.96608814      3.79334328
H      11.94284700     -5.83658463    -13.37948360
H      12.89496904     -7.08642857    -14.73783995
H      12.27921780     -7.82887681    -12.89843808
H       8.50718258      2.40859160     12.75803526
H       6.46661294      4.56181659     13.39147481
H      -1.13488622     -7.31733340     11.80966933
H       8.40411395      0.95463020     10.92798622
H      -8.70101793     -4.16259184     22.46177845
H       6.48475842      7.33061022     11.53337837
H      -2.36221157     13.40525670     23.45616231
H       8.97480651      6.09221599     13.50043020
H       8.48849113     -0.98772963     -5.82566053
H      -2.52405845     11.62087147     11.09809620
H      17.22121206      0.28702596     -4.28314203
H      -2.51714852      2.80710060    -11.40810581
H      10.82831533     -8.89866116      4.51673500
H      28.53750198     -1.46704732     -0.02459358
H       9.38470558      5.50161898     11.93025508
C      17.30322965     -4.04092092     16.91429424
C      -1.19851065     -6.09134021     11.80484294
C       7.43413618      2.65644302     12.21102939
C       7.40021781      4.30262334     12.64207714
C       7.37832846      1.59525509     10.87912058
C       7.60346458      7.10410439     11.92479665
C       8.32102057      5.71779747     12.51307341
C      -1.96914381     12.71684742     11.18192627
C      -1.84286047     14.36958675     23.06306280
C       7.88125219     -1.07660183     -4.79630038
C      17.25409391      0.80153088     -5.35673916
C      17.91911196      0.02992096     -6.51118159
C      28.24060075     -0.49961151     -0.66790044
C       6.66088849     -0.23242092     -4.23988169
C      10.65224436     -7.97442688      5.27708070
H      27.78748157     -0.62875528     -1.77059304
H      -6.28166733     -5.64267975     -4.19252002
H      16.35524265     -3.75935048     17.46515407
H      -8.57271924     -3.49036836     22.83601772
H      -0.19529301     -5.66177006     12.36711913
H       7.30131762      1.04247824      8.52446813
H       6.63951784      2.07471313     12.95293157
H       7.97469766      8.24266194     11.73933096
H      -1.32350938     15.33391679     22.66996328
H       4.46862237      1.34839687      0.37417939
H       8.37491325     -1.93203420     -4.12853719
H      -2.12101265     13.33546016     10.12818286
H      16.80196447      1.87874143     -5.58827967
H      -2.67704899      4.86916366    -11.59810369
H      11.81891109     -7.81322612      5.55233589
H      28.39681871      0.59696806     -0.20851469
H      -2.46449498     13.35784300     12.10921959
