   94

C       9.69106282     -6.51123676     -7.42111130
C      -0.13780948    -10.10099914     -9.64589185
H       9.74270251     -5.60979833     -6.57892416
C       2.07191407     -2.96032744      6.01736852
H     -18.89185999     -7.18329685     -1.80818867
H      -0.65501307     -9.35275901     -8.92485160
C       3.24800132     -3.37815178      7.17299538
H       8.89300799     -7.25712921     -6.82505781
H      -8.49954402     -6.32987055    -17.79465557
H      -8.49183283     -7.09926454    -17.66669690
C       8.69677213      3.44729220     -1.13269219
H      16.06815498      6.49024517     13.51608381
C       5.95181706     -4.67661239      4.84996348
H       8.69762335     12.50209589      3.26615678
H       6.36217585     -4.21732436      3.84672727
H       2.67436077     -9.94942219     15.78731110
C       3.97211799     -4.94978758      6.98007381
H       3.15071367     -5.79105723      6.57611995
C       7.88281436     13.06510723      5.68936579
H       3.95451646     -5.57558842      8.05623611
H       8.80217183     14.36267732      6.99540968
H       6.90404457     13.68542569      5.28954197
C       8.59118059     12.16771623      4.44858463
H      11.99394603      1.26948786     -2.17002802
C      10.84039524      1.62240414     -2.08407224
H       8.40091855      5.52765448     -1.07566276
H       7.99924495     11.10066665      4.24766583
H      -1.89889569     10.00514777     11.47760470
C      11.05223511     -7.26928384     -8.12267413
H       1.07500299     -2.40460868      6.46580376
H     -19.27118577     -7.16726916     -1.12682601
C      -4.44228487    -10.52006238      1.53588220
H       2.48332924     -3.55398456      8.13831206
C       1.64829807     -9.76575282     16.38009012
H      -5.25328707    -10.99095879      2.22487946
H     -10.70560917    -12.23110870     15.67909769
H       1.24358724     -8.64931173     16.54650682
C      -5.11400989      0.78841046     -7.74778308
H       4.06368366      7.98524866     -2.47339682
C       1.82016801      7.30420214     -2.23170906
H      -5.61817727      1.69498861     -8.27515064
H       1.31039211      7.97300883     -1.32455371
H       0.98143038      6.40421369     -2.30749382
H       1.32250319      7.93519455     -3.17479062
H      11.30767032     -6.96902222     -9.29927970
H      10.89641408     -8.43375252     -8.52492438
H      12.81943496     -7.82394944     -6.28044033
H       5.31919901     -0.40099837      5.74346833
H       3.53969923     -1.06614709      8.16340943
H       1.02694620    -10.69852455     16.80645246
H      10.38186064      1.13495891     -3.07681836
H      -9.42675544     -2.95204824     23.99740376
H       7.08030546     13.30175511      9.65261224
H       8.25276244     12.10355502      7.52790401
H       5.22239661     -2.27378493     10.13113989
H      23.68739798      6.18932909     -2.70616817
H      -3.93269374      8.92602337     11.13716834
H      24.37757154      6.33770482     -2.37443862
H       2.40878637     -3.80658759      3.61175573
H       5.67985041     -6.54145594      5.89685005
H       9.06223764     -5.73695874     -8.15049352
H       6.52704029     -2.14600964      8.93808192
C       1.78534317     -3.06579315      4.36748831
C     -10.10363326    -12.17420345     16.67336729
C       4.84932705     -1.11977169      6.54976130
C       4.18220263     -2.02572014      7.71276763
C       9.95666856      2.45532253     -1.00632046
C       8.03560682     13.73831720      8.99095479
C       5.31759384     -2.15156931      8.93027343
C      -2.91579674      9.46558950     11.30738613
C       8.21639531     13.32435063      7.32763541
C       4.73248604      5.88257234     -2.02597707
C       6.15045855      5.26815221     -1.50332706
C       7.62645244      4.64512732     -1.24393203
C      12.45253969     -7.16467094     -7.22580162
C       3.48138777      6.97483090     -2.16308242
C       5.45953706     -5.36747039      6.22451622
H       9.80940167     11.97527024      4.52978847
H      -0.20452130    -10.87114406    -10.51173722
H       0.68358008     -3.51141293      4.02931438
H      -9.29845674     -2.27982476     24.37164303
H      -9.50165738    -12.11729820     17.66763690
H      15.89232057      7.24369828     13.41713639
H      10.35349398      2.24395014      0.11000409
H       9.00332892     13.49635852      9.73934042
H       7.83353065     14.89134902      9.40033948
H      -4.60984251     -0.11816769     -7.22041552
H       4.63534101      5.12263996     -2.93467624
H      -7.32753058     20.54354438      9.86115128
H      -3.63128267    -10.04916597      0.84688493
H       1.95959232     -2.01723379      3.73887805
H       6.50346369     -5.29629554      6.88139265
H      13.38877002     -6.40006282     -7.29176709
H      -7.46074211     20.55216357     10.62964357
   94

C       9.81398744     -6.69496239     -7.58994526
C      -0.14954295    -10.10542950     -9.65903052
H       9.87003497     -5.79660054     -6.74441014
C       2.02381488     -3.00538631      6.19713061
H     -18.89292056     -7.18316082     -1.80840211
H      -0.64825028     -9.34971605     -8.93255724
C       3.20012035     -3.42745480      7.35043287
H       9.01266103     -7.43782185     -6.99564177
H      -8.50335870     -6.32834044    -17.79890336
H      -8.49565602     -7.09773961    -17.67097519
C       8.61463634      3.06574778     -1.25155326
H      16.06910727      6.49004347     13.51689018
C       5.90342212     -4.72686277      5.02355255
H       8.68571205     12.52393409      3.27318249
H       6.31326390     -4.26962399      4.01917280
H       2.66133939    -10.04436187     15.93521843
C       3.92516531     -4.99820158      7.15570237
H       3.10308508     -5.83833148      6.75102943
C       7.88130103     13.06503077      5.69658100
H       3.90717875     -5.62548356      8.23104638
H       8.84960173     14.34443016      6.99964807
H       6.89531061     13.68152991      5.30898452
C       8.58736964     12.17247480      4.45134557
H      12.08815749      1.24670678     -2.34725845
C      10.91209397      1.51073539     -2.26121433
H       8.20057462      5.14945391     -1.12624002
H       8.00313414     11.10106601      4.25141835
H      -1.89946325     10.00602125     11.47894900
C      11.17645974     -7.45346860     -8.28878725
H       1.02588822     -2.45239844      6.64670489
H     -19.27213485     -7.16715247     -1.12697692
C      -3.62578525     -9.65257932      1.21932411
H       2.43610539     -3.60333745      8.31622447
C       1.63520499     -9.86071743     16.52788214
H      -4.48609626    -10.16935733      1.79615066
H     -10.73027346    -12.23537735     15.67878179
H       1.23050635     -8.74428579     16.69439555
C      -5.13704882      0.77368634     -7.76527963
H       3.84606654      8.42487696     -2.50199726
C       1.57255815      7.73090228     -2.27603901
H      -5.64179557      1.68001834     -8.29248542
H       1.07770237      8.38508367     -1.35127172
H       0.74434132      6.82037379     -2.34226627
H       1.07564197      8.36291117     -3.21759223
H      11.43249159     -7.15253568     -9.46511405
H      11.01987888     -8.61866632     -8.68860972
H      12.94643913     -8.01391623     -6.44921324
H       5.27666053     -0.45573277      5.91695048
H       3.49216248     -1.11357620      8.33670712
H       1.01375704    -10.79352828     16.95402016
H      10.52279175      1.08952735     -3.31208985
H      -9.42696162     -2.95197909     23.99771988
H       7.06823930     13.30344438      9.63953732
H       8.28829341     12.10232905      7.53310431
H       5.17128630     -2.32499157     10.30680194
H      23.68819625      6.18966452     -2.70626735
H      -3.93332259      8.92699057     11.13855058
H      24.37833212      6.33800055     -2.37444249
H       2.36984497     -3.83558157      3.78818128
H       5.63166213     -6.59107813      6.07087468
H       9.17415078     -5.92997149     -8.31995598
H       6.47728380     -2.19563284      9.11510079
C       1.74589713     -3.09716147      4.54561190
C     -10.12832023    -12.17847986     16.67306510
C       4.80456059     -1.17127428      6.72479696
C       4.13414023     -2.07439735      7.88798680
C       9.97962280      2.23197129     -1.15083301
C       8.02984163     13.74265694      8.98914246
C       5.26792691     -2.20110822      9.10630612
C      -2.91640384      9.46651944     11.30877207
C       8.23463412     13.32218129      7.33066969
C       4.40477891      6.25810476     -2.27228557
C       5.93517700      4.52948661     -1.25115182
C       7.50929886      4.21600285     -1.35474074
C      12.57764464     -7.35266349     -7.39259523
C       3.23344879      7.42570824     -2.21637950
C       5.41144143     -5.41704412      6.39849839
H       9.80459550     11.97079777      4.52519930
H      -0.19701194    -10.88042864    -10.52199282
H       0.64365447     -3.53809053      4.20368922
H      -9.29864288     -2.27975069     24.37194344
H      -9.52637864    -12.12158401     17.66735553
H      15.89323294      7.24348231     13.41790514
H      10.42645303      2.09320117     -0.04430503
H       8.98699746     13.50564986      9.75241421
H       7.81911376     14.89786091      9.38757864
H      -4.63183010     -0.13245532     -7.23820848
H       4.30489618      5.57668464     -3.23902789
H      -7.32769308     20.54383112      9.86136747
H      -2.90387536     -9.31742663      0.37870656
H       1.91962794     -2.04627986      3.92095280
H       6.45555496     -5.34566569      7.05502888
H      13.51435945     -6.58865016     -7.45858954
H      -7.46088950     20.55241979     10.62986268
   94

C       9.93768611     -6.87812935     -7.75877935
C      -0.16199162    -10.11251793     -9.67812537
H       9.99812580     -5.98283674     -6.90993762
C       1.97982449     -3.04243314      6.39316755
H     -18.89350583     -7.18317465     -1.80845783
H      -0.64125922     -9.34760650     -8.94806454
C       3.15808581     -3.47417661      7.53961566
H       9.13313904     -7.61802725     -7.16628382
H      -8.50723503     -6.32681963    -17.80317449
H      -8.49954828     -7.09622431    -17.67527835
C       8.48491115      2.66375914     -1.39532229
H      16.07000891      6.48983410     13.51749843
C       5.85900757     -4.77496620      5.20385418
H       8.67415900     12.54496460      3.28057677
H       6.26987969     -4.31987489      4.19891542
H       2.64788324    -10.13963172     16.08279850
C       3.88226973     -5.04420757      7.33904218
H       3.05819913     -5.88167536      6.93322095
C       7.88030506     13.06456812      5.70374546
H       3.86396364     -5.67453712      8.41266941
H       8.89614472     14.32526170      7.00396091
H       6.88715579     13.67703055      5.32836777
C       8.58367407     12.17637733      4.45413590
H      12.15370848      1.27145472     -2.49890035
C      10.96231632      1.46131374     -2.44188720
H       7.85937913      4.69203952     -1.18333966
H       8.00714996     11.10073089      4.25482651
H      -1.89995638     10.00687321     11.48007501
C      11.30136579     -7.63733021     -8.45484534
H       0.98134993     -2.49267766      6.84541555
H     -19.27264615     -7.16716743     -1.12699150
C      -2.81719996     -8.75912204      0.91252294
H       2.39541846     -3.65076687      8.50627503
C       1.62166799     -9.95599455     16.67532213
H      -3.73314821     -9.40963815      1.19828219
H     -10.75473339    -12.23959034     15.67805599
H       1.21700442     -8.83957681     16.84200622
C      -5.15998077      0.76136570     -7.78342536
H       3.66342587      8.86459253     -2.52492737
C       1.37078607      8.13445263     -2.31801184
H      -5.66524275      1.66760233     -8.31022319
H       0.87852722      8.77357436     -1.38223364
H       0.56332722      7.20530521     -2.37777328
H       0.87528654      8.75884513     -3.26426795
H      11.55802419     -7.33581346     -9.63090538
H      11.14402343     -8.80327700     -8.85216246
H      13.07391606     -8.20315965     -6.61769116
H       5.24141758     -0.50691525      6.09929682
H       3.45203864     -1.15726720      8.51950861
H       1.00011063    -10.88884493     17.10121080
H      10.65257016      1.09206397     -3.53804717
H      -9.42716586     -2.95194200     23.99797637
H       7.05654178     13.30487704      9.62592777
H       8.32341902     12.10087125      7.53812815
H       5.12680659     -2.37515326     10.48988087
H      23.68864433      6.18991906     -2.70628877
H      -3.93387271      8.92792940     11.13971101
H      24.37876113      6.33821734     -2.37440800
H       2.34059844     -3.84321661      3.97925893
H       5.58570893     -6.63901070      6.25045382
H       9.28698374     -6.12259089     -8.48943312
H       6.43400093     -2.24454170      9.29874048
C       1.71710270     -3.10779552      4.73943967
C     -10.15284955    -12.18271228     16.67238227
C       4.76715158     -1.21910815      6.90892359
C       4.09236126     -2.11967043      8.07171232
C       9.96516439      2.05911502     -1.31755909
C       8.02419317     13.74668640      8.98663713
C       5.22481440     -2.24907105      9.28988213
C      -2.91693436      9.46742569     11.30993398
C       8.25288679     13.31953554      7.33347618
C       4.16308927      6.67849861     -2.34056712
C       5.66757308      3.74931829     -1.40740118
C       7.26861961      3.69681320     -1.42777313
C      12.70332219     -7.54006578     -7.55921321
C       3.03346127      7.87236878     -2.25406492
C       5.36648327     -5.46492814      6.57868884
H       9.79981870     11.96555638      4.52052678
H      -0.18823104    -10.89334736    -10.53685522
H       0.61264678     -3.53925086      4.39437510
H      -9.29883076     -2.27971120     24.37219004
H      -9.55098593    -12.12583601     17.66672089
H      15.89409290      7.24325931     13.41848379
H      10.45051878      2.02887494     -0.22041589
H       8.97063513     13.51474463      9.76454388
H       7.80510540     14.90403291      9.37388472
H      -4.65381319     -0.14468278     -7.25720220
H       4.12589737      6.04055624     -3.33959379
H      -7.32783883     20.54407581      9.86155664
H      -2.29163865     -8.69265207     -0.11901278
H       1.89090287     -2.05364117      4.12086813
H       6.41113378     -5.39443769      7.23448465
H      13.64021423     -6.77623749     -7.62484404
H      -7.46102180     20.55263839     10.63005442
   94

C      10.06222645     -7.06096323     -7.92792591
C      -0.17600117    -10.12417714     -9.70409055
H      10.12700319     -6.16873518     -7.07581307
C       1.93460095     -3.07425428      6.61132120
H     -18.89368313     -7.18325858     -1.80839897
H      -0.63606605     -9.34866698     -8.97284929
C       3.11986783     -3.52056384      7.74310161
H       9.25452581     -7.79799257     -7.33730064
H      -8.51122379     -6.32533474    -17.80753751
H      -8.50355780     -7.09474460    -17.67967093
C       8.34791507      2.27097968     -1.55066728
H      16.07092491      6.48962290     13.51804996
C       5.81417873     -4.82193642      5.39098045
H       8.66245325     12.56595946      3.28836861
H       6.22833227     -4.36773700      4.38697930
H       2.63402769    -10.23537799     16.23032065
C       3.83916387     -5.09076593      7.52983121
H       3.01135487     -5.92360264      7.12220260
C       7.87933519     13.06426014      5.71099378
H       3.82133736     -5.72647428      8.60036332
H       8.94151807     14.30558929      7.00842758
H       6.87899973     13.67231268      5.34783068
C       8.57973784     12.18026394      4.45700659
H      12.18034978      1.32431428     -2.63370279
C      10.98051774      1.45933046     -2.61950075
H       7.46490952      4.19335277     -1.27652412
H       8.01082388     11.10053708      4.25813886
H      -1.90039166     10.00770063     11.48095696
C      11.42699540     -7.82114450     -8.62114746
H       0.93661044     -2.52912601      7.06994626
H     -19.27278487     -7.16724160     -1.12691148
C      -2.10226253     -7.90237227      0.41868331
H       2.36114036     -3.69900164      8.71244183
C       1.60774448    -10.05172750     16.82271713
H      -2.96300830     -8.67123734      0.54338882
H     -10.77909468    -12.24374765     15.67709107
H       1.20312714     -8.93533185     16.98964371
C      -5.18447334      0.75137076     -7.80319196
H       3.50995811      9.26679265     -2.55864416
C       1.19722060      8.51603018     -2.36371723
H      -5.68994269      1.65784080     -8.32923793
H       0.71180611      9.14514722     -1.41830721
H       0.40750479      7.57161308     -2.41360422
H       0.70436023      9.13258427     -3.31541785
H      11.68432538     -7.51912434     -9.79694732
H      11.26888242     -8.98785674     -9.01589022
H      13.20191140     -8.39207521     -6.78620205
H       5.21161832     -0.55654757      6.29116583
H       3.41944667     -1.19921427      8.71368521
H       0.98608322    -10.98461499     17.24836584
H      10.75196638      1.13748080     -3.75034716
H      -9.42737605     -2.95192850     23.99819344
H       7.04515449     13.30620393      9.61196117
H       8.35786082     12.09948777      7.54301600
H       5.08982030     -2.42600757     10.68111503
H      23.68890314      6.19006423     -2.70627491
H      -3.93435379      8.92882396     11.14062562
H      24.37900889      6.33833793     -2.37436063
H       2.31117451     -3.83337579      4.19295900
H       5.53742545     -6.68714625      6.43417216
H       9.40081463     -6.31504182     -8.65924722
H       6.39726900     -2.29491619      9.48895372
C       1.68758277     -3.10219084      4.95628270
C     -10.17729962    -12.18690010     16.67147269
C       4.73551251     -1.26540779      7.10289751
C       4.05605561     -2.16388435      8.26516643
C       9.91159307      1.92420886     -1.49805970
C       8.01857915     13.75058544      8.98358674
C       5.18832903     -2.29792996      9.48157424
C      -2.91740160      9.46829927     11.31084651
C       8.27091044     13.31675102      7.33615022
C       3.97137804      7.08162458     -2.34678359
C       5.40795197      3.07925852     -1.61783995
C       7.00477538      3.13594725     -1.54094969
C      12.82960743     -7.72721862     -7.72594151
C       2.85854476      8.28231540     -2.31238578
C       5.32054853     -5.51324087      6.76470964
H       9.79471870     11.96046237      4.51582001
H      -0.17831184    -10.91150898    -10.55729688
H       0.58005731     -3.52454542      4.61211868
H      -9.29902761     -2.27969725     24.37240177
H      -9.57553459    -12.13005390     17.66587261
H      15.89496710      7.24303592     13.41901705
H      10.41676004      2.03098102     -0.41542839
H       8.95423268     13.52377001      9.77577493
H       7.79145175     14.91002509      9.35946786
H      -4.67775246     -0.15517381     -7.27854544
H       3.99101416      6.39901059     -3.31378161
H      -7.32795747     20.54426853      9.86170773
H      -1.63600455     -8.06189472     -0.63211074
H       1.86140999     -2.04394520      4.34564855
H       6.36625432     -5.44541342      7.41922941
H      13.76642874     -6.96324558     -7.79087675
H      -7.46113004     20.55281109     10.63020750
   94

C      10.18746000     -7.24314121     -8.09732330
C      -0.19347067    -10.14325955     -9.73739739
H      10.25650942     -6.35399772     -7.24195551
C       1.87951450     -3.11227631      6.84646099
H     -18.89347930     -7.18335963     -1.80827920
H      -0.63702669     -9.35699840     -9.00757692
C       3.07981264     -3.57107014      7.95572277
H       9.37670619     -7.97744298     -7.50865269
H      -8.51534628     -6.32391045    -17.81197344
H      -8.50770404     -7.09332388    -17.68412630
C       8.23113887      1.92484995     -1.71346841
H      16.07180478      6.48937688     13.51854703
C       5.76176468     -4.87030677      5.58055283
H       8.65019028     12.58664792      3.29630677
H       6.18101102     -4.41455706      4.57941038
H       2.62000882    -10.33130760     16.37769345
C       3.79103925     -5.14221564      7.72422293
H       2.95876212     -5.96979350      7.31471602
C       7.87807858     13.06394140      5.71812111
H       3.77566451     -5.78511888      8.79053337
H       8.98541967     14.28535748      7.01279231
H       6.87052040     13.66717859      5.36715355
C       8.57514267     12.18392482      4.45972674
H      12.16933707      1.39040137     -2.75686384
C      10.96583621      1.48207277     -2.78858802
H       7.05938800      3.68645370     -1.41972581
H       8.01367011     11.10030078      4.26115196
H      -1.90071000     10.00841301     11.48152249
C      11.55324512     -8.00459008     -8.78750177
H       0.88393598     -2.57253581      7.31607455
H     -19.27258396     -7.16732783     -1.12679376
C      -1.44297865     -6.95479425     -0.23315459
H       2.33002366     -3.75223968      8.93146700
C       1.59366800    -10.14762505     16.96997390
H      -2.10393824     -7.90685130     -0.13267414
H     -10.80340042    -12.24789860     15.67611525
H       1.18910953     -9.03125923     17.13722169
C      -5.21169427      0.74433958     -7.82517695
H       3.37200036      9.63768423     -2.58937227
C       1.03928313      8.88158766     -2.40979207
H      -5.71678107      1.65151855     -8.35009563
H       0.56354588      9.50280409     -1.45479769
H       0.26505011      7.92430287     -2.44882275
H       0.54872745      9.49240727     -3.36553241
H      11.81130553     -7.70211806     -9.96303420
H      11.39433564     -9.17207612     -9.17960811
H      13.33019756     -8.58036682     -6.95442338
H       5.17855855     -0.61030090      6.48656516
H       3.38955915     -1.24457653      8.91479153
H       0.97188372    -11.08054935     17.39535369
H      10.81467308      1.20917535     -3.94529574
H      -9.42760907     -2.95192374     23.99842429
H       7.03407328     13.30729638      9.59761915
H       8.39126814     12.09803988      7.54757798
H       5.05855855     -2.47956371     10.87615920
H      23.68897416      6.19008465     -2.70623267
H      -3.93471653      8.92960038     11.14123313
H      24.37907579      6.33835130     -2.37430689
H       2.25943972     -3.83644551      4.42769088
H       5.48236343     -6.73852429      6.61712355
H       9.51553812     -6.50697675     -8.82934783
H       6.36390409     -2.34912360      9.68054949
C       1.63249752     -3.11130303      5.19320845
C     -10.20168893    -12.19108502     16.67054944
C       4.70149522     -1.31633553      7.30046663
C       4.02031890     -2.21235035      8.46426816
C       9.83204811      1.82549887     -1.68533853
C       8.01295085     13.75421855      8.97987622
C       5.15520284     -2.35093606      9.67667607
C      -2.91775029      9.46905614     11.31144239
C       8.28842570     13.31371612      7.33850105
C       3.79411762      7.45454154     -2.35097431
C       5.17495521      2.42001241     -1.76784348
C       6.76670166      2.57006721     -1.68286436
C      12.95633560     -7.91385022     -7.89250131
C       2.69759479      8.65949180     -2.38355726
C       5.26891479     -5.56534470      6.95248719
H       9.78887474     11.95530856      4.51089526
H      -0.16775036    -10.93704019    -10.58414475
H       0.52444872     -3.53615246      4.85568290
H      -9.29924747     -2.27969191     24.37262711
H      -9.60001679    -12.13427143     17.66500754
H      15.89580679      7.24277933     13.41950537
H      10.32612100      2.08191590     -0.62337205
H       8.93783540     13.53253531      9.78588516
H       7.77817537     14.91569050      9.34430418
H      -4.70545895     -0.16370430     -7.30300339
H       3.88189084      6.70317228     -3.25789337
H      -7.32804468     20.54440356      9.86182267
H      -0.84981454     -7.37639684     -1.13845490
H       1.80357339     -2.04842302      4.59101491
H       6.31646028     -5.50164996      7.60464298
H      13.89285859     -7.14942897     -7.95640085
H      -7.46120969     20.55293201     10.63032389
   94

C      10.31182815     -7.42345499     -8.26568949
C      -0.22117404    -10.16461608     -9.75724456
H      10.38517078     -6.53742881     -7.40709391
C       1.80487568     -3.17527258      7.07079878
H     -18.89284075     -7.18343658     -1.80816365
H      -0.64818106     -9.37510647     -9.02128228
C       3.02556888     -3.63357587      8.15675935
H       9.49817708     -8.15521733     -7.67905140
H      -8.51929817     -6.32263811    -17.81587173
H      -8.51165413     -7.09204538    -17.68798705
C       8.13525942      1.62714042     -1.87531328
H      16.07233337      6.48888208     13.51887925
C       5.69921907     -4.92457141      5.76410601
H       8.63734517     12.60687509      3.30431152
H       6.12577679     -4.46326212      4.76868107
H       2.60619357    -10.42600179     16.52323510
C       3.73454158     -5.20413774      7.91294352
H       2.90164352     -6.03231694      7.50539871
C       7.87630898     13.06352437      5.72501786
H       3.72496979     -5.85037108      8.97733545
H       9.02750867     14.26456458      7.01698925
H       6.86153904     13.66157445      5.38616818
C       8.56976009     12.18727259      4.46223706
H      12.12748588      1.46007383     -2.87041521
C      10.92364338      1.50796314     -2.94803663
H       6.68854453      3.19588050     -1.60840179
H       8.01556136     11.09992784      4.26379726
H      -1.90075120     10.00859309     11.48160371
C      11.67874196     -8.18622149     -8.95244966
H       0.81160327     -2.64037390      7.55009683
H     -19.27200938     -7.16739162     -1.12671414
C      -0.43001428     -5.90521497     -0.97629453
H       2.28774672     -3.81621547      9.14136982
C       1.57980681    -10.24228292     17.11542057
H      -1.17818642     -6.71824693     -0.59390172
H     -10.82748352    -12.25206625     15.67530972
H       1.17529161     -9.12594673     17.28295743
C      -5.24194467      0.73821967     -7.84815980
H       3.23549026      9.99614223     -2.61458144
C       0.88362126      9.23961780     -2.45454854
H      -5.74535362      1.64690633     -8.37170193
H       0.41772044      9.85275937     -1.48996865
H       0.12545195      8.26946794     -2.48319193
H       0.39467108      9.84570582     -3.41342729
H      11.93753233     -7.88329283    -10.12770200
H      11.51900849     -9.35448532     -9.34184845
H      13.45737217     -8.76644248     -7.12082326
H       5.11865114     -0.67454431      6.66089457
H       3.34038032     -1.29927566      9.09828806
H       0.95790014    -11.17523904     17.54054507
H      10.84542754      1.28683468     -4.12302898
H      -9.42783312     -2.95191421     23.99865445
H       7.02330913     13.30791831      9.58307109
H       8.42323148     12.09639269      7.55170544
H       5.01474669     -2.53252508     11.05632052
H      23.68883769      6.18999127     -2.70615821
H      -3.93481286      8.92986992     11.14135717
H      24.37894353      6.33826732     -2.37424537
H       2.17105345     -3.90175925      4.66109042
H       5.42319551     -6.79610845      6.79459074
H       9.62962387     -6.69717334     -8.99846173
H       6.31599528     -2.40164863      9.85616045
C       1.53632852     -3.18013987      5.42278002
C     -10.22582844    -12.19527817     16.66977997
C       4.64312002     -1.37841202      7.47765645
C       3.96766063     -2.26976560      8.64846455
C       9.73518424      1.74601032     -1.87302805
C       8.00725844     13.75737544      8.97557173
C       5.10744421     -2.40482701      9.85642764
C      -2.91782121      9.46928484     11.31154596
C       8.30512115     13.31034141      7.34047380
C       3.60928228      7.81056328     -2.37692244
C       5.02017821      1.70797484     -1.85716341
C       6.58762665      2.03391403     -1.81199290
C      13.08209450     -8.09842366     -8.05739933
C       2.53877298      9.02452763     -2.45653365
C       5.21008104     -5.62425619      7.13476804
H       9.78215195     11.94998530      4.50581294
H      -0.15952986    -10.96060768    -10.59993038
H       0.43253103     -3.62480560      5.09826694
H      -9.29945601     -2.27967980     24.37284736
H      -9.62421614    -12.13848609     17.66427599
H      15.89632678      7.24228377     13.41984742
H      10.18625917      2.15160108     -0.83933281
H       8.92152701     13.54071774      9.79478833
H       7.76531217     14.92079114      9.32862684
H      -4.73902543     -0.17319646     -7.32915215
H       3.78481972      6.99223454     -3.20550803
H      -7.32809698     20.54446808      9.86191103
H      -0.08102598     -6.80166985     -1.62912377
H       1.69891198     -2.11543626      4.82262194
H       6.25933917     -5.56159412      7.78439747
H      14.01811292     -7.33328408     -8.12000628
H      -7.46125587     20.55298586     10.63041341
   94

C      10.43684381     -7.60759215     -8.43655768
C      -0.25783122    -10.16961091     -9.74123048
H      10.51470877     -6.72462718     -7.57486863
C       1.72395695     -3.25812961      7.24364349
H     -18.89221097     -7.18343244     -1.80812787
H      -0.65044430     -9.38533376     -8.98069774
C       2.95499831     -3.70279344      8.32356575
H       9.62036081     -8.33674893     -7.85179756
H      -8.52276867     -6.32136362    -17.81885461
H      -8.51508438     -7.09075698    -17.69088881
C       8.05782897      1.35252985     -2.04233632
H      16.07249071      6.48810651     13.51905065
C       5.63192508     -4.98765665      5.93594681
H       8.62373465     12.62688866      3.31220337
H       6.06868174     -4.52041320      4.94785921
H       2.59230616    -10.52126560     16.66988156
C       3.66768486     -5.27257090      8.08303316
H       2.83836281     -6.10626905      7.67899853
C       7.87423069     13.06303119      5.73169591
H       3.66131502     -5.91569995      9.14931705
H       9.06826707     14.24316581      7.02099241
H       6.85218176     13.65549715      5.40507277
C       8.56355812     12.19045053      4.46433650
H      12.06383531      1.53006921     -2.98134502
C      10.86332413      1.52440654     -3.10631069
H       6.37687834      2.71618436     -1.80659170
H       8.01640607     11.09959843      4.26579855
H      -1.90049997     10.00813444     11.48121588
C      11.80527209     -8.37113613     -9.11971797
H       0.73029321     -2.72479823      7.72358398
H     -19.27145931     -7.16738586     -1.12672271
C       0.69758355     -4.89320782     -1.42716225
H       2.22244085     -3.88358040      9.31257294
C       1.56595217    -10.33755649     17.26212758
H      -0.20997016     -5.52684837     -1.04466259
H     -10.85199620    -12.25633702     15.67469611
H       1.16142747     -9.22123227     17.42972495
C      -5.26972184      0.72392836     -7.86479435
H       3.09113471     10.36283216     -2.63603648
C       0.71893793      9.60723765     -2.49841026
H      -5.77045391      1.63431343     -8.38779168
H       0.26294614     10.21169491     -1.52408550
H      -0.02273461      8.62437061     -2.51765310
H       0.23212707     10.20928909     -3.46024421
H      12.06473769     -8.06769144    -10.29468908
H      11.64476208     -9.54017711     -9.50639278
H      13.58579247     -8.95556570     -7.28974907
H       5.04290781     -0.74481813      6.81553299
H       3.26614324     -1.36347975      9.25305622
H       0.94405276    -11.27052078     17.68724450
H      10.85548940      1.35822224     -4.29284332
H      -9.42799301     -2.95189293     23.99881533
H       7.01273104     13.30817273      9.56806506
H       8.45417766     12.09450614      7.55539406
H       4.94504573     -2.58753231     11.21655166
H      23.68849478      6.18981287     -2.70607793
H      -3.93459901      8.92948260     11.14098151
H      24.37861284      6.33811020     -2.37419983
H       2.06925651     -4.02293360      4.84766688
H       5.36067753     -6.86012822      6.96456046
H       9.74445154     -6.89133541     -9.17003948
H       6.24518615     -2.45421427     10.01660329
C       1.43103402     -3.29564146      5.60072537
C     -10.25035246    -12.19955484     16.66917407
C       4.56559133     -1.44836595      7.63139231
C       3.89514582     -2.33507292      8.80809949
C       9.62963001      1.66569657     -2.06495714
C       8.00150192     13.76013883      8.97058728
C       5.03656497     -2.46131549     10.01628898
C      -2.91758398      9.46885530     11.31115735
C       8.32139204     13.30659701      7.34205413
C       3.40534513      8.17077596     -2.43960612
C       4.97374824      0.99545355     -1.91690864
C       6.47481389      1.54267885     -1.92934543
C      13.20895574     -8.28602717     -8.22474901
C       2.37117361      9.40143595     -2.52467246
C       5.14479102     -5.68920899      7.30603752
H       9.77451032     11.94456349      4.50018407
H      -0.15273377    -10.96217718    -10.58304521
H       0.33159147     -3.75333787      5.27929117
H      -9.29959975     -2.27965466     24.37299578
H      -9.64875472    -12.14276519     17.66367948
H      15.89651321      7.24151831     13.42004425
H      10.00892106      2.21187024     -1.06843712
H       8.90514463     13.54850185      9.80263524
H       7.75272055     14.92543280      9.31222028
H      -4.77254511     -0.19122791     -7.34703492
H       3.67812475      7.28681484     -3.16268552
H      -7.32814239     20.54449557      9.86201175
H       0.75052892     -5.96683058     -1.87567685
H       1.59463258     -2.23229763      4.99878953
H       6.19363462     -5.62378462      7.95606468
H      14.14450831     -7.52022471     -8.28621906
H      -7.46129240     20.55299902     10.63051579
   94

C      10.55794932     -7.79191684     -8.60497530
C      -0.29008143    -10.15986489     -9.71346370
H      10.64040259     -6.91208867     -7.74013051
C       1.65334132     -3.34092352      7.36195776
H     -18.89181784     -7.18337076     -1.80813942
H      -0.63382972     -9.37779574     -8.92665624
C       2.87849494     -3.76828044      8.45646019
H       9.73849913     -8.51811622     -8.02177225
H      -8.52581524     -6.31991719    -17.82132423
H      -8.51809497     -7.08930177    -17.69330838
C       8.01841743      1.09236808     -2.21354997
H      16.07252046      6.48724640     13.51921673
C       5.56479953     -5.05303551      6.09015744
H       8.60963147     12.64702028      3.31991923
H       6.00612470     -4.58371579      5.10520598
H       2.57847429    -10.61576987     16.81540943
C       3.59634462     -5.33803495      8.23036482
H       2.77153047     -6.17712499      7.82814177
C       7.87182970     13.06285328      5.73804002
H       3.58820456     -5.97510114      9.30022177
H       9.10751112     14.22165765      7.02474722
H       6.84246448     13.64931213      5.42365243
C       8.55674319     12.19389575      4.46599799
H      11.99780595      1.59640697     -3.09381136
C      10.80573241      1.52834055     -3.26660933
H       6.16675753      2.28191872     -1.98384499
H       8.01651116     11.09968918      4.26714402
H      -1.90008744     10.00731191     11.48047822
C      11.92821251     -8.55542305     -9.28510104
H       0.65581101     -2.80873157      7.83543918
H     -19.27112260     -7.16733051     -1.12676547
C       1.73563559     -4.04806458     -1.60281084
H       2.14211708     -3.94541409      9.44341060
C       1.55223016    -10.43212608     17.40787068
H       0.71958621     -4.51754894     -1.25862156
H     -10.87643263    -12.26054583     15.67408930
H       1.14765684     -9.31579202     17.57530203
C      -5.28707752      0.69980337     -7.87080737
H       2.93996412     10.73862445     -2.65335338
C       0.54521697      9.98213117     -2.54040782
H      -5.78657502      1.61048425     -8.39472198
H       0.09918843     10.57698592     -1.55607818
H      -0.17908610      8.98641773     -2.55143443
H       0.06175582     10.58035681     -3.50554967
H      12.18826608     -8.25136719    -10.45981774
H      11.76717672     -9.72523607     -9.66921314
H      13.71189478     -9.14465483     -7.45820076
H       4.97028167     -0.81302548      6.95916643
H       3.18217956     -1.43023444      9.38711971
H       0.93047659    -11.36507226     17.83324681
H      10.86290198      1.41634292     -4.45790724
H      -9.42804895     -2.95187426     23.99884325
H       7.00250785     13.30830651      9.55279067
H       8.48396181     12.09277330      7.55855110
H       4.86058966     -2.64540258     11.36188329
H      23.68813196      6.18962392     -2.70603243
H      -3.93417619      8.92866085     11.14020565
H      24.37826250      6.33794517     -2.37419085
H       1.98698072     -4.14384351      4.97096989
H       5.29702082     -6.92364638      7.12183016
H       9.85515198     -7.08570117     -9.33876375
H       6.16339451     -2.50829098     10.16714858
C       1.35023754     -3.41106248      5.72043564
C     -10.27476964    -12.20375720     16.66855549
C       4.48715324     -1.51710183      7.77090232
C       3.81607737     -2.40135571      8.94844662
C       9.54032051      1.58308575     -2.25740902
C       7.99578782     13.76278117      8.96500926
C       4.95454398     -2.52023022     10.16154525
C      -2.91715815      9.46802154     11.31038869
C       8.33706545     13.30290771      7.34319400
C       3.18478767      8.53820704     -2.54166871
C       5.03163064      0.39325808     -1.97690455
C       6.43621606      1.13106037     -2.04548220
C      13.33286316     -8.47316801     -8.39105832
C       2.19499416      9.79240226     -2.58202161
C       5.07758337     -5.75276793      7.46089466
H       9.76616433     11.93953403      4.49410730
H      -0.14352736    -10.94935469    -10.55264801
H       0.25283846     -3.86876969      5.39040257
H      -9.29964548     -2.27963342     24.37301557
H      -9.67315650    -12.14695973     17.66305128
H      15.89658974      7.24067292     13.42023931
H       9.82794651      2.24799520     -1.30420918
H       8.88892571     13.55606723      9.80937155
H       7.74056476     14.92985998      9.29532651
H      -4.79236907     -0.21564923     -7.35087266
H       3.55756939      7.59824420     -3.13155503
H      -7.32818671     20.54449569      9.86211723
H       1.43221304     -5.10139294     -1.99918647
H       1.51702016     -2.34916265      5.11603298
H       6.12442172     -5.68284844      8.11353573
H      14.26848551     -7.70741465     -8.45227810
H      -7.46132553     20.55298256     10.63062334
   94

C      10.67503647     -7.97351634     -8.76932841
C      -0.31524909    -10.14889797     -9.69463267
H      10.76186026     -7.09705480     -7.90105131
C       1.59875513     -3.40824921      7.45437363
H     -18.89162445     -7.18329262     -1.80816139
H      -0.61114102     -9.36504266     -8.88935642
C       2.80675483     -3.82467035      8.57352266
H       9.85250674     -8.69652048     -8.18746516
H      -8.52871168     -6.31830350    -17.82379544
H      -8.52098135     -7.08768746    -17.69577705
C       8.02735974      0.85995948     -2.38822172
H      16.07255572      6.48641060     13.51941831
C       5.50229302     -5.11319363      6.22925701
H       8.59510531     12.66721220      3.32743927
H       5.93547572     -4.64638079      5.23947527
H       2.56472401    -10.70945667     16.95965038
C       3.52780597     -5.39515641      8.36307769
H       2.70583994     -6.23661626      7.96009945
C       7.86904736     13.06299243      5.74397662
H       3.51486803     -6.02728167      9.43572709
H       9.14516186     14.20016321      7.02815151
H       6.83235330     13.64301807      5.44177963
C       8.54938335     12.19760057      4.46722507
H      11.94800487      1.65976158     -3.21386055
C      10.76940482      1.52803673     -3.43173179
H       6.03629046      1.90785321     -2.15395755
H       8.01604466     11.10013118      4.26788505
H      -1.89956147     10.00635876     11.47940996
C      12.04684099     -8.73702025     -9.44737086
H       0.59503716     -2.87913498      7.91875974
H     -19.27095924     -7.16726035     -1.12680391
C       2.55987776     -3.43900594     -1.59661295
H       2.06110080     -3.99867292      9.55404819
C       1.53864141    -10.52592095     17.55243125
H       1.47628060     -3.76871180     -1.29868727
H     -10.90063354    -12.26464010     15.67339798
H       1.13400036     -9.40956475     17.71957405
C      -5.29580339      0.67415116     -7.87196832
H       2.78573414     11.11613881     -2.66776946
C       0.36706646     10.35948727     -2.58083199
H      -5.79645178      1.58350532     -8.39744410
H      -0.06821957     10.94439518     -1.58625788
H      -0.33985088      9.35139606     -2.58427034
H      -0.11208783     10.95434862     -3.54939730
H      12.30739501     -8.43236474    -10.62189000
H      11.88538835     -9.90759016     -9.82910087
H      13.83504627     -9.33228606     -7.62517929
H       4.90932552     -0.87560973      7.09796885
H       3.10430094     -1.49196007      9.51450110
H       0.91712195    -11.45883135     17.97823770
H      10.88375772      1.46417984     -4.62219766
H      -9.42801788     -2.95186511     23.99876086
H       6.99265564     13.30837433      9.53728202
H       8.51252481     12.09124699      7.56112840
H       4.77629390     -2.70391791     11.50168226
H      23.68794332      6.18949121     -2.70603189
H      -3.93360494      8.92765172     11.13907510
H      24.37807811      6.33783011     -2.37420709
H       1.93903042     -4.22503240      5.05795386
H       5.23518539     -6.98043865      7.26691463
H       9.96155969     -7.27726014     -9.50287243
H       6.08410718     -2.56267637     10.31461862
C       1.30292433     -3.49297473      5.80961256
C     -10.29893648    -12.20784126     16.66784287
C       4.42022180     -1.57832350      7.90715189
C       3.74295055     -2.46220041      9.08116228
C       9.48290434      1.51113403     -2.45136790
C       7.99012676     13.76535797      8.95884065
C       4.87506127     -2.57853907     10.30164130
C      -2.91659955      9.46702701     11.30927194
C       8.35206369     13.29934578      7.34383543
C       2.95529292      8.90960471     -2.66869159
C       5.19212861     -0.12553560     -2.07085689
C       6.45978301      0.80457602     -2.16810427
C      13.45317486     -8.65824118     -8.55517920
C       2.01473098     10.18883378     -2.63140761
C       5.01315640     -5.80885174      7.60157845
H       9.75719840     11.93495388      4.48763399
H      -0.13188780    -10.93735494    -10.52844855
H       0.20719371     -3.94736412      5.46731051
H      -9.29961182     -2.27962356     24.37293099
H      -9.69729320    -12.15103431     17.66231972
H      15.89667362      7.23985202     13.42046790
H       9.67293470      2.26573861     -1.54284563
H       8.87293463     13.56344805      9.81496975
H       7.72885631     14.93412458      9.27799679
H      -4.79866818     -0.23833272     -7.34868463
H       3.42575086      7.93347635     -3.10439360
H      -7.32821775     20.54446139      9.86220702
H       1.92683249     -4.31579879     -2.03204494
H       1.47060399     -2.43150515      5.20342814
H       6.05776127     -5.73479251      8.25716778
H      14.38953367     -7.89342283     -8.61711004
H      -7.46134518     20.55293321     10.63071522
   94

C      10.79198250     -8.15506349     -8.93860654
C      -0.33777411    -10.13579701     -9.67917199
H      10.88737719     -7.28724128     -8.06172891
C       1.55161052     -3.46904406      7.54006586
H     -18.89185999     -7.18329685     -1.80818867
H      -0.58692702     -9.34835116     -8.85940682
C       2.73659576     -3.87836333      8.68936813
H       9.96285655     -8.87243839     -8.36114447
H      -8.53156068     -6.31648995    -17.82625171
H      -8.52384950     -7.08588394    -17.69829304
C       7.80106888      0.44809631     -2.53895754
H      16.07331129      6.48611777     13.52058838
C       5.43742794     -5.16884788      6.35822861
H       8.57606606     12.70371994      3.34225933
H       5.84578314     -4.70784126      5.35482147
H       2.55081598    -10.80423904     17.10531456
C       3.46080059     -5.44927657      8.49291120
H       2.64018228     -6.29134115      8.08871341
C       7.85905860     13.06728781      5.75074891
H       3.44426399     -6.07840052      9.56718059
H       9.20376546     14.16525404      7.03202969
H       6.81106905     13.63614970      5.46696559
C       8.53902254     12.20646430      4.47065261
H      11.68323644      1.68067034     -3.25321019
C      10.54121479      1.43684369     -3.55664573
H       5.66565367      0.99362715     -2.24738312
H       8.02231232     11.10097219      4.27172179
H      -1.89889633     10.00514901     11.47760457
C      12.16669916     -8.91922912     -9.61189998
H       0.54020816     -2.94746772      7.99703496
H     -19.27118577     -7.16726916     -1.12682601
C       3.90052193     -2.04338392     -1.81504748
H       1.98174625     -4.05022699      9.66307517
C       1.52475328    -10.62056967     17.69809358
H       2.92099401     -2.52122172     -1.38109392
H     -10.92357461    -12.26802621     15.67207362
H       1.12004245     -9.50412858     17.86451028
C      -5.29669487      0.64474710     -7.87005184
H       2.63515212     11.51245730     -2.67689392
C       0.17669961     10.75590127     -2.62560810
H      -5.80086224      1.55132525     -8.39741940
H      -0.23963749     11.32389630     -1.61396086
H      -0.49734933      9.72555263     -2.61455436
H      -0.28974711     11.34225590     -3.60423217
H      12.42795900     -8.61337137    -10.78605952
H      12.00418253    -10.09130083     -9.98868829
H      13.96260872     -9.52518384     -7.79724584
H       4.85283068     -0.94291357      7.23671995
H       3.03096483     -1.55304269      9.64497726
H       0.90340140    -11.55334139     18.12445591
H      10.77116898      1.46505891     -4.73285063
H      -9.42675544     -2.95204824     23.99740376
H       6.97928648     13.30795919      9.51405214
H       8.55642082     12.09418934      7.56198512
H       4.69450748     -2.76564327     11.64522159
H      23.68739798      6.18932909     -2.70616817
H      -3.93269438      8.92602461     11.13716822
H      24.37757154      6.33770482     -2.37443862
H       1.90940203     -4.27704574      5.12566606
H       5.17245522     -7.03200583      7.40420116
H      10.05872399     -7.47709987     -9.67085527
H       6.00744673     -2.61842446     10.46664856
C       1.27493009     -3.55182259      5.88727019
C     -10.32159872    -12.21112096     16.66634322
C       4.35960316     -1.64048851      8.04766986
C       3.67329980     -2.52315492      9.21720248
C       9.17793137      1.25854112     -2.68666443
C       7.98081291     13.77098525      8.94811890
C       4.79824736     -2.63874857     10.44566099
C      -2.91579546      9.46558701     11.30738638
C       8.36984080     13.29844352      7.34206235
C       2.68124852      9.30330048     -2.82118311
C       5.17060408     -1.12064549     -2.04077209
C       6.29088922     -0.01330401     -2.27825589
C      13.57626039     -8.84782107     -8.72328279
C       1.82164722     10.62021798     -2.68403939
C       4.94855004     -5.85950057      7.73422423
H       9.74378479     11.92902544      4.48258129
H      -0.11932844    -10.92439480    -10.50655224
H       0.18069270     -4.00242746      5.53211818
H      -9.29845674     -2.27982476     24.37164303
H      -9.71962283    -12.15421571     17.66061282
H      15.89747689      7.23957088     13.42164095
H       9.22889938      2.08637094     -1.82370369
H       8.84968081     13.57410880      9.81937601
H       7.71203785     14.94194648      9.25170244
H      -4.79252749     -0.26183104     -7.34268428
H       3.27385548      8.32868962     -3.06722060
H      -7.32753058     20.54354438      9.86115128
H       3.09600056     -2.88500892     -1.94532513
H       1.44103158     -2.49074911      5.27784804
H       5.99178034     -5.78147966      8.39145451
H      14.51350553     -8.08411112     -8.78608555
H      -7.46074211     20.55216357     10.62964357
