   94

C      -8.28408906     -5.22315671     -5.52297607
C      -7.14830260     -5.74530967     -4.51322648
H      -9.11347799     -4.84186321     -6.26032885
C     -10.16968116     -0.97812122      5.78662609
H     -18.89185999     -7.18329685     -1.80818867
H      -6.60261506     -4.80783077     -3.93834469
C      10.55601959     -1.74029273      9.32297438
H      -7.62414255     -6.48456879     -3.65637005
H      -7.33802047     -5.79218102    -16.94279929
H      -7.33030928     -6.56157501    -16.81484062
C       9.67195778      1.47741415      5.69929319
H       9.99957277      2.54836237      6.20811373
C      10.70002223     -2.93762503      8.30576115
H      10.47769890      0.60054794      3.45376031
H      11.65601418     -2.41724486      7.80791680
H       0.32151970     -6.93136655     11.13964143
C      10.05145178     -4.24422063      7.54887482
H       8.84626720     -4.51787258      7.44065912
C       5.20339285      3.18845746     -3.30964515
H       9.90028059     -5.05222342      8.47562847
H       6.17248091      3.66136388     -3.92498641
H       4.66113237      4.24078218     -3.70113487
C       5.09640489      1.66537201     -5.60712235
H       5.63809623      2.92355522     -7.73862169
C       4.83411584      2.62563860     -6.89853441
H       5.99060681      0.84825192     -5.74380903
H       3.88313889      3.30755496     -7.19017924
H      -1.67522236     13.86417483     12.14530767
C      19.68064512     -6.53562518     -9.27211788
H     -10.56103990      0.14113743      5.63681893
H     -19.27118577     -7.16726916     -1.12682601
C      -9.30897803      4.96232714    -10.51107341
H     -10.83134576     -1.85898473      5.32335165
C      -0.70363056     -6.68637614     11.73167800
H     -10.40895073      4.90076610    -10.25089213
H      -2.93895674     -7.63587168     11.98707212
H      -0.70041107     -5.47997173     11.64752826
C       4.41373268      1.87022444     -4.10194455
H       6.26620191      4.30597106     -1.46756455
C       4.27608374      3.39186985     -0.61998054
H       3.17764083      1.75123996     -4.13059400
H       4.18542600      4.38121982      0.11917613
H       3.93580995      2.48296888      0.14529054
H       3.09726888      3.52953309     -0.97230705
H      18.66994136     -5.91611740     -9.61384711
H      19.33484392     -7.58488470     -9.81381500
H      19.98517392     -6.96140246     -6.72041482
H       8.14042991     -0.53011027      9.12084807
H      11.66201967     -0.31753506      9.56906189
H      -1.57104701     -8.91443938     12.38131728
H       8.41186298     -0.34891970      6.45212660
H      -8.70101793     -4.16259184     22.46177845
H       8.20294003     13.22024521     11.17403026
H      -2.34916350     13.47718722     24.28698232
H      10.67988648      1.08702517     11.83258842
H       7.90063969      1.78446662     -1.85762638
H      -3.43227189     12.93183102     11.85119647
H      12.89441256      2.22699060      2.98357818
H       1.13364039      1.57461587    -14.28149870
H      10.78289716     -5.16553442      5.30428018
H      20.72244186     -6.42801952     -9.92420825
H      10.92026924      2.24518951     10.40978688
C      -8.83793724     -1.27961620      6.56198183
C      -1.79777022     -7.70452967     12.45119662
C       9.02585117      0.18815847      8.63090703
C      10.44545823     -0.14118517      9.52314871
C       9.13585135      0.48377341      6.96214527
C       9.13832747     13.77366830     11.58991297
C      10.70313507      1.07210358     10.62404903
C      -2.87735699     14.02780680     11.93502706
C      -1.82981241     14.44151727     23.89388281
C       6.93616314      2.13696325     -1.16098400
C      11.93215687      2.00812413      3.62460882
C      10.68188361      1.35728379      4.36860293
C      20.00297369     -6.22135900     -7.67576239
C       5.66462724      3.21770564     -1.63891108
C      10.96779577     -4.27126161      6.10698325
H       7.68255789      2.43487440     -0.21648230
H      -6.28027458     -6.37469719     -5.11116409
H      -7.84953394     -1.50338190      7.13744095
H      -8.57271924     -3.49036836     22.83601772
H      -1.92084466     -7.53968973     13.66782592
H       8.63772252      1.68661120      5.06814021
H       8.12658612      0.91052879      9.06491141
H      10.07370640     14.32711160     12.00578794
H      -1.31046131     15.40584731     23.50078330
H       4.16165425      0.76167060     -3.60886017
H       6.68764085      0.96503035     -0.84983115
H      -3.02922606     14.64641905     10.88128340
H      11.16248830     -3.26927691      5.36465226
H       1.07389443      2.34903763    -14.35292239
H      12.03148783     -4.87832437      6.23394618
H      20.32428024     -5.17948979     -7.14834783
H      -3.37270765     14.66880232     12.86232070
   94

C      -6.80149027     -5.43302113     -5.90518643
C      -5.79338496     -5.97239936     -4.77237554
H      -7.67104031     -4.88757869     -6.47624937
C     -10.17107694     -0.97621851      5.79171165
H     -18.89043225     -7.18322071     -1.80835750
H      -5.24954652     -5.07912787     -4.13195089
C      10.55957722     -1.72364505      9.31387820
H      -6.29458560     -6.69334780     -3.91822080
H      -7.33893406     -5.79367864    -16.96546458
H      -7.33131203     -6.56322288    -16.83838968
C       9.66237826      1.48981814      5.70381110
H      10.01028952      2.55189172      6.21755015
C      10.72609357     -2.93928720      8.31812900
H      10.47450435      0.57322807      3.47253496
H      11.72546104     -2.46026327      7.86420335
H       0.32235514     -6.93146287     11.14278318
C      10.06972657     -4.24075219      7.55424361
H       8.85671188     -4.48091469      7.45614994
C       5.19049749      3.29102779     -3.26676364
H       9.92346058     -5.05960324      8.47212803
H       6.15757658      3.76536801     -3.88420390
H       4.64396738      4.34223145     -3.65500303
C       5.08055908      1.76238650     -5.57795343
H       5.62517023      3.01599234     -7.71418893
C       4.82064046      2.71447295     -6.87556243
H       5.96014607      0.93174690     -5.72614743
H       3.86249262      3.38092363     -7.17821560
H      -1.67528566     13.86454383     12.14564940
C      18.46279319     -6.64698547     -9.19082370
H     -10.56212527      0.14300206      5.64074466
H     -19.26992804     -7.16720349     -1.12708919
C      -9.31210418      4.97444716    -10.51638277
H     -10.83276668     -1.85719946      5.32867028
C      -0.70302198     -6.68650801     11.73444458
H     -10.41174746      4.91090705    -10.25524847
H      -2.93847517     -7.63603078     11.98950171
H      -0.69972935     -5.48009091     11.65045203
C       4.40867568      1.97423065     -4.06825438
H       6.24659413      4.40291784     -1.41885188
C       4.26122251      3.48597748     -0.56831278
H       3.17225181      1.86105646     -4.09544495
H       4.17457757      4.46982476      0.17892483
H       3.91981253      2.57548561      0.19478492
H       3.08199938      3.62730346     -0.91735650
H      17.44556625     -5.98487598     -9.40555547
H      18.05052268     -7.72563419     -9.61376930
H      19.06409813     -7.03025418     -6.64911633
H       8.12762107     -0.51353730      9.10880189
H      11.65934734     -0.26715627      9.51947312
H      -1.57059929     -8.91465835     12.38370659
H       8.41902061     -0.36012435      6.43756759
H      -8.70107789     -4.16257918     22.46203457
H       8.20298380     13.22076454     11.17448348
H      -2.34918010     13.47725846     24.28709310
H      10.66618148      1.06860235     11.84382469
H       7.87992446      1.88232567     -1.81379963
H      -3.43233486     12.93219174     11.85153825
H      12.88773715      2.24347368      3.01629795
H       1.13883917      1.58030034    -14.28797147
H      10.74671451     -5.18883597      5.29381784
H      19.43961575     -6.52714977    -10.08521674
H      10.91942189      2.24802616     10.44401701
C      -8.83966589     -1.27733521      6.56787445
C      -1.79729805     -7.70474710     12.45363729
C       9.01689226      0.20279927      8.62335763
C      10.43799803     -0.12393443      9.51290520
C       9.12688837      0.48310392      6.95365865
C       9.13841754     13.77414330     11.59031859
C      10.68969592      1.07291165     10.63527223
C      -2.87741937     14.02816760     11.93535895
C      -1.82982928     14.44158853     23.89399310
C       6.91505445      2.23095394     -1.11599110
C      11.92698837      1.99683536      3.64800080
C      10.67309836      1.34175435      4.37886061
C      18.87996396     -6.34005741     -7.61989790
C       5.64601984      3.31479364     -1.59344902
C      10.96419140     -4.30224481      6.09982768
H       7.65972489      2.52263467     -0.16818299
H      -4.89725657     -6.67276009     -5.23013975
H      -7.85132340     -1.50092362      7.14353739
H      -8.57277470     -3.49034895     22.83626017
H      -1.92050657     -7.53996745     13.67026140
H       8.62881169      1.73971804      5.08555880
H       8.12807292      0.94186021      9.05167277
H      10.07383739     14.32754477     12.00615477
H      -1.31047829     15.40591826     23.50089248
H       4.16586063      0.86592950     -3.57065269
H       6.66662283      1.05808654     -0.80797107
H      -3.02929017     14.64678206     10.88161721
H      11.15105908     -3.30961754      5.34713075
H       1.07805793      2.35472576    -14.35846553
H      12.03383338     -4.90319928      6.21228847
H      19.34684384     -5.37569145     -7.06234470
H      -3.37278053     14.66915697     12.86265086
   94

C      -5.21410140     -5.59157949     -6.35279973
C      -4.46008324     -6.21542126     -5.05244749
H      -6.17348785     -4.95006062     -6.61003450
C     -10.17194228     -0.97589224      5.79274076
H     -18.88979315     -7.18319375     -1.80851102
H      -3.92508943     -5.39760060     -4.31027453
C      10.56363290     -1.70661219      9.30352869
H      -5.05134307     -6.89833792     -4.22614754
H      -7.34589100     -5.79471998    -16.98669676
H      -7.33860124     -6.56442438    -16.86055834
C       9.65302327      1.50264115      5.70846793
H      10.02073785      2.55567116      6.22690291
C      10.75218433     -2.94072887      8.33117701
H      10.47092215      0.54655893      3.49180816
H      11.79232127     -2.50517968      7.92575278
H       0.32278291     -6.93141148     11.14575209
C      10.08840136     -4.23699102      7.56005147
H       8.86868638     -4.44382182      7.47150424
C       5.18011713      3.39891746     -3.22203979
H       9.94590939     -5.06663171      8.46872923
H       6.14532997      3.87473000     -3.84124149
H       4.62937237      4.44903817     -3.60685384
C       5.06822224      1.86577397     -5.54789906
H       5.61437098      3.11332612     -7.68970488
C       4.80979267      2.80928138     -6.85170585
H       5.93262046      1.02162714     -5.70751958
H       3.84471399      3.45997588     -7.16537833
H      -1.67539667     13.86484269     12.14594433
C      17.23268546     -6.75841257     -9.09344881
H     -10.56294579      0.14330370      5.64145906
H     -19.26934832     -7.16718290     -1.12727556
C      -9.31596321      4.98084940    -10.51866601
H     -10.83337038     -1.85693099      5.32943204
C      -0.70290675     -6.68650603     11.73689139
H     -10.41523358      4.91506795    -10.25652319
H      -2.93845634     -7.63609854     11.99149704
H      -0.69956974     -5.48007929     11.65303036
C       4.40676613      2.08430515     -4.03402876
H       6.22845269      4.50310499     -1.36731625
C       4.24735047      3.58300213     -0.51505010
H       3.17001375      1.97755764     -4.05947333
H       4.16447100      4.56106108      0.24047112
H       3.90466290      2.67080943      0.24568020
H       3.06778315      3.72805871     -0.86096539
H      16.22095528     -6.05851718     -9.15739930
H      16.77675854     -7.86281666     -9.38374344
H      18.18243024     -7.10294078     -6.62673329
H       8.11468151     -0.49650424      9.09675454
H      11.65470248     -0.21606234      9.46697345
H      -1.57061422     -8.91477641     12.38572775
H       8.42588789     -0.37032204      6.42313519
H      -8.70114421     -4.16256661     22.46219424
H       8.20302203     13.22128178     11.17496176
H      -2.34920293     13.47731449     24.28718306
H      10.65370818      1.04815006     11.85400468
H       7.86044764      1.98324459     -1.76801478
H      -3.43244508     12.93247994     11.85182688
H      12.88074180      2.26020289      3.04992230
H       1.14586814      1.59035654    -14.29867967
H      10.71193104     -5.21019289      5.28541963
H      18.05867953     -6.62578833    -10.24722935
H      10.91933515      2.24917843     10.47838489
C      -8.84091327     -1.27678366      6.56966655
C      -1.79731381     -7.70486852     12.45570437
C       9.00770066      0.21787987      8.61570483
C      10.43072085     -0.10668414      9.50179826
C       9.11727384      0.48329935      6.94519612
C       9.13850763     13.77461303     11.59074080
C      10.67853842      1.07217734     10.64576329
C      -2.87752952     14.02845590     11.93564222
C      -1.82985225     14.44164512     23.89408406
C       6.89513102      2.32799139     -1.06912323
C      11.92218471      1.98520647      3.67175543
C      10.66399621      1.32696637      4.38926015
C      17.78004925     -6.46050585     -7.56098348
C       5.62882017      3.41530610     -1.54592909
C      10.96135996     -4.33205870      6.09441564
H       7.63800249      2.61296364     -0.11785716
H      -3.57537427     -7.02027180     -5.32173316
H      -7.85281435     -1.50005925      7.14587713
H      -8.57283645     -3.49033296     22.83641214
H      -1.92066155     -7.54016082     13.67232371
H       8.62148376      1.79250988      5.10346214
H       8.12998520      0.97355564      9.03878930
H      10.07397249     14.32797063     12.00653152
H      -1.31050121     15.40597507     23.50098385
H       4.17313796      0.97643055     -3.53190702
H       6.64661236      1.15416617     -0.76449123
H      -3.02940179     14.64707446     10.88190339
H      11.14054968     -3.34828272      5.33234716
H       1.08329049      2.36482073    -14.36711748
H      12.03705532     -4.92626319      6.19234995
H      18.41043860     -5.58184408     -7.02793213
H      -3.37289879     14.66943988     12.86293322
   94

C      -3.55882846     -5.68074704     -6.69553288
C      -3.15327597     -6.47333521     -5.31351064
H      -4.54232754     -5.04534406     -6.89789568
C     -10.17203567     -0.97633849      5.79146997
H     -18.88947919     -7.18315750     -1.80863833
H      -2.60556395     -5.79302656     -4.45038349
C      10.56784073     -1.68954687      9.29186464
H      -3.87239601     -7.09671510     -4.54434635
H      -7.35631583     -5.79495716    -16.99722617
H      -7.34944712     -6.56473546    -16.87150452
C       9.64387219      1.51575246      5.71303830
H      10.03091312      2.55957990      6.23597668
C      10.77848005     -2.94195605      8.34456644
H      10.46699687      0.52046048      3.51137854
H      11.85565930     -2.55085151      7.99186904
H       0.32277996     -6.93123425     11.14802894
C      10.10760867     -4.23293425      7.56601667
H       8.88228360     -4.40665374      7.48639821
C       5.17161550      3.51335994     -3.17461088
H       9.96780066     -5.07325233      8.46521514
H       6.13524788      3.99083557     -3.79491754
H       4.61686232      4.56263235     -3.55551036
C       5.05886370      1.97781842     -5.51625142
H       5.60572948      3.21777197     -7.66451895
C       4.80160215      2.91273959     -6.82613082
H       5.90848764      1.12108612     -5.68686676
H       3.82984100      3.54733074     -7.15095190
H      -1.67554182     13.86506963     12.14618985
C      15.99387783     -6.87342361     -8.97792713
H     -10.56313148      0.14284687      5.64037088
H     -19.26905476     -7.16715355     -1.12741399
C      -9.31807105      4.98050287    -10.51798501
H     -10.83321625     -1.85739279      5.32784776
C      -0.70322413     -6.68638236     11.73864015
H     -10.41716778      4.91370307    -10.25540843
H      -2.93880426     -7.63608810     11.99280041
H      -0.69988196     -5.47995121     11.65485411
C       4.40670549      2.20229792     -3.99878765
H       6.21090562      4.60687473     -1.31163059
C       4.23332346      3.68257144     -0.45966771
H       3.16960729      2.10271798     -4.02227948
H       4.15377759      4.65436664      0.30454350
H       3.88925260      2.76828444      0.29817822
H       3.05344637      3.83129869     -0.80262942
H      15.03586142     -6.10739019     -8.86842425
H      15.49360301     -7.99079495     -9.09403615
H      17.32368894     -7.16927671     -6.65472409
H       8.10162206     -0.47907311      9.08458018
H      11.64797567     -0.16532378      9.41257861
H      -1.57098364     -8.91478947     12.38710837
H       8.43238612     -0.37958190      6.40872298
H      -8.70120379     -4.16255572     22.46227151
H       8.20305496     13.22177772     11.17545646
H      -2.34922877     13.47735513     24.28725242
H      10.64224858      1.02598379     11.86285069
H       7.84163628      2.08776123     -1.71985492
H      -3.43258837     12.93269418     11.85206020
H      12.87346966      2.27671225      3.08405793
H       1.15407400      1.60739114    -14.31594292
H      10.67904514     -5.23005864      5.27897982
H      16.53696190     -6.77058772    -10.39327921
H      10.92045128      2.24838680     10.51230374
C      -8.84123578     -1.27718592      6.56877801
C      -1.79771002     -7.70488925     12.45711557
C       8.99833858      0.23329844      8.60783903
C      10.42372783     -0.08964583      9.48967787
C       9.10691412      0.48432337      6.93661197
C       9.13859647     13.77506044     11.59117148
C      10.66979423      1.06976331     10.65525783
C      -2.87767387     14.02867054     11.93587466
C      -1.82987822     14.44168680     23.89415563
C       6.87579711      2.42846668     -1.01991469
C      11.91780265      1.97315786      3.69559551
C      10.65460032      1.31289556      4.39955119
C      16.73891065     -6.58723991     -7.52740487
C       5.61225809      3.51961278     -1.49548437
C      10.95950677     -4.36080115      6.09041341
H       7.61682534      2.70608340     -0.06502195
H      -2.38934273     -7.42214746     -5.45143158
H      -7.85336820     -1.50027950      7.14544756
H      -8.57289242     -3.49032121     22.83648662
H      -1.92117217     -7.54024779     13.67373130
H       8.61566191      1.84489106      5.12161773
H       8.13242339      1.00553589      9.02617641
H      10.07410900     14.32837413     12.00691066
H      -1.31052715     15.40601749     23.50105712
H       4.18203217      1.09499777     -3.49226864
H       6.62701393      1.25361360     -0.71913243
H      -3.02954764     14.64729500     10.88213973
H      11.13079383     -3.38559443      5.31953554
H       1.08873729      2.38197650    -14.38023839
H      12.04155607     -4.94719408      6.17402522
H      17.50956582     -5.78943847     -7.06060093
H      -3.37304910     14.66964976     12.86316555
   94

C      -1.75493269     -5.87339566     -6.98042510
C      -1.89324553     -6.74014108     -5.56650929
H      -2.67083206     -5.16908550     -7.27987124
C     -10.17152191     -0.97697620      5.78946803
H     -18.88948325     -7.18312998     -1.80868872
H      -1.39023288     -6.20776514     -4.58109417
C      10.57192564     -1.67287739      9.27868019
H      -2.78349937     -7.23541918     -4.88806611
H      -7.36317510     -5.79384763    -16.99105701
H      -7.35657269     -6.56360385    -16.86518823
C       9.63481808      1.52884642      5.71712179
H      10.04071971      2.56332247      6.24439465
C      10.80499104     -2.94303648      8.35766237
H      10.46260057      0.49468960      3.53078750
H      11.91452876     -2.59612515      8.06107667
H       0.32243408     -6.93099219     11.14911854
C      10.12732326     -4.22865488      7.57151485
H       8.89743412     -4.36958012      7.50020610
C       5.16331204      3.63463651     -3.12358544
H       9.98920476     -5.07946774      8.46105151
H       6.12580167      4.11436743     -3.74385972
H       4.60493295      4.68362062     -3.49948115
C       5.05069371      2.10088598     -5.48219375
H       5.59830313      3.33265491     -7.63749263
C       4.79521714      3.02836207     -6.79752294
H       5.88891231      1.23504654     -5.66257754
H       3.81666063      3.64578151     -7.13388870
H      -1.67570183     13.86522507     12.14638445
C      14.77994370     -6.98432797     -8.86085077
H     -10.56274583      0.14220975      5.63874193
H     -19.26904505     -7.16712897     -1.12745662
C      -9.31696188      4.97496830    -10.51549043
H     -10.83260686     -1.85801941      5.32570211
C      -0.70378236     -6.68618460     11.73937262
H     -10.41619468      4.90900397    -10.25330746
H      -2.93931889     -7.63601728     11.99323943
H      -0.70047157     -5.47975472     11.65559059
C       4.40551898      2.32928908     -3.96187820
H       6.19257484      4.71349008     -1.25051394
C       4.21756547      3.78306216     -0.40172943
H       3.16805859      2.23736851     -3.98362893
H       4.14073480      4.74786599      0.37183698
H       3.87216221      2.86583250      0.35221724
H       3.03735292      3.93520979     -0.74185920
H      14.00699363     -6.06411986     -8.58780751
H      14.29083014     -8.10500258     -8.71321705
H      16.47756294     -7.23219318     -6.72099019
H       8.08843454     -0.46145330      9.07198465
H      11.63919650     -0.11597573      9.35743373
H      -1.57149911     -8.91470818     12.38763818
H       8.43841581     -0.38814427      6.39406280
H      -8.70124334     -4.16254898     22.46227986
H       8.20308175     13.22222157     11.17594699
H      -2.34925362     13.47737966     24.28730081
H      10.63142802      1.00251532     11.87005245
H       7.82244848      2.19541967     -1.66942558
H      -3.43274536     12.93283593     11.85223855
H      12.86575261      2.29245169      3.11808635
H       1.15841447      1.63315002    -14.34069054
H      10.64810379     -5.24901253      5.27389424
H      14.66149336     -7.01784673    -10.48195257
H      10.92299854      2.24545454     10.54506973
C      -8.84073132     -1.27790808      6.56671468
C      -1.79826764     -7.70481731     12.45765529
C       8.98884517      0.24882007      8.59949371
C      10.41701417     -0.07310264      9.47636718
C       9.09576054      0.48592045      6.92759977
C       9.13867956     13.77545879     11.59159291
C      10.66322923      1.06561779     10.66343042
C      -2.87783312     14.02881310     11.93605562
C      -1.82990337     14.44171282     23.89420714
C       6.85602717      2.53165759     -0.96831850
C      11.91363816      1.96055200      3.71902353
C      10.64478615      1.29928796      4.40927518
C      15.76784760     -6.72595985     -7.54364364
C       5.59508366      3.62700852     -1.44138295
C      10.95850593     -4.38874056      6.08705117
H       7.59527538      2.80105454     -0.00966266
H      -1.38021706     -7.85229922     -5.60202419
H      -7.85296750     -1.50100626      7.14354553
H      -8.57293023     -3.49031544     22.83649611
H      -1.92179001     -7.54021875     13.67426951
H       8.61116605      1.89654549      5.13963784
H       8.13541525      1.03756687      9.01352793
H      10.07423921     14.32873207     12.00727694
H      -1.31055245     15.40604476     23.50111135
H       4.18947851      1.22244934     -3.45160917
H       6.60683884      1.35561740     -0.67220636
H      -3.02970884     14.64744504     10.88232550
H      11.12134705     -3.42203248      5.30756486
H       1.09033003      2.40805755    -14.39769267
H      12.04734589     -4.96595726      6.15669391
H      16.63970722     -6.00268356     -7.14605824
H      -3.37321248     14.66978808     12.86334705
   94

C       0.37141456     -6.34204310     -6.99194014
C      -0.67484402     -7.04749707     -5.75604219
H      -0.17591984     -5.48872050     -7.63973393
C     -10.17088765     -0.97746323      5.78793475
H     -18.88989171     -7.18313235     -1.80861570
H      -0.82272393     -6.09963821     -4.96644018
C      10.57577426     -1.65702750      9.26345892
H      -1.17936843     -7.69673284     -4.82010238
H      -7.35912539     -5.79130740    -16.97137146
H      -7.35265797     -6.56101916    -16.84524477
C       9.62565784      1.54146090      5.71991862
H      10.05001024      2.56643553      6.25135967
C      10.83157190     -2.94410107      8.36942289
H      10.45726100      0.46883435      3.54901301
H      11.96821839     -2.64014950      8.13124293
H       0.32194067     -6.93078927     11.14868600
C      10.14738387     -4.22431823      7.57548478
H       8.91392198     -4.33286519      7.51193669
C       5.14951030      3.76022921     -3.06916130
H      10.01011017     -5.08535617      8.45529642
H       6.11110829      4.24330205     -3.68829803
H       4.58784855      4.80974849     -3.43827562
C       5.03529688      2.23587647     -5.44581047
H       5.58318170      3.46226210     -7.60773204
C       4.78224731      3.15804938     -6.76535433
H       5.87347514      1.37138304     -5.63308341
H       3.79412080      3.75199790     -7.11475187
H      -1.67585114     13.86531765     12.14653262
C      13.46250136     -7.08716304     -8.63078175
H     -10.56219951      0.14173332      5.63754437
H     -19.26940232     -7.16712866     -1.12735519
C      -9.31319312      4.96767504    -10.51282820
H     -10.83203738     -1.85847692      5.32421445
C      -0.70429212     -6.68600449     11.73891642
H     -10.41276732      4.90379639    -10.25156305
H      -2.93974169     -7.63592288     11.99276763
H      -0.70103265     -5.47957927     11.65508810
C       4.39441466      2.46407570     -3.92299442
H       6.17019720      4.82063190     -1.18512639
C       4.19741075      3.88167664     -0.34154082
H       3.15667747      2.37853327     -3.94417788
H       4.12296659      4.83866687      0.44212623
H       3.85134378      2.96035256      0.40734106
H       3.01661389      4.03678161     -0.67832153
H      13.47612657     -5.86891258     -8.81387437
H      13.62865875     -8.29761113     -8.79095514
H      15.54342076     -7.36691282     -6.77739864
H       8.07512604     -0.44395545      9.05836430
H      11.62850394     -0.06874166      9.30222134
H      -1.57189707     -8.91457484     12.38721025
H       8.44389154     -0.39639172      6.37856291
H      -8.70125131     -4.16255072     22.46223578
H       8.20310652     13.22255249     11.17637546
H      -2.34927150     13.47738713     24.28732780
H      10.62082519      0.97803994     11.87515108
H       7.80031846      2.30482601     -1.61860031
H      -3.43289224     12.93291697     11.85237162
H      12.85712732      2.30673433      3.15087311
H       1.14331025      1.65340048    -14.35690246
H      10.61855499     -5.26767134      5.26890091
H      12.25998278     -7.23462550     -9.97513355
H      10.92691508      2.24023942     10.57588939
C      -8.83993536     -1.27853253      6.56481715
C      -1.79870508     -7.70469165     12.45722247
C       8.97925233      0.26412400      8.59007253
C      10.41048258     -0.05737127      9.46149062
C       9.08382083      0.48767501      6.91752128
C       9.13875449     13.77575315     11.59195409
C      10.65833605      1.05971354     10.66978787
C      -2.87798174     14.02889467     11.93619183
C      -1.82992178     14.44172201     23.89423757
C       6.83341743      2.63573694     -0.91581032
C      11.90914224      1.94708144      3.74099856
C      10.63417451      1.28563334      4.41747526
C      14.65513558     -6.85748035     -7.40406226
C       5.57417799      3.73504531     -1.38450533
C      10.95784144     -4.41632232      6.08300474
H       7.57125969      2.89610369      0.04649823
H      -1.10016099     -8.05644483     -6.33713577
H      -7.85212274     -1.50176561      7.14150060
H      -8.57293900     -3.49031925     22.83645604
H      -1.92221294     -7.54010011     13.67383838
H       8.60770428      1.94699974      5.15676875
H       8.13895145      1.06931166      9.00017759
H      10.07435493     14.32899482     12.00758541
H      -1.31057129     15.40605551     23.50114494
H       4.18758981      1.35706613     -3.41031571
H       6.58411108      1.45824197     -0.62533604
H      -3.02986085     14.64753521     10.88246737
H      11.11151971     -3.45819578      5.29488820
H       1.07802584      2.42897680    -14.40751063
H      12.05393243     -4.98290624      6.13904984
H      15.66525099     -6.25919449     -7.12869532
H      -3.37336282     14.66986624     12.86348452
   94

C       2.04625823     -7.06662008     -7.05742776
C       0.59371793     -7.15936246     -6.19378865
H       2.29050352     -5.89041055     -7.06486779
C     -10.17024827     -0.97794515      5.78698185
H     -18.89039374     -7.18319019     -1.80847448
H      -0.08623711     -6.28070569     -5.66174471
C      10.57946209     -1.64158882      9.24656527
H       0.22244991     -7.86858326     -5.27326942
H      -7.35211267     -5.79021429    -16.95907846
H      -7.34558456     -6.55986275    -16.83258188
C       9.61570135      1.55394728      5.72104650
H      10.05812339      2.56927547      6.25647732
C      10.85838370     -2.94470097      8.38016816
H      10.45023434      0.44345845      3.56557899
H      12.01676406     -2.68186493      8.20173573
H       0.32136582     -6.93070957     11.14675161
C      10.16794741     -4.21966491      7.57855545
H       8.93185084     -4.29630140      7.52230731
C       5.12091399      3.87003741     -3.02159402
H      10.03083118     -5.09051572      8.44875209
H       6.08064171      4.35577766     -3.64190429
H       4.55595068      4.91997131     -3.38452896
C       4.99404763      2.35281996     -5.41410389
H       5.54301651      3.57663144     -7.58223243
C       4.74411589      3.26655625     -6.73973042
H       5.83870968      1.49603794     -5.60753302
H       3.74310452      3.82826371     -7.10389064
H      -1.67595734     13.86534952     12.14662362
C      12.26208291     -7.18684650     -8.39066941
H     -10.56165601      0.14126225      5.63693414
H     -19.26984331     -7.16717727     -1.12718030
C      -9.31129811      4.96478900    -10.51188852
H     -10.83151229     -1.85891613      5.32334645
C      -0.70468750     -6.68591658     11.73728646
H     -10.41106230      4.90206849    -10.25112937
H      -2.94001630     -7.63586259     11.99134938
H      -0.70147526     -5.47949784     11.65338868
C       4.36303970      2.58261885     -3.88646663
H       6.13802391      4.92052037     -1.13107711
C       4.17066480      3.97285896     -0.28640036
H       3.12516248      2.50023654     -3.90838663
H       4.09989781      4.92262718      0.50655583
H       3.82516566      3.04789977      0.45848733
H       2.98883128      4.13028560     -0.61833627
H      12.55910932     -6.10801112     -8.91182460
H      12.54976519     -8.32304158     -8.78077149
H      14.60457235     -7.46650117     -6.88789903
H       8.06171120     -0.42637484      9.04362763
H      11.61609675     -0.02318382      9.24765010
H      -1.57213975     -8.91445787     12.38581118
H       8.44878231     -0.40413705      6.36216779
H      -8.70122835     -4.16256534     22.46213192
H       8.20311522     13.22271261     11.17662028
H      -2.34928051     13.47737933     24.28733252
H      10.61007644      0.95312475     11.87827566
H       7.77145274      2.41063221     -1.57379496
H      -3.43299854     12.93294432     11.85245597
H      12.84680130      2.32022760      3.18204132
H       1.12379719      1.63189380    -14.33170565
H      10.59034667     -5.28620766      5.26480087
H      10.79542360     -7.28413307     -9.57299169
H      10.93190410      2.23320262     10.60470907
C      -8.83901893     -1.27918921      6.56330482
C      -1.79897739     -7.70457970     12.45580735
C       8.96953215      0.27946126      8.57944747
C      10.40400708     -0.04199754      9.44511289
C       9.07106229      0.48983975      6.90622267
C       9.13879620     13.77589142     11.59215171
C      10.65447572      1.05259072     10.67443574
C      -2.87808773     14.02892166     11.93627818
C      -1.82993132     14.44171579     23.89424541
C       6.80426782      2.73549941     -0.86889374
C      11.90336706      1.93350330      3.76099670
C      10.62204963      1.27242361      4.42371464
C      13.60400713     -6.98970443     -7.34794406
C       5.54423772      3.83474059     -1.33559789
C      10.95763474     -4.44350194      6.07887113
H       7.54102784      2.98878280      0.09629922
H      -0.33872761     -7.76372953     -6.71761908
H      -7.85103591     -1.50264707      7.13960211
H      -8.57291986     -3.49033758     22.83636014
H      -1.92241320     -7.53996074     13.67242634
H       8.60453722      1.99649259      5.17252686
H       8.14290007      1.10094987      8.98591019
H      10.07442246     14.32911464     12.00774759
H      -1.31058130     15.40605076     23.50115569
H       4.16658968      1.47500548     -3.37163386
H       6.55628595      1.55664691     -0.58274494
H      -3.02997092     14.64757091     10.88255947
H      11.10131386     -3.49418091      5.28193351
H       1.06485072      2.40745966    -14.38984758
H      12.06136624     -4.99808666      6.12167867
H      14.67247476     -6.47123640     -7.14780368
H      -3.37346705     14.66989116     12.86357312
   94

C       3.38087880     -6.99480300     -7.18618883
C       1.83470285     -7.24859314     -6.52293486
H       3.78336908     -6.26654504     -6.30634570
C     -10.16993024     -0.97821862      5.78654655
H     -18.89062851     -7.18322854     -1.80841396
H       1.07946534     -6.37409291     -6.09568505
C      10.58338387     -1.62692772      9.22746466
H       1.28290987     -7.91665288     -5.66448214
H      -7.34806843     -5.79061782    -16.95234962
H      -7.34119513     -6.56016329    -16.82525037
C       9.60505172      1.56566128      5.71990292
H      10.06513323      2.57129118      6.25901922
C      10.88538330     -2.94508890      8.38884199
H      10.44173858      0.41734499      3.58006326
H      12.06030003     -2.72137928      8.27069763
H       0.32108569     -6.93074682     11.14501001
C      10.18905847     -4.21509271      7.57967316
H       8.95120060     -4.26032361      7.53050358
C       5.08877069      3.94686160     -2.98641923
H      10.05163910     -5.09525893      8.44051234
H       6.04542744      4.43278663     -3.61166897
H       4.51949592      4.99527686     -3.34724999
C       4.94633972      2.42003619     -5.38864382
H       5.50562277      3.64424475     -7.55816350
C       4.70392770      3.32516467     -6.72129346
H       5.77494365      1.55058669     -5.59331726
H       3.69689173      3.86753110     -7.09683398
H      -1.67597348     13.86530462     12.14660467
C      11.22643983     -7.29747397     -8.27891258
H     -10.56138529      0.14099722      5.63668776
H     -19.27005538     -7.16721113     -1.12710726
C      -9.31062230      4.96363330    -10.51148862
H     -10.83127255     -1.85915909      5.32296490
C      -0.70477385     -6.68592928     11.73587036
H     -10.41046425      4.90137328    -10.25094227
H      -2.94004324     -7.63584986     11.99017047
H      -0.70157961     -5.47951416     11.65192986
C       4.33237772      2.66008293     -3.85447031
H       6.10354014      5.00344739     -1.09587795
C       4.14431720      4.05190904     -0.24161182
H       3.09426042      2.58107429     -3.87558750
H       4.07879466      4.99683807      0.55780755
H       3.79915525      3.12603258      0.50251290
H       2.96153685      4.21170309     -0.56862323
H      11.53118737     -6.21127555     -8.77702367
H      11.45905077     -8.47462497     -8.56907933
H      13.70876692     -7.54665973     -6.98281074
H       8.04842475     -0.40904313      9.02738306
H      11.60231638      0.02057319      9.19370251
H      -1.57214121     -8.91441147     12.38460922
H       8.45337816     -0.41199062      6.34454463
H      -8.70119705     -4.16257839     22.46204923
H       8.20311585     13.22261417     11.17655766
H      -2.34927533     13.47736202     24.28731305
H      10.59905979      0.92784241     11.87908959
H       7.74161087      2.49967972     -1.53654994
H      -3.43301717     12.93290334     11.85244119
H      12.83464068      2.33235568      3.21105375
H       1.12036375      1.61549551    -14.31340021
H      10.56249089     -5.30525058      5.26004309
H       9.84109279     -7.37074476     -9.70994988
H      10.93773178      2.22432011     10.63104111
C      -8.83852372     -1.27956391      6.56252240
C      -1.79898638     -7.70453392     12.45459151
C       8.95991009      0.29448977      8.56718714
C      10.39764556     -0.02736008      9.42703910
C       9.05780321      0.49185260      6.89326846
C       9.13879707     13.77579645     11.59208396
C      10.65128700      1.04423814     10.67700316
C      -2.87810424     14.02887964     11.93626333
C      -1.82992628     14.44169886     23.89422670
C       6.77410970      2.81981534     -0.83022239
C      11.89613299      1.91906886      3.77833326
C      10.60844265      1.25863909      4.42741029
C      12.63803631     -7.13339478     -7.32785242
C       5.51232806      3.91605761     -1.29902027
C      10.95719427     -4.47104793      6.07322629
H       7.50943460      3.06972491      0.13704712
H       0.96803573     -7.87952894     -7.11281055
H      -7.85041695     -1.50316130      7.13855122
H      -8.57289184     -3.49035311     22.83628304
H      -1.92234746     -7.53987856     13.67121297
H       8.60170602      2.04428067      5.18623062
H       8.14741485      1.13214161      8.97013123
H      10.07442170     14.32902321     12.00767893
H      -1.31057644     15.40603423     23.50113775
H       4.14633907      1.55305488     -3.33475999
H       6.52828531      1.64024734     -0.54512516
H      -3.02998980     14.64753150     10.88254645
H      11.09013908     -3.53075468      5.26734073
H       1.06277535      2.39075545    -14.37685573
H      12.06881695     -5.01249490      6.10290574
H      13.74369776     -6.68024551     -7.19555042
H      -3.37347962     14.66984955     12.86356013
   94

C       4.64193745     -6.89020154     -6.89694925
C       2.99983416     -7.30312301     -6.70015816
H       4.73589434     -6.37047773     -5.79937693
C     -10.16990789     -0.97825161      5.78656036
H     -18.89099052     -7.18325371     -1.80834046
H       2.13835600     -6.48589192     -6.36893396
C      10.58773146     -1.61356993      9.20599959
H       2.28625981     -7.99349055     -5.98836207
H      -7.34391512     -5.79116876    -16.94733287
H      -7.33668155     -6.56063672    -16.81978829
C       9.59416137      1.57599385      5.71678875
H      10.07150180      2.57185928      6.25934947
C      10.91224321     -2.94562719      8.39456917
H      10.43217882      0.38984322      3.59274169
H      12.09884441     -2.75925968      8.33675157
H       0.32108843     -6.93084142     11.14349173
C      10.21026987     -4.21091019      7.57783875
H       8.97146583     -4.22520597      7.53569099
C       5.06310510      4.01126430     -2.95544904
H      10.07223077     -5.09991519      8.42960906
H       6.01662240      4.49745291     -3.58559971
H       4.48880664      5.05720716     -3.31562071
C       4.91242051      2.46729901     -5.36459740
H       5.48189483      3.69197194     -7.53408170
C       4.67620632      3.36435329     -6.70392021
H       5.71241432      1.57475155     -5.58202911
H       3.66670956      3.89524224     -7.08853188
H      -1.67592333     13.86520134     12.14651115
C      10.32423429     -7.42616287     -8.32059757
H     -10.56135606      0.14097483      5.63675875
H     -19.27038783     -7.16723331     -1.12701740
C      -9.31000520      4.96288927    -10.51127727
H     -10.83133644     -1.85916729      5.32305272
C      -0.70457619     -6.68598716     11.73467756
H     -10.40990282      4.90095277    -10.25088258
H      -2.93983779     -7.63583159     11.98925322
H      -0.70138050     -5.47957440     11.65069596
C       4.31378082      2.72071596     -3.82515817
H       6.07424979      5.07683882     -1.06527823
C       4.12240040      4.12479439     -0.20117574
H       3.07537486      2.64579901     -3.84522900
H       4.06233980      5.06567198      0.60372039
H       3.77649388      3.19900226      0.54291455
H       2.93906395      4.28751138     -0.52423033
H      10.58437112     -6.27993599     -8.68052285
H      10.49013765     -8.63954905     -8.44504138
H      12.84382794     -7.62390779     -7.06480603
H       8.03524138     -0.39251971      9.00961766
H      11.58728871      0.06229530      9.14054167
H      -1.57191804     -8.91438154     12.38363713
H       8.45763266     -0.42045220      6.32568349
H      -8.70115725     -4.16258770     22.46198946
H       8.20312644     13.22231534     11.17631088
H      -2.34925778     13.47733491     24.28727432
H      10.58772290      0.90210265     11.87760623
H       7.71484454      2.57636205     -1.50204720
H      -3.43297014     12.93280901     11.85235658
H      12.82123306      2.34243864      3.23844348
H       1.12243271      1.60059574    -14.29883591
H      10.53353300     -5.32500227      5.25320795
H       9.15513510     -7.48521554    -10.05584841
H      10.94414694      2.21344894     10.65476939
C      -8.83838656     -1.27965439      6.56232118
C      -1.79874782     -7.70449937     12.45359910
C       8.95038504      0.30866654      8.55336004
C      10.39130602     -0.01403428      9.40749339
C       9.04420635      0.49302208      6.87874744
C       9.13878533     13.77552179     11.59185645
C      10.64841503      1.03451467     10.67746708
C      -2.87805466     14.02878415     11.93617855
C      -1.82990867     14.44167136     23.89418721
C       6.74691860      2.89301778     -0.79492807
C      11.88796517      1.90309329      3.79347539
C      10.59385793      1.24349793      4.42894101
C      11.73654829     -7.28610754     -7.36848325
C       5.48495818      3.98805457     -1.26610129
C      10.95546426     -4.49944676      6.06480992
H       7.48050390      3.13985475      0.17447716
H       2.23638309     -7.95866395     -7.39509644
H      -7.85018495     -1.50333075      7.13815765
H      -8.57285453     -3.49036355     22.83622616
H      -1.92202743     -7.53979902     13.67022316
H       8.59961042      2.08982459      5.19822783
H       8.15241903      1.16232098      8.95278828
H      10.07438898     14.32877053     12.00747059
H      -1.31055889     15.40600650     23.50109772
H       4.13779857      1.61461945     -3.29998693
H       6.50238506      1.71294695     -0.51053928
H      -3.02994116     14.64743473     10.88246093
H      11.07708477     -3.56831093      5.25002011
H       1.06478128      2.37554007    -14.36606323
H      12.07503828     -5.02695871      6.08116681
H      12.86186193     -6.88996932     -7.23890476
H      -3.37342518     14.66975611     12.86347669
   94

C       6.82690034     -7.22627313     -7.49673297
C       5.11399600     -7.35587622     -7.10085786
H       6.91866967     -6.59480056     -6.44785792
C     -10.16968116     -0.97812121      5.78662609
H     -18.89185999     -7.18329685     -1.80818867
H       4.38496570     -6.45408604     -6.66955580
C      10.59159526     -1.59636020      9.16804471
H       4.26385328     -7.87158981     -6.38787013
H      -7.33803447     -5.79219452    -16.94280354
H      -7.33032328     -6.56158851    -16.81484487
C       9.57295107      1.58784681      5.70626273
H      10.07782575      2.56738162      6.25430706
C      10.95660461     -2.95168905      8.40310139
H      10.41729176      0.33138888      3.61538281
H      12.15352167     -2.82897856      8.45337614
H       0.32151266     -6.93136924     11.13962880
C      10.24683452     -4.20507021      7.56236359
H       9.00854071     -4.16062593      7.52880893
C       5.04478924      4.04718506     -2.93304785
H      10.10430274     -5.11254548      8.39421700
H       5.99270119      4.53598491     -3.57026902
H       4.45973232      5.08754489     -3.29222980
C       4.89118802      2.46181685     -5.35488331
H       5.47513007      3.69481330     -7.51956085
C       4.66130236      3.34764912     -6.70419734
H       5.63404362      1.52655669     -5.59426080
H       3.65384742      3.87685603     -7.09640104
H      -1.67522236     13.86417483     12.14530767
C       8.57611871     -7.39825176     -7.72757972
H     -10.56103991      0.14113743      5.63681892
H     -19.27118577     -7.16726916     -1.12682601
C      -9.30897803      4.96232714    -10.51107341
H     -10.83134575     -1.85898474      5.32335166
C      -0.70363008     -6.68637707     11.73167774
H     -10.40895073      4.90076610    -10.25089213
H      -2.93895866     -7.63587566     11.98707502
H      -0.70040068     -5.47997208     11.64753832
C       4.31874388      2.74453619     -3.80709328
H       6.04644790      5.12829539     -1.04202386
C       4.10531265      4.18133063     -0.16305802
H       3.07983395      2.67775779     -3.82482623
H       4.05410508      5.11692203      0.64919542
H       3.75720188      3.25762907      0.58289801
H       2.92128933      4.34836546     -0.48054843
H       8.87337573     -6.36558839     -8.33915526
H       8.74996521     -8.58640199     -8.03271695
H      11.39736859     -7.57974682     -7.21958846
H       8.00826382     -0.36530325      8.97240783
H      11.55155834      0.13344346      9.04266752
H      -1.57103242     -8.91443598     12.38131850
H       8.46680101     -0.44247978      6.28727798
H      -8.70101793     -4.16259184     22.46177845
H       8.20294139     13.22024196     11.17403150
H      -2.34916350     13.47718722     24.28698232
H      10.57042276      0.86555794     11.86815400
H       7.68632408      2.62658115     -1.47200406
H      -3.43227189     12.93183102     11.85119647
H      12.79393118      2.34725003      3.27879243
H       1.13365400      1.57462925    -14.28149545
H      10.47805282     -5.36207796      5.22674296
H       6.60248562     -7.24340513     -8.71780312
H      10.95994028      2.19338880     10.68368638
C      -8.83793724     -1.27961620      6.56198183
C      -1.79777085     -7.70452901     12.45119700
C       8.93118298      0.33082406      8.52431176
C      10.37606862      0.00466588      9.37170870
C       9.01977386      0.48834188      6.84825724
C       9.13832474     13.77367479     11.58991048
C      10.64329492      1.01865056     10.67090600
C      -2.87735699     14.02780680     11.93502706
C      -1.82981241     14.44151727     23.89388281
C       6.71747610      2.93925762     -0.76450872
C      11.86843119      1.87655478      3.81884039
C      10.56925018      1.20723139      4.43103831
C      10.23189761     -7.36876841     -7.36503508
C       5.45947088      4.03769430     -1.23898491
C      10.94859677     -4.55679757      6.03878105
H       7.44768538      3.18110643      0.20864182
H       4.14048086     -7.87755401     -7.64212646
H      -7.84953394     -1.50338191      7.13744095
H      -8.57271924     -3.49036836     22.83601772
H      -1.92086050     -7.53968585     13.66782427
H       8.59731464      2.16385123      5.21457235
H       8.16238471      1.21595164      8.91467160
H      10.07370777     14.32710836     12.00578918
H      -1.31046131     15.40584731     23.50078330
H       4.16406459      1.63982132     -3.27214881
H       6.47422469      1.75855587     -0.48043702
H      -3.02922606     14.64641905     10.88128340
H      11.05010195     -3.64177881      5.20968246
H       1.07390799      2.34905100    -14.35291928
H      12.08459588     -5.05336151      6.03228289
H      11.39926887     -7.11830206     -7.34224469
H      -3.37270765     14.66880232     12.86232070
