   94
energy=      0.00000000
C      -6.04876163     -0.97332899     -2.31028994
C      -4.46039386     -1.30138311     -1.70500681
H      -6.01680712     -0.23033353     -3.31062385
C      -7.35767231     -0.50353558     -1.26938994
H      -6.34698928     -1.87627246     -3.11323362
H      -4.09545341     -0.16655077     -1.38834073
C      -2.89534834     -1.85555755     -2.05068825
H      -4.70358915     -2.18115383     -0.86966874
H      -6.13559214     -3.90918666    -11.57942659
H      -6.12788095     -4.67858065    -11.45146792
C      -1.62223042     -1.53497049     -3.10726474
H      -2.17713809     -1.08986306     -4.12432776
C      -0.13528055     -0.72626364     -2.71079311
H      -1.49033504     -2.62375018     -3.69398838
H      -0.09645204      0.33735152     -3.35885320
H       0.71729716     -1.19337377     -3.49575408
C       0.61131281     -0.44438645     -1.15591367
H       1.83981211     -0.26727971     -1.30163752
C       0.07662494      0.62692233      0.12139363
H       0.98688886     -1.54336113     -0.71242842
H      -0.43729781      1.61306297     -0.42721112
H       0.95062277      1.48031312      0.36959961
C      -0.70879301      0.23673400      1.64204877
H      -0.01691007      0.56707275      2.62330235
C       3.19743468      3.55126767    -10.57346766
H      -0.38886660     -0.91008665      2.00301441
H       2.55142786      4.35939515    -11.03284638
H       0.48380671      9.63930139     12.22786023
C      11.23813650     -4.52928911     -9.38837256
H      -7.24339635      0.62482686     -0.75879625
H      -7.41078015     -0.99850634     -0.13094792
C      -8.95710993     -0.61358062     -1.74099082
H      -9.72165604      0.21827398     -2.17774894
C      -8.02688020      0.02824383     10.35802414
H      -9.72672885     -1.54932221     -1.74789125
H      -8.08557670      0.90508467      9.59520836
H      -7.96555354     -0.84285470     11.12718577
C      -2.37367454      0.52853064      2.07603118
H      -2.75049510      1.43388479      1.31498733
C      -3.36422337      0.95174857      3.42931408
H      -2.90015463     -0.55811894      1.80027801
H      -3.18514639      2.02495154      4.02378505
H      -3.40782672      0.23499631      4.44095684
H      -4.60090345      1.06076926      3.30893663
H      10.80872444     -3.44854237     -9.09593824
H      11.76073179     -4.69846858    -10.45429869
H      11.14495341     -5.44085601     -8.61488124
H       4.52283427     -3.48261867     17.27522904
H       1.91171841     -3.97389852     19.26557614
H      12.03428773     -4.86476649     10.69783191
H      14.99661799     -4.70141472     11.18301383
H      -7.96749127     -4.12665008     22.15599554
H       7.36815504      7.45229353      0.66648610
H      -1.25141238     10.01295673     14.99392907
H       9.09837363      7.13305038      3.73290092
H      15.65222982     -2.44765750      0.68459825
H      -1.17118569      8.76569972     12.31193286
H      18.34372716     -0.85078773      1.55760410
H      17.74916005     -1.77129953     -1.52340639
H      12.52459432     -1.73258187      2.81153048
H      20.63258415     -1.52066465     -0.75334837
H       7.66067600      5.97760073      3.28422217
C      11.98385823     -3.15545574     12.26429126
C      12.58024035     -3.78259110     10.90841622
C       3.39036522     -3.12194956     17.16127724
C       2.38491797     -3.53897936     18.29300530
C      14.23120870     -3.78898224     10.98261285
C       7.96603748      7.80798128      1.65532603
C       7.99511711      7.16008439      3.18204950
C      -0.69656501      9.89406429     12.50584987
C      -1.06587981     10.68904112     13.97207922
C      16.08762764     -1.50663429      1.35074312
C      17.45474245     -0.67681378      0.70772201
C      18.16019275     -0.78920933     -0.87862518
C      19.85271044     -0.67130269     -1.21369503
C      14.61798147     -0.96587922      1.77329156
C      13.17028788     -0.81065069      2.39901396
H      20.32612595     -0.72545537     -2.35944311
H      -2.52589292     -2.76783336     -1.31873604
H      11.64250109     -2.64367815     13.26337712
H      -7.83919257     -3.45442660     22.53023481
H      12.08285208     -3.19084937      9.95144821
H      15.00529618     -2.86662031     10.88299349
H       3.15025865     -2.47103761     16.18826016
H       8.53145082      8.77920525      1.20901116
H      -0.24654727     11.49724779     14.43183857
H       7.25732289      7.74508431      3.97994005
H      16.28311184     -2.06108761      2.43705385
H      -1.01341503     10.44430102     11.44140046
H      17.32189176      0.52422231      1.00883178
H      17.52261403     -0.06514583     -1.66981034
H      12.60969646      0.23301483      2.54337033
H      20.47196136      0.36197415     -0.91452032
H      -2.08736312     11.38886595     14.02737861
   94
energy=      0.00000000
C      -5.84030910     -0.91568278     -2.28636524
C      -4.24624451     -1.26370171     -1.68094841
H      -5.76580974     -0.19921729     -3.29735967
C      -7.19961017     -0.33550375     -1.37259031
H      -6.15083170     -1.85331141     -3.04197349
H      -3.86209545     -0.14036750     -1.35430658
C      -2.67350063     -1.82108544     -2.02962277
H      -4.47887058     -2.12083309     -0.81932602
H      -6.01397504     -4.00258427    -11.86870429
H      -6.00626385     -4.77197826    -11.74074562
C      -1.37053242     -1.50302608     -3.05965912
H      -1.91196992     -1.06100540     -4.08434698
C       0.11879315     -0.69383423     -2.66028701
H      -1.21544832     -2.58441170     -3.65576529
H       0.15758824      0.37581161     -3.29843139
H       0.98074035     -1.14001939     -3.44833288
C       0.86845098     -0.42349744     -1.10451231
H       2.10151595     -0.26703803     -1.23793440
C       0.34703012      0.65922144      0.16784208
H       1.22288009     -1.52899257     -0.66058569
H      -0.16632593      1.64623962     -0.37953413
H       1.22132941      1.51538117      0.40602360
C      -0.43037394      0.27307052      1.69237273
H       0.26352559      0.61340483      2.66875999
C       3.19297233      3.55580263    -10.57421491
H      -0.10480663     -0.86754262      2.06801727
H       2.54696552      4.36393011    -11.03359363
H       0.48491778      9.63784040     12.23486795
C      11.22190178     -4.54318866     -9.41952332
H      -7.10557126      0.73344537     -0.76487836
H      -7.40414257     -0.93171668     -0.30881648
C     -13.85246749     -1.05935843     -2.16448158
H      -8.35751419     -0.08800794     -1.79528157
C      -8.02647754      0.02912341     10.35899698
H     -14.53069554     -1.94437877     -2.16795639
H      -8.08578045      0.90465052      9.59471959
H      -7.96575459     -0.84330005     11.12670434
C      -2.09733584      0.55935385      2.11741884
H      -2.49047537      1.45266260      1.34993718
C      -3.06357609      0.98395109      3.48663625
H      -2.63061045     -0.52062326      1.82754668
H      -2.86807427      2.05705294      4.07616956
H      -3.09213455      0.26270429      4.49553254
H      -4.30145738      1.09709716      3.38719069
H      10.79248964     -3.46244200     -9.12708881
H      11.74449709     -4.71236829    -10.48544943
H      11.12871866     -5.45475552     -8.64603198
H       4.47020666     -3.47158921     17.31082888
H       1.79533823     -3.95229219     19.30883324
H      12.06658081     -4.89205676     10.77758377
H      15.02990685     -4.73468977     11.24761114
H      -8.07699597     -4.13141171     22.20283248
H       7.36838581      7.45251816      0.66639342
H      -1.24622432     10.01169206     14.99401261
H       9.09895531      7.13358342      3.73149834
H      15.68584372     -2.45086321      0.63767507
H      -1.17627422      8.76855407     12.30646483
H      18.36281300     -0.79615807      1.52761423
H      17.76657717     -1.75549866     -1.56120675
H      12.54925145     -1.69678331      2.75198462
H      20.64593405     -1.50469226     -0.79818038
H       7.66014637      5.97778611      3.28540156
C      12.01509751     -3.18223904     12.33320400
C      12.61558622     -3.80984460     10.97932770
C       3.33218051     -3.12100092     17.22017775
C       2.34350286     -3.54656551     18.36350247
C      14.26683473     -3.82026836     11.04728596
C       7.96614579      7.80804833      1.65535341
C       7.99498208      7.16004924      3.18203745
C      -0.69687957      9.89393547     12.50582779
C      -1.06546163     10.68908968     13.97213200
C      16.12133275     -1.51098614      1.30527300
C      17.47553672     -0.65614618      0.66961767
C      18.17616106     -0.77184317     -0.91814321
C      19.86719313     -0.65388574     -1.25771038
C      14.65670325     -0.96009974      1.72913876
C      13.20735947     -0.78262442      2.34261363
H      20.33654003     -0.70645003     -2.40519681
H      -2.29805042     -2.74881960     -1.31847574
H      11.65630495     -2.68363682     13.33283667
H      -7.94869727     -3.45918822     22.57707175
H      12.12145733     -3.21961530     10.01969475
H      15.04448213     -2.90195021     10.93874407
H       3.04846621     -2.46846467     16.25957480
H       8.53188433      8.77916128      1.20918465
H      -0.24856092     11.50109743     14.42956335
H       7.25663307      7.74415360      3.98006714
H      16.32233380     -2.09553193      2.37477333
H      -1.01186013     10.44243633     11.43995789
H      17.32928909      0.54390033      0.96798964
H      17.53403452     -0.05092858     -1.70854120
H      12.66134038      0.27029284      2.47492127
H      20.48688111      0.37976244     -0.96116082
H      -2.08821859     11.38683256     14.02944246
