   94
energy=      0.00000000
C      -8.27171766     -4.66080033     -4.47280797
C      -7.13591492     -5.18294393     -3.46307177
H      -9.09990276     -4.27868442     -5.21108767
C     -20.03192299      4.50210902     -4.06767124
H     -18.88235654     -7.18163149     -1.81025971
H      -6.59113980     -4.24485405     -2.88832167
C       9.95766410     -5.15528250      7.52825580
H      -7.60977633     -5.92243459     -2.60531870
H      -7.29857073     -5.75426489    -16.93041859
H      -7.29085954     -6.52365889    -16.80245992
C       6.71160943      0.89664322      9.69733629
H       5.52585323      1.14313631      9.47538970
C       9.85079904     -5.91424471      6.18371857
H       6.54996032     -0.32832354      9.78049907
H      10.14468467     -5.03872002      5.41321203
H       1.35118363     -5.34021312     10.28853965
C       9.60371399     -7.53520840      6.01707622
H       8.60023042     -7.78460307      5.34076243
C       6.57783088      0.58553104     -3.31817799
H       9.14143891     -8.06044814      7.03359410
H       6.42070865      0.46892254     -4.53300975
H       6.88584082      1.77098806     -3.19065600
C       5.13145564      0.19163588     -2.47408151
H       4.93502168     -0.95488002     -2.06142037
C       8.23905064     11.02330486    -16.67152817
H       4.21710852     -0.12821836     -3.24304067
H       7.59304395     11.83143188    -17.13090652
H      -0.76413051     12.56987615     11.39832777
C      12.37234461     -6.91729667    -13.67192055
H     -19.10561058      4.89852111     -3.48544450
H     -19.26168231     -7.16560380     -1.12889706
C      -9.28997474      4.95725589    -10.51680901
H     -20.95842634      4.10631831     -4.65001690
C       0.30635149     -5.36668291     10.91368065
H     -10.38994745      4.89569486    -10.25662773
H      -1.71721186     -6.15378036     10.81056434
H      -0.26027850     -4.33563314     11.16025684
C       4.49271560      1.13454841     -1.24420118
H      -2.79692204      3.16871784      3.19825604
C      -3.59770364      3.16674236      4.13359873
H       3.51377742      1.84816589     -1.17418258
H      -3.49758627      4.22097217      4.76184791
H      -3.35374313      2.21893421      4.88076941
H      -4.74256305      3.05834521      3.69352145
H      11.94284700     -5.83658463    -13.37948360
H      12.89496904     -7.08642857    -14.73783995
H      12.27921780     -7.82887681    -12.89843808
H       8.39924386      2.22371719     13.06459421
H       6.30906913      4.47639182     13.11792596
H      -1.24453384     -7.40914936     11.95072844
H       8.77207387      1.18167571     10.78750353
H      -8.70101793     -4.16259184     22.46177845
H       6.49757030      7.28310791     11.40937360
H      -2.36209394     13.40680546     23.46734672
H       8.86183967      5.84301292     13.45616118
H       9.94743794     -0.34013163     -4.93447128
H      -2.52118001     11.63753237     11.10421671
H      18.30568301      0.41246342     -4.77391817
H       1.41325020      1.58854504    -13.40338993
H      11.14496595     -9.17364569      4.68845766
H      28.85420666     -1.65918417      0.01393728
H       9.28533858      5.40755294     11.71535994
C      17.30322965     -4.04092092     16.91429424
C      -0.82247772     -6.29754474     11.65637623
C       7.47436415      2.53098610     12.30710880
C       7.35184264      4.19536003     12.54782487
C       7.62848625      1.58809656     10.92127789
C       7.59373312      7.01623242     11.84220909
C       8.27153385      5.59555169     12.39378464
C      -1.96626515     12.73350818     11.18804723
C      -1.84274284     14.37113551     23.07424721
C       9.63395956     -0.45306382     -3.75004454
C      18.33146695      0.92074888     -5.85065193
C      18.99187761      0.14329233     -7.00382183
C      28.76704399     -0.50538083     -0.10968058
C       8.11033362      0.00620967     -3.38053315
C      10.98052161     -8.30907713      5.51424674
H      10.58826270      0.13788717     -3.25140848
H      -6.26870157     -5.81254280     -4.06196759
H      16.35524265     -3.75935048     17.46515407
H      -8.57271924     -3.49036836     22.83601772
H      -0.52521946     -6.05707106     12.83696918
H       7.13074297      1.17141105      8.56839289
H       6.54904067      1.97371711     12.90289087
H       8.01162451      8.14867465     11.74279910
H      -1.32339175     15.33546555     22.68114770
H       4.80080797      1.29846419     -0.08452775
H       9.81252507     -1.62083745     -3.42341770
H      -2.11813419     13.35212050     10.13430360
H      17.87561277      1.99565221     -6.08562470
H       1.35350445      2.36296685    -13.47481336
H      12.13172419     -8.17892636      5.85891169
H      28.69671416      0.65324368     -0.19204449
H      -2.46161589     13.37450371     12.11534082
   94
energy=      0.00000000
C      -8.28641198     -5.21853503     -5.51129554
C      -7.15061863     -5.74068368     -4.50155146
H      -9.11524698     -4.83686190     -6.24907467
C      -9.80859784     -1.13990614      5.99666389
H     -18.89185999     -7.18329685     -1.80818867
H      -6.60535281     -4.80292263     -3.92672986
C      10.03479860     -5.13379435      7.47149902
H      -7.62554618     -6.48004941     -3.64428071
H      -7.29857073     -5.75426489    -16.93041859
H      -7.29085954     -6.52365889    -16.80245992
C       6.72453409      0.95769595      9.72550155
H       5.54242025      1.27080984      9.57818184
C       9.95931910     -5.92312916      6.14250635
H       6.56936687     -0.26856639      9.79213555
H      10.16643707     -5.03477619      5.35927846
H       1.55471582     -5.76579775     10.80100652
C       9.72243830     -7.54509354      5.97126738
H       8.71168449     -7.74507844      5.29122318
C       6.85020902      0.32707269     -3.62709585
H       9.24453407     -8.08142739      6.97498706
H       6.67918489      0.28919195     -4.84720518
H       7.18408322      1.49986463     -3.44944290
C       5.45550362     -0.14650936     -2.75624760
H       5.47125157     -1.30369150     -2.31560005
C       8.24122760     11.02644941    -16.67267276
H       4.49657668     -0.43473628     -3.48844473
H       7.59522090     11.83457643    -17.13205111
H      -0.88872725     13.61793246     12.14185689
C      12.37234461     -6.91729667    -13.67192055
H     -10.77510614     -0.82944631      5.44088593
H     -19.27118577     -7.16726916     -1.12682601
C      -9.29621238      4.95889644    -10.51509883
H     -10.79913078     -1.00711739      5.41303261
C       0.51886375     -5.59279049     11.40380652
H     -10.39618508      4.89733540    -10.25491754
H      -1.56612923     -6.59940550     11.41111989
H       0.38978094     -4.38882498     11.39489113
C       4.83128195      0.80777199     -1.53369122
H      -0.15263502      6.40628954      1.76825191
C      -0.95341518      6.40430528      2.70359553
H       3.87922307      1.55743617     -1.49094938
H      -0.85329757      7.45853384      3.33184666
H      -0.70945243      5.45649540      3.45076342
H      -2.09827403      6.29590465      2.26351763
H      11.94284700     -5.83658463    -13.37948360
H      12.89496904     -7.08642857    -14.73783995
H      12.27921780     -7.82887681    -12.89843808
H       8.35148854      2.16008375     13.16104838
H       6.24772417      4.45068484     13.01994331
H      -0.72621874     -7.84438439     12.27994258
H       8.84601084      1.31789655     10.73503530
H      -8.70101793     -4.16259184     22.46177845
H       6.51496950      7.26389535     11.35633315
H      -2.34996224     13.47531322     24.25258876
H       8.85215060      5.78360563     13.42513062
H      10.18379770     -0.66805310     -5.16251434
H      -2.64577676     12.68558867     11.84774575
H      18.55725102      0.44639989     -4.90682997
H       1.39558771      1.59097033    -13.44444704
H      11.23595082     -9.19036281      4.61477468
H      28.96170537     -1.67491366      0.07171208
H       9.25544992      5.35760710     11.66312437
C      -8.48942718     -1.43853912      6.76470153
C      -0.55223310     -6.64061067     12.11186568
C       7.48001832      2.49660037     12.35291955
C       7.32836405      4.16387841     12.53028104
C       7.68002019      1.62772229     10.92875280
C       7.59684941      6.98565504     11.81753057
C       8.25730261      5.55426653     12.36217889
C      -2.09086188     13.78156446     11.93157630
C      -1.83061114     14.43964326     23.85948924
C       9.87353138     -0.76632583     -3.97682155
C      18.58308924      0.95460257     -5.98361498
C      19.24340179      0.17749687     -7.13707198
C      28.88118573     -0.51898012     -0.03560767
C       8.35411546     -0.29672972     -3.65430810
C      11.08429152     -8.34372683      5.46305994
H      10.75696117     -0.12059497     -3.41986561
H      -6.28296660     -6.37016902     -5.09993142
H      -7.50515124     -1.66124492      7.33775761
H      -8.57271924     -3.49036836     22.83601772
H      -0.41005966     -6.49393606     13.32832941
H       7.09422898      1.20487213      8.57369600
H       6.56850340      1.91687225     12.94941501
H       8.02165889      8.11779392     11.75079531
H      -1.31126005     15.40397331     23.46638973
H       5.17771685      0.97443488     -0.38601056
H      10.03073710     -1.93649337     -3.64742100
H      -2.24273094     14.40017674     10.87783266
H      18.12735632      2.02946124     -6.21899519
H       1.33584196      2.36539214    -13.51587047
H      12.23280805     -8.24494924      5.82662927
H      28.80418247      0.63796056     -0.13430945
H      -2.58621258     14.42255999     12.85886993
