   94

C       6.11624901     -7.27675128    -14.01010249
C      -3.56733802    -13.21076468    -10.05907527
H       6.79623691     -6.54961635    -13.34165852
C      -1.09438991     -0.86043958      8.33384214
H      -6.77206989      7.14043445     -2.36076969
H       3.03765978     -3.25985216      9.13287676
C       0.18316359     -1.17495067      9.35598181
H       5.78163978     -8.34584867    -13.58232507
H      -9.00629938     -6.97077983    -19.18209263
H      -8.99858819     -7.74017383    -19.05413396
C       6.77266103      0.08143652     -2.57466121
H      17.20340372      4.48094162     15.07218373
C       8.64057050    -10.47502454      5.10245936
H       8.27511207     10.89118242     -2.77603542
H       8.92438262     -9.73342438      4.24711845
H       2.50425844    -10.90118632     17.33758517
C       7.25552882    -10.93684827      7.58368497
H       6.14102547    -10.54165925      7.23559200
C       7.52118708     11.12461326     -0.56561957
H       6.93562090    -11.76366170      8.43801654
H      16.75729120     13.70873775      6.45819134
H       6.95363846     11.72989237      0.26413079
C       8.29728569     10.29574775     -1.70267796
H      14.54353454     -4.44093211     -6.52314930
C      14.55882118     -5.63006067     -6.71314051
H      13.35602716     -5.66946866     -6.68303673
H       7.78442012      9.19353482     -1.87363428
H      -3.01380475     10.25839066     10.97037863
C      15.86806999     -6.56971977     -7.00893622
H      -2.20273631     -0.58361272      8.75850635
H      -6.84922497      7.17547235     -0.39643161
C       5.70402183     -2.84749440     -2.15444725
H      -0.15440482     -2.25869331      9.84081687
C       1.47819573    -10.71751696     17.93036419
H       5.56104515     -2.99232519     -0.94492472
H     -10.96213609    -12.27297242     15.66815272
H       1.07348491     -9.60107587     18.09678088
C      -5.25863766     -1.88670076     -6.29898579
H      -3.75561698      7.45020822     -1.15002724
C      -4.47816131      9.67590674     -1.26553494
H      -6.37667914     -1.64681376     -6.12241600
H      -4.50847809     10.64696263     -0.62421275
H      -0.34949382     18.14944669     -5.80383429
H      -1.08322745     18.27349340     -6.03760207
H      16.53819565     -5.79499828     -7.63995342
H      17.44188571     -8.45702622     -7.73283785
H      17.63332382     -8.04380522     -6.03472999
H       2.74702551      0.60081937      7.10031222
H       0.11525789     -0.39476661     10.31090815
H       0.85684386    -11.65028868     18.35672652
H       6.81176205      0.66439896     -3.61170020
H      -9.42675544     -2.95204824     23.99740376
H       4.34725348     15.16486320     22.65560149
H      16.42810230     13.05625062      6.73076283
H       3.24146984     -2.01731607     10.77263578
H      27.34947999      7.72515486     -1.91711422
H      -4.87137946      9.38443106     11.28440244
H      28.03965355      7.87353058     -1.58538466
H      -1.33286574     -1.82127538      6.00083567
H       8.68940080    -12.47777418      6.09435579
H       5.77087033     -6.93478881    -15.10632387
H       4.28217399     -1.92272776      9.33205296
C      -1.22227660     -0.85844676      6.71477653
C     -10.36016020    -12.21606716     16.66242232
C       2.31130214     -0.13781007      7.89523739
C       1.81006443     -1.19351757      8.97304050
C       7.48909891      0.64783960     -1.30419914
C       6.66395184     18.45793497     11.45808112
C       3.08491060     -2.10099924      9.55221336
C      -3.98275424      9.69650652     10.54219495
C       7.61212910     17.63174200     10.62863440
C      -6.19096922      7.45874985     -1.36098576
C      -3.98729887     -2.52627676     -6.86173932
C       6.08880932     -1.32299129     -2.45237375
C      16.70773323     -8.00741204     -6.84938988
C      -4.73106986      8.12716043     -1.31322454
C       8.19791905    -11.39595422      6.30756720
H       9.47303038     10.11809314     -1.39740062
H      -3.33931452    -13.97750389    -10.86003736
H      16.01309467     -9.00863483     -6.67406051
H      -9.29845674     -2.27982476     24.37164303
H      -9.75818431    -12.15916191     17.65669192
H      17.02756931      5.23439473     14.97323631
H       8.03926416      0.96977833     -0.33018594
H       5.04347153     15.37147220     22.94019443
H       5.93740672     19.09110150     12.09381668
H      -3.20960028     -3.14495891     -7.45444136
H      -4.06306153      9.44675959      9.37210117
H      -7.60795419     21.24264930      9.77839801
H       4.65923632     -3.25274630     -2.65003896
H      -1.22657013      0.11170728      6.00062995
H       7.79923519    -10.08105590      8.28500114
H       6.60192303     -3.54072299     -2.62032372
H      -7.74116572     21.25126849     10.54689030
   94

C       6.08703908     -7.29527070    -14.07305675
C      -3.57374992    -13.22379528    -10.05925381
H       6.76691247     -6.56789303    -13.40477906
C      -1.09346761     -0.85931577      8.33318683
H      -6.77307927      7.14591456     -2.36372521
H       3.03708483     -3.26244685      9.13516843
C       0.18329240     -1.17357331      9.35645381
H       5.75254912     -8.36433991    -13.64514121
H      -9.00643494     -6.97080454    -19.18219306
H      -8.99872512     -7.74019876    -19.05423558
C       7.19365289     -0.17226009     -2.72714357
H      17.20353543      4.48096293     15.07255291
C       8.64090376    -10.47698289      5.10415520
H       8.27487583     10.89498139     -2.77619081
H       8.92674112     -9.73751822      4.24769515
H       2.50422134    -10.90122674     17.33772367
C       7.25504233    -10.93778573      7.58554811
H       6.14052134    -10.54108558      7.23927854
C       7.52076190     11.12736671     -0.56538885
H       6.93737738    -11.76756349      8.43787030
H      16.75771151     13.70927588      6.45856135
H       6.95292702     11.73156125      0.26493478
C       8.29727029     10.29953364     -1.70285748
H      14.22941126     -4.20066627     -6.50671991
C      14.26102346     -5.40258464     -6.57959330
H      13.06907229     -5.49217465     -6.70926016
H       7.78445734      9.19735101     -1.87406939
H      -3.01274321     10.25935644     10.97881056
C      15.65399460     -6.34441714     -6.78180983
H      -2.20141201     -0.58009620      8.75726663
H      -6.85525559      7.17655921     -0.39873771
C       5.79591242     -2.94767423     -2.20387214
H      -0.15526642     -2.25635053      9.84268175
C       1.47814824    -10.71755145     17.93048251
H       5.61465223     -3.04754938     -0.99438703
H     -10.96216329    -12.27297989     15.66817980
H       1.07343937     -9.60110862     18.09689120
C      -5.26467375     -1.90017642     -6.31023695
H      -3.75229401      7.45352137     -1.15998180
C      -4.48378718      9.67521393     -1.25010837
H      -6.37702938     -1.64583515     -6.11879213
H      -4.50456655     10.66414290     -0.63640707
H      -0.34643640     18.15612303     -5.80697756
H      -1.08017099     18.28016147     -6.04074662
H      16.38985240     -5.56641221     -7.33073886
H      17.17561135     -8.24747883     -7.58224436
H      17.39708668     -7.89395239     -5.88402417
H       2.74408202      0.60554190      7.10412648
H       0.11611715     -0.39243795     10.31066469
H       0.85678923    -11.65032326     18.35683385
H       7.12278233      0.40523965     -3.76592170
H      -9.42675959     -2.95204626     23.99740743
H       4.34725055     15.16486736     22.65561065
H      16.42853525     13.05680645      6.73119032
H       3.24182210     -2.02459917     10.77275065
H      27.34984157      7.72539728     -1.91707806
H      -4.87033517      9.38539990     11.29282895
H      28.04001110      7.87374199     -1.58532651
H      -1.33154589     -1.82437854      6.00185124
H       8.68887391    -12.47878345      6.09599556
H       5.74171367     -6.95326470    -15.16927279
H       4.28035036     -1.92000293      9.32825908
C      -1.22161132     -0.86022816      6.71409898
C     -10.36018572    -12.21607417     16.66244837
C       2.31069281     -0.13598321      7.89763577
C       1.81021638     -1.19360575      8.97393575
C       8.15508741      0.32673575     -1.58438824
C       6.66393802     18.45796967     11.45811720
C       3.08440570     -2.10272405      9.55205778
C      -3.98169415      9.69746681     10.55063599
C       7.61212238     17.63178547     10.62867197
C      -6.19358678      7.45905078     -1.36114861
C      -3.99233495     -2.53803144     -6.87227544
C       6.33749709     -1.48544436     -2.58931484
C      16.45860947     -7.80611964     -6.68008807
C      -4.73346434      8.12639615     -1.30552916
C       8.19741724    -11.39702054      6.30950487
H       9.47304620     10.12229202     -1.39750630
H      -3.34563127    -13.99051210    -10.86020970
H      15.77301953     -8.81642342     -6.52695437
H      -9.29846023     -2.27982259     24.37164613
H      -9.75820814    -12.15916848     17.65671694
H      17.02769870      5.23441467     14.97359900
H       8.56678837      0.59750768     -0.52664734
H       5.04346814     15.37147693     22.94020430
H       5.93738285     19.09113141     12.09384547
H      -3.20232261     -3.14943517     -7.45615133
H      -4.06198326      9.44770246      9.38054515
H      -7.60794545     21.24263145      9.77839087
H       4.71453131     -3.29550705     -2.66504688
H      -1.22715788      0.10840165      5.99787370
H       7.79658695    -10.08087185      8.28714503
H       6.61614110     -3.74961819     -2.63386417
H      -7.74115766     21.25125221     10.54688302
   94

C       6.05802112     -7.31367140    -14.13557022
C      -3.58005614    -13.23672293    -10.05936573
H       6.73780523     -6.58607539    -13.46745761
C      -1.09252028     -0.85812961      8.33270297
H      -6.77421168      7.15157286     -2.36672155
H       3.03670664     -3.26486654      9.13715269
C       0.18357429     -1.17212057      9.35693780
H       5.72364649     -8.38270450    -13.70749887
H      -9.00655084     -6.97082352    -19.18227509
H      -8.99884222     -7.74021792    -19.05431857
C       7.64434830     -0.46734826     -2.87370142
H      17.20360721      4.48097509     15.07284548
C       8.64104361    -10.47860491      5.10554838
H       8.27434541     10.89612542     -2.77612664
H       8.92870470     -9.74121589      4.24795913
H       2.50419220    -10.90125184     17.33783233
C       7.25450487    -10.93848910      7.58719019
H       6.13996467    -10.54027378      7.24276737
C       7.52021345     11.12809968     -0.56516397
H       6.93910020    -11.77123177      8.43748894
H      16.75801291     13.70968962      6.45886230
H       6.95242287     11.73196352      0.26541650
C       8.29686568     10.30067977     -1.70280087
H      13.93398579     -3.97217403     -6.54683663
C      13.96055941     -5.17441845     -6.45936397
H      12.81092240     -5.33155778     -6.77305556
H       7.78417303      9.19845246     -1.87403760
H      -3.01168868     10.26034559     10.98726929
C      15.43630920     -6.11831693     -6.50064551
H      -2.20004577     -0.57657207      8.75626386
H      -6.86144090      7.17767940     -0.40110804
C       5.88257249     -3.01352370     -2.24293285
H      -0.15591522     -2.25394740      9.84456129
C       1.47811092    -10.71757224     17.93057541
H       5.66429164     -3.05822779     -1.03559164
H     -10.96218715    -12.27298716     15.66820512
H       1.07340363     -9.60112791     18.09697705
C      -5.27087854     -1.91388143     -6.32175673
H      -3.74919300      7.45715313     -1.17022816
C      -4.48982667      9.67441627     -1.23296907
H      -6.37698433     -1.64474093     -6.11507057
H      -4.50046452     10.68174420     -0.64982031
H      -0.34335040     18.16276490     -5.81011090
H      -1.07708433     18.28680319     -6.04388206
H      16.23327763     -5.34139651     -6.96048036
H      16.89808600     -8.01824951     -7.44454389
H      17.16600246     -7.75791983     -5.74632935
H       2.74131031      0.61038080      7.10782049
H       0.11716762     -0.39005373     10.31045007
H       0.85674675    -11.65034425     18.35691851
H       7.42101088      0.16811502     -3.85683819
H      -9.42676268     -2.95204442     23.99741207
H       4.34725026     15.16486728     22.65561124
H      16.42883847     13.05723421      6.73152691
H       3.24245830     -2.03174686     10.77255903
H      27.35021882      7.72565325     -1.91704486
H      -4.86930056      9.38639537     11.30128798
H      28.04038358      7.87396462     -1.58526878
H      -1.33038953     -1.82739690      6.00306557
H       8.68829200    -12.47947809      6.09736407
H       5.71274298     -6.97164030    -15.23178522
H       4.27868235     -1.91710423      9.32412649
C      -1.22104883     -0.86193697      6.71361640
C     -10.36020770    -12.21608076     16.66247253
C       2.31015098     -0.13397047      7.89990679
C       1.81049386     -1.19353707      8.97470881
C       8.85603443     -0.11575230     -1.89860512
C       6.66393119     18.45796842     11.45812350
C       3.08409954     -2.10429258      9.55163153
C      -3.98064637      9.69845673     10.55910773
C       7.61211247     17.63178461     10.62867526
C      -6.19636265      7.45945162     -1.36134361
C      -3.99728780     -2.54977858     -6.88284291
C       6.60043173     -1.64594446     -2.70565884
C      16.20751086     -7.60392964     -6.50880424
C      -4.73598392      8.12561663     -1.29787216
C       8.19684201    -11.39778034      6.31117217
H       9.47266699     10.12382334     -1.39734540
H      -3.35186263    -14.00342379    -10.86031518
H      15.53381961     -8.62634171     -6.39019240
H      -9.29846273     -2.27982054     24.37165020
H      -9.75822826    -12.15917441     17.65673994
H      17.02776657      5.23442461     14.97388140
H       9.04871890      0.22793099     -0.79286217
H       5.04346745     15.37147736     22.94020551
H       5.93737135     19.09112963     12.09384672
H      -3.19478029     -3.15358295     -7.45749673
H      -4.06092664      9.44868454      9.38901846
H      -7.60793600     21.24261777      9.77838516
H       4.76481305     -3.27866384     -2.67331346
H      -1.22797342      0.10520185      5.99537382
H       7.79389582    -10.08047228      8.28907683
H       6.59880664     -3.92649046     -2.63229503
H      -7.74114897     21.25123987     10.54687717
   94

C       6.02918762     -7.33189537    -14.19755212
C      -3.58621359    -13.24951239    -10.05938359
H       6.70888075     -6.60409697    -13.52958448
C      -1.09161054     -0.85696670      8.33239110
H      -6.77546393      7.15739051     -2.36976495
H       3.03643258     -3.26722774      9.13898372
C       0.18388312     -1.17068420      9.35751466
H       5.69492841     -8.40088939    -13.76931556
H      -9.00664047     -6.97083586    -19.18233179
H      -8.99893285     -7.74023038    -19.05437585
C       8.09082200     -0.81245594     -3.04479902
H      17.20362546      4.48096889     15.07304289
C       8.64097790    -10.47978856      5.10655763
H       8.27396669     10.89557079     -2.77603037
H       8.93021842     -9.74436933      4.24785096
H       2.50417099    -10.90126684     17.33791040
C       7.25392560    -10.93890979      7.58854289
H       6.13936269    -10.53917635      7.24599507
C       7.51987479     11.12759996     -0.56507410
H       6.94080313    -11.77462812      8.43679571
H      16.75821387     13.70995069      6.45907419
H       6.95226716     11.73161475      0.26551727
C       8.29650877     10.30014827     -1.70269300
H      13.68801409     -3.77226857     -6.64996439
C      13.66490059     -4.94715428     -6.37077484
H      12.59478534     -5.19211492     -6.86211315
H       7.78392554      9.19786420     -1.87388416
H      -3.01066110     10.26136809     10.99576697
C      15.19694804     -5.90573527     -6.18196133
H      -2.19870285     -0.57308727      8.75546754
H      -6.86776507      7.17879983     -0.40354934
C       5.97641662     -3.04870577     -2.27325796
H      -0.15648885     -2.25158035      9.84651449
C       1.47808395    -10.71758458     17.93064250
H       5.72559505     -3.02399720     -1.07110641
H     -10.96220566    -12.27299396     15.66822519
H       1.07337783     -9.60113924     18.09703964
C      -5.27709422     -1.92786545     -6.33349309
H      -3.74632571      7.46115719     -1.18076009
C      -4.49634987      9.67350933     -1.21388616
H      -6.37636999     -1.64361096     -6.11126004
H      -4.49614525     10.69966337     -0.66459984
H      -0.34024555     18.16939275     -5.81324342
H      -1.07397808     18.29343559     -6.04701660
H      16.05247369     -5.12914242     -6.52632848
H      16.61256204     -7.76118527     -7.31595014
H      16.93732505     -7.62177158     -5.62424747
H       2.73850695      0.61540363      7.11173822
H       0.11826396     -0.38771101     10.31034800
H       0.85671631    -11.65035696     18.35697948
H       7.73450348     -0.05897707     -3.89867927
H      -9.42676599     -2.95204350     23.99741855
H       4.34725236     15.16486631     22.65560921
H      16.42903441     13.05750256      6.73175015
H       3.24325105     -2.03888032     10.77223911
H      27.35054986      7.72589457     -1.91701587
H      -4.86829238      9.38742114     11.30978984
H      28.04071074      7.87417344     -1.58521746
H      -1.32935832     -1.83040434      6.00444791
H       8.68766724    -12.47976915      6.09836721
H       5.68396485     -6.98986297    -15.29377677
H       4.27707105     -1.91415424      9.31986614
C      -1.22060399     -0.86365544      6.71332018
C     -10.36022472    -12.21608693     16.66249167
C       2.30956164     -0.13186020      7.90228940
C       1.81078683     -1.19345572      8.97552871
C       9.44366328     -0.59558360     -2.19242122
C       6.66393320     18.45795040     11.45811376
C       3.08388748     -2.10582863      9.55111081
C      -3.97962860      9.69948354     10.56762082
C       7.61210591     17.63176239     10.62865996
C      -6.19929523      7.45994279     -1.36158034
C      -4.00198098     -2.56157994     -6.89334830
C       6.87465626     -1.81398452     -2.80798809
C      15.95307767     -7.39800115     -6.33667874
C      -4.73863651      8.12484379     -1.29033031
C       8.19620061    -11.39814889      6.31248496
H       9.47231046     10.12349285     -1.39712465
H      -3.35797811    -14.01620647    -10.86032736
H      15.30085699     -8.43860285     -6.26582241
H      -9.29846555     -2.27981946     24.37165623
H      -9.75824378    -12.15917996     17.65675815
H      17.02778088      5.23441597     14.97406718
H       9.55756628     -0.17243593     -1.09678399
H       5.04346939     15.37147663     22.94020369
H       5.93737138     19.09111318     12.09383315
H      -3.18680233     -3.15746088     -7.45835314
H      -4.05990923      9.44971369      9.39753162
H      -7.60792922     21.24261192      9.77838265
H       4.82874763     -3.20866603     -2.67827161
H      -1.22902269      0.10202346      5.99311618
H       7.79116972    -10.07981614      8.29073868
H       6.56463895     -4.06461798     -2.61562723
H      -7.74114283     21.25123491     10.54687453
   94

C       6.00061111     -7.34990268    -14.25892965
C      -3.59220574    -13.26215693    -10.05930259
H       6.68020647     -6.62192849    -13.59106827
C      -1.09077144     -0.85587907      8.33213978
H      -6.77677451      7.16332394     -2.37285949
H       3.03614794     -3.26960816      9.14078559
C       0.18411320     -1.16930848      9.35816722
H       5.66646390     -8.41886210    -13.83053770
H      -9.00670038     -6.97084158    -19.18235990
H      -8.99899359     -7.74023615    -19.05440418
C       8.48680410     -1.16193382     -3.20824200
H      17.20361783      4.48094510     15.07316765
C       8.64075249    -10.48053915      5.10717589
H       8.27383877     10.89436055     -2.77603142
H       8.93135854     -9.74698378      4.24737220
H       2.50415479    -10.90127782     17.33796277
C       7.25332955    -10.93907656      7.58959227
H       6.13873866    -10.53782605      7.24894905
C       7.51978572     11.12668920     -0.56515413
H       6.94251178    -11.77778849      8.43576940
H      16.75836395     13.71009224      6.45920890
H       6.95237427     11.73103435      0.26533410
C       8.29633245     10.29898888     -1.70266242
H      13.51522038     -3.61131170     -6.79290803
C      13.39149560     -4.72628725     -6.33936903
H      12.41594239     -5.06651922     -6.95675528
H       7.78380703      9.19667027     -1.87382058
H      -3.00966879     10.26242228     11.00429992
C      14.92404956     -5.71791725     -5.86356505
H      -2.19742360     -0.56966220      8.75472602
H      -6.87415869      7.17986535     -0.40606857
C       6.08739461     -3.05966235     -2.29830924
H      -0.15711487     -2.24929014      9.84851520
C       1.47806411    -10.71759418     17.93068797
H       5.81072286     -2.95459747     -1.10574694
H     -10.96221758    -12.27299945     15.66823708
H       1.07335865     -9.60114847     18.09708366
C      -5.28316045     -1.94214051     -6.34536057
H      -3.74364637      7.46555807     -1.19156622
C      -4.50335711      9.67246704     -1.19268368
H      -6.37502403     -1.64251079     -6.10735598
H      -4.49154824     10.71766974     -0.68087516
H      -0.33713256     18.17601968     -5.81638067
H      -1.07086362     18.30006863     -6.05015523
H      15.82706274     -4.94143659     -6.05952870
H      16.32967075     -7.48203029     -7.18657141
H      16.71030174     -7.46642674     -5.51260299
H       2.73552268      0.62059218      7.11597426
H       0.11927496     -0.38544866     10.31033505
H       0.85669430    -11.65036722     18.35702014
H       8.06539221     -0.29925529     -3.91966309
H      -9.42677052     -2.95204386     23.99742662
H       4.34725535     15.16486817     22.65561087
H      16.42917791     13.05764550      6.73188024
H       3.24403198     -2.04606816     10.77192287
H      27.35076125      7.72606906     -1.91699747
H      -4.86731660      9.38847132     11.31832845
H      28.04092024      7.87432341     -1.58518434
H      -1.32834593     -1.83345757      6.00585885
H       8.68703393    -12.47966320      6.09897862
H       5.65544690     -7.00789125    -15.35517331
H       4.27539871     -1.91123414      9.31565849
C      -1.22024358     -0.86544282      6.71308840
C     -10.36023606    -12.21609213     16.66250321
C       2.30885518     -0.12972833      7.90486223
C       1.81100481     -1.19343713      8.97645581
C       9.93621408     -1.08574070     -2.46541895
C       6.66394105     18.45793666     11.45810314
C       3.08364213     -2.10741000      9.55062289
C      -3.97864653      9.70054226     10.57616993
C       7.61210459     17.63174415     10.62864302
C      -6.20232226      7.46048628     -1.36186602
C      -4.00624909     -2.57346930     -6.90368437
C       7.15374675     -1.99393962     -2.89808687
C      15.69794551     -7.18806527     -6.16573109
C      -4.74137135      8.12408100     -1.28296848
C       8.19552340    -11.39813628      6.31342642
H       9.47211435     10.12235904     -1.39699411
H      -3.36396558    -14.02885421    -10.86024199
H      15.08133110     -8.25284994     -6.15117972
H      -9.29846976     -2.27981974     24.37166404
H      -9.75825448    -12.15918484     17.65676930
H      17.02777035      5.23439013     14.97418156
H      10.04413159     -0.60729845     -1.38671064
H       5.04347256     15.37147838     22.94020498
H       5.93737722     19.09110080     12.09381897
H      -3.17826596     -3.16111812     -7.45861446
H      -4.05893388      9.45078232      9.40607964
H      -7.60792716     21.24261439      9.77838350
H       4.92244156     -3.10158356     -2.68527941
H      -1.23022371      0.09879649      5.99096112
H       7.78842854    -10.07893794      8.29212797
H       6.53215463     -4.15973307     -2.58862075
H      -7.74114121     21.25123786     10.54687530
   94

C       5.97244795     -7.36761603    -14.31958097
C      -3.59804525    -13.27467973    -10.05914226
H       6.65193978     -6.63951321    -13.65176307
C      -1.08997511     -0.85487383      8.33181374
H      -6.77807584      7.16933817     -2.37600237
H       3.03581455     -3.27202568      9.14255930
C       0.18425734     -1.16799011      9.35880763
H       5.63839725     -8.43655582    -13.89107574
H      -9.00672942     -6.97084115    -19.18236078
H      -8.99902338     -7.74023573    -19.05440508
C       8.83855523     -1.50325115     -3.33920212
H      17.20360756      4.48090578     15.07324668
C       8.64045499    -10.48090330      5.10742336
H       8.27387931     10.89317433     -2.77616404
H       8.93229192     -9.74914780      4.24653342
H       2.50414204    -10.90128716     17.33799300
C       7.25276109    -10.93904032      7.59034266
H       6.13813463    -10.53628013      7.25163424
C       7.51984700     11.12587688     -0.56536689
H       6.94427088    -11.78076687      8.43441105
H      16.75850703     13.71016688      6.45929383
H       6.95259811     11.73053997      0.26500800
C       8.29629230     10.29787955     -1.70274710
H      13.40189212     -3.47422732     -6.92469619
C      13.15650527     -4.52046045     -6.36587094
H      12.25729592     -4.93799461     -7.04834688
H       7.78377272      9.19555441     -1.87390694
H      -3.00870638     10.26349735     11.01285740
C      14.62506760     -5.55166612     -5.58643834
H      -2.19618532     -0.56629426      8.75388340
H      -6.88055301      7.18083565     -0.40866838
C       6.21744389     -3.05568325     -2.32287610
H      -0.15781827     -2.24706451      9.85048434
C       1.47804947    -10.71760305     17.93071466
H       5.92047270     -2.86628828     -1.14526432
H     -10.96222281    -12.27300291     15.66824020
H       1.07334416     -9.60115750     18.09711137
C      -5.28902575     -1.95667360     -6.35730656
H      -3.74111668      7.47039746     -1.20261639
C      -4.51082300      9.67129929     -1.16930708
H      -6.37290123     -1.64147785     -6.10337680
H      -4.48663050     10.73542651     -0.69870940
H      -0.33401928     18.18265349     -5.81952493
H      -1.06774922     18.30670805     -6.05330008
H      15.55460446     -4.78175709     -5.63028871
H      16.06160545     -7.20580128     -7.04840798
H      16.48585377     -7.28194488     -5.39936145
H       2.73237255      0.62584040      7.12035965
H       0.12018077     -0.38325402     10.31031491
H       0.85667858    -11.65037697     18.35704316
H       8.40285826     -0.56014871     -3.93241890
H      -9.42677608     -2.95204536     23.99743497
H       4.34725801     15.16487409     22.65561863
H      16.42931615     13.05771814      6.73195454
H       3.24473435     -2.05331301     10.77160341
H      27.35081088      7.72613449     -1.91699367
H      -4.86636732      9.38953474     11.32689158
H      28.04097021      7.87437867     -1.58517673
H      -1.32723760     -1.83657905      6.00715343
H       8.68644468    -12.47920328      6.09920228
H       5.62733328     -7.02564632    -15.41584983
H       4.27362987     -1.90836437      9.31152042
C      -1.21989533     -0.86731790      6.71277934
C     -10.36024171    -12.21609572     16.66250660
C       2.30805718     -0.12762519      7.90751432
C       1.81114461     -1.19348132      8.97741878
C      10.35216641     -1.57978382     -2.69866893
C       6.66395075     18.45793774     11.45810023
C       3.08332231     -2.10905000      9.55015776
C      -3.97769321      9.70162009     10.58474335
C       7.61210719     17.63174276     10.62863408
C      -6.20537943      7.46106245     -1.36220117
C      -4.01006705     -2.58544438     -6.91383101
C       7.42841078     -2.18540106     -2.97361809
C      15.44730988     -6.97837294     -5.99924334
C      -4.74414042      8.12336552     -1.27582201
C       8.19486282    -11.39778606      6.31400452
H       9.47204562     10.12117652     -1.39699824
H      -3.36983203    -14.04138858    -10.86007844
H      14.87877563     -8.06957588     -6.03732773
H      -9.29847522     -2.27982126     24.37167240
H      -9.75826043    -12.15918851     17.65677289
H      17.02775858      5.23434955     14.97425365
H      10.47135268     -1.04682381     -1.64191846
H       5.04347570     15.37148387     22.94021187
H       5.93738354     19.09110189     12.09381228
H      -3.16921673     -3.16457425     -7.45830045
H      -4.05799038      9.45187394      9.41465137
H      -7.60792999     21.24262331      9.77838692
H       5.05101421     -2.97562376     -2.70181086
H      -1.23144795      0.09548681      5.98874409
H       7.78570933    -10.07788875      8.29325503
H       6.51241484     -4.21578642     -2.56009721
H      -7.74114426     21.25124697     10.54687868
   94

C       5.94486575     -7.38498127    -14.37941125
C      -3.60376383    -13.28711957    -10.05893228
H       6.62426989     -6.65682733    -13.71156016
C      -1.08915653     -0.85392956      8.33130884
H      -6.77929968      7.17541155     -2.37918020
H       3.03546445     -3.27446696      9.14422405
C       0.18437999     -1.16670380      9.35933382
H       5.61087499     -8.45392197    -13.95086193
H      -9.00673072     -6.97083611    -19.18234036
H      -8.99902536     -7.74023069    -19.05438459
C       9.16106075     -1.84727369     -3.43823034
H      17.20360321      4.48085083     15.07329334
C       8.64017964    -10.48094902      5.10733704
H       8.27399160     10.89221882     -2.77638159
H       8.93320734     -9.75099041      4.24535215
H       2.50413319    -10.90129361     17.33800156
C       7.25226431    -10.93884857      7.59080992
H       6.13759455    -10.53459023      7.25406282
C       7.51996574     11.12528524     -0.56564509
H       6.94612170    -11.78360699      8.43273881
H      16.75866112     13.71020900      6.45935177
H       6.95284221     11.73019530      0.26464399
C       8.29631701     10.29701228     -1.70291006
H      13.30171976     -3.32582240     -7.00371947
C      12.94996952     -4.32184620     -6.41030937
H      12.10652408     -4.79424533     -7.12653918
H       7.78377679      9.19469643     -1.87409740
H      -3.00775808     10.26457737     11.02142454
C      14.32427817     -5.38967796     -5.37443350
H      -2.19492489     -0.56296795      8.75283388
H      -6.88688515      7.18169673     -0.41134389
C       6.36448671     -3.04471552     -2.35158740
H      -0.15854541     -2.24486846      9.85233596
C       1.47804026    -10.71760967     17.93072257
H       6.05081871     -2.77193196     -1.19430829
H     -10.96222170    -12.27300368     15.66823538
H       1.07333465     -9.60116462     18.09712157
C      -5.29474350     -1.97139912     -6.36930865
H      -3.73871344      7.47573640     -1.21385354
C      -4.51868600      9.67007063     -1.14390999
H      -6.37006840     -1.64052687     -6.09936103
H      -4.48138631     10.75249606     -0.71803893
H      -0.33090894     18.18929466     -5.82267392
H      -1.06463812     18.31335369     -6.05644911
H      15.26668861     -4.63735404     -5.29628720
H      15.81201435     -6.95664958     -6.90407065
H      16.26186043     -7.07749362     -5.27715008
H       2.72917431      0.63101726      7.12462696
H       0.12104718     -0.38109332     10.31017879
H       0.85666936    -11.65038448     18.35704900
H       8.73902323     -0.84372628     -3.93683990
H      -9.42678136     -2.95204751     23.99744150
H       4.34726001     15.16488243     22.65563039
H      16.42946782     13.05775665      6.73200094
H       3.24538990     -2.06058595     10.77118489
H      27.35070823      7.72608681     -1.91700207
H      -4.86542977      9.39059829     11.33546384
H      28.04086979      7.87433622     -1.58519202
H      -1.32594690     -1.83976118      6.00823309
H       8.68594768    -12.47845129      6.09907061
H       5.59977423     -7.04307166    -15.47570638
H       4.27180464     -1.90553639      9.30735480
C      -1.21947764     -0.86926675      6.71228693
C     -10.36024175    -12.21609698     16.66250253
C       2.30725130     -0.12558083      7.91005850
C       1.81126658     -1.19355532      8.97829039
C      10.70465161     -2.09291778     -2.87962298
C       6.66395991     18.45795067     11.45810454
C       3.08296647     -2.11072952      9.54961872
C      -3.97675245      9.70270056     10.59332598
C       7.61211129     17.63175510     10.62863285
C      -6.20840576      7.46167986     -1.36257692
C      -4.01354127     -2.59748292     -6.92384051
C       7.69328459     -2.38512416     -3.03163838
C      15.20318251     -6.77427474     -5.84180577
C      -4.74690338      8.12277526     -1.26888217
C       8.19427159    -11.39715668      6.31424617
H       9.47204070     10.12020217     -1.39709560
H      -3.37559825    -14.05384529    -10.85986611
H      14.68721481     -7.88963855     -5.91761418
H      -9.29848058     -2.27982354     24.37167918
H      -9.75826152    -12.15919018     17.65676949
H      17.02775386      5.23429416     14.97429763
H      10.84179171     -1.46885410     -1.87060484
H       5.04347835     15.37149162     22.94022249
H       5.93738810     19.09111369     12.09381254
H      -3.15984862     -3.16783766     -7.45753005
H      -4.05705949      9.45296832      9.42323230
H      -7.60793588     21.24263487      9.77839133
H       5.21230667     -2.84573313     -2.73313445
H      -1.23256842      0.09209488      5.98633998
H       7.78305121    -10.07671097      8.29413319
H       6.50968271     -4.24063852     -2.53844239
H      -7.74115023     21.25125867     10.54688308
   94

C       5.91805853     -7.40196369    -14.43832729
C      -3.60939571    -13.29951085    -10.05869784
H       6.59744700     -6.67388631    -13.77036574
C      -1.08823219     -0.85301934      8.33055660
H      -6.78038037      7.18152804     -2.38236864
H       3.03517983     -3.27691039      9.14565473
C       0.18458414     -1.16542445      9.35965302
H       5.58405463     -8.47092643    -14.00982916
H      -9.00670973     -6.97082870    -19.18230576
H      -8.99900484     -7.74022325    -19.05434980
C       9.45990057     -2.20333388     -3.51626757
H      17.20359573      4.48077371     15.07329517
C       8.64000129    -10.48072888      5.10697626
H       8.27412770     10.89143869     -2.77660938
H       8.93425374     -9.75259191      4.24389014
H       2.50413053    -10.90129241     17.33798480
C       7.25186572    -10.93851933      7.59102429
H       6.13714851    -10.53277466      7.25625382
C       7.52009889     11.12482498     -0.56592219
H       6.94808380    -11.78631619      8.43079038
H      16.75881998     13.71021903      6.45939156
H       6.95307059     11.72992444      0.26430232
C       8.29637141     10.29631295     -1.70308769
H      13.17257391     -3.14045665     -7.00282712
C      12.73919539     -4.10739843     -6.41443452
H      11.95273320     -4.62960260     -7.16006033
H       7.78380562      9.19401082     -1.87431640
H      -3.00680366     10.26564513     11.02998470
C      14.04933731     -5.21349184     -5.21584253
H      -2.19355845     -0.55966935      8.75151842
H      -6.89309929      7.18246047     -0.41408116
C       6.52804456     -3.03161812     -2.38816491
H      -0.15919747     -2.24266950      9.85399271
C       1.47803872    -10.71760922     17.93070797
H       6.20270899     -2.67812823     -1.25550810
H     -10.96221384    -12.27300065     15.66822324
H       1.07333253     -9.60116468     18.09710895
C      -5.30038328     -1.98624379     -6.38134164
H      -3.73643005      7.48163855     -1.22519067
C      -4.52683782      9.66890237     -1.11693621
H      -6.36661985     -1.63967119     -6.09535074
H      -4.47586674     10.76837717     -0.73861259
H      -0.32780253     18.19593956     -5.82582235
H      -1.06153116     18.32000212     -6.05959742
H      15.00531957     -4.48976296     -5.05986427
H      15.57208050     -6.73355219     -6.76677605
H      16.03775316     -6.87072773     -5.15666574
H       2.72608922      0.63601295      7.12852244
H       0.12198567     -0.37893682     10.30983087
H       0.85666901    -11.65038458     18.35703492
H       9.07044405     -1.15086502     -3.93726568
H      -9.42678406     -2.95204967     23.99744332
H       4.34726199     15.16488941     22.65564081
H      16.42962594     13.05776122      6.73202681
H       3.24609814     -2.06785452     10.77052880
H      27.35049610      7.72595225     -1.91701643
H      -4.86448551      9.39164889     11.34402857
H      28.04066121      7.87421892     -1.58522131
H      -1.32440544     -1.84298493      6.00903928
H       8.68556772    -12.47746076      6.09864534
H       5.57293881     -7.06012645    -15.53464115
H       4.27001532     -1.90273611      9.30300597
C      -1.21890841     -0.87126536      6.71154342
C     -10.36023550    -12.21609464     16.66249141
C       2.30654732     -0.12361191      7.91230659
C       1.81146618     -1.19362462      8.97893552
C      10.99708033     -2.65396851     -3.02266549
C       6.66396850     18.45796319     11.45810941
C       3.08266798     -2.11242278      9.54886808
C      -3.97580434      9.70376689     10.60190135
C       7.61211519     17.63176712     10.62863241
C      -6.21134612      7.46237015     -1.36297549
C      -4.01679762     -2.60956109     -6.93376301
C       7.94551192     -2.58693500     -3.07668333
C      14.96475925     -6.57523775     -5.69883484
C      -4.74962766      8.12241336     -1.26208887
C       8.19378430    -11.39629437      6.31419898
H       9.47206643     10.11939033     -1.39721503
H      -3.38128815    -14.06625567    -10.85963016
H      14.49626560     -7.70952924     -5.79752885
H      -9.29848354     -2.27982591     24.37168147
H      -9.75825679    -12.15918850     17.65675933
H      17.02774694      5.23421737     14.97430107
H      11.18606827     -1.88901577     -2.11727216
H       5.04348095     15.37149804     22.94023178
H       5.93739193     19.09112507     12.09381323
H      -3.15036764     -3.17091963     -7.45641759
H      -4.05611886      9.45404547      9.43180648
H      -7.60794178     21.24264447      9.77839486
H       5.40249613     -2.72273118     -2.77901399
H      -1.23347521      0.08863649      5.98366992
H       7.78047976    -10.07541282      8.29478113
H       6.52834410     -4.24153675     -2.52909159
H      -7.74115620     21.25126859     10.54688659
   94

C       5.89223465     -7.41849364    -14.49619852
C      -3.61496947    -13.31187906    -10.05845548
H       6.57173490     -6.69067310    -13.82804566
C      -1.08712352     -0.85212814      8.32953036
H      -6.78127193      7.18767593     -2.38553389
H       3.03506129     -3.27934962      9.14672625
C       0.18497501     -1.16414333      9.35970424
H       5.55809816     -8.48750180    -14.06788495
H      -9.00666994     -6.97082063    -19.18226210
H      -8.99896521     -7.74021512    -19.05430580
C       9.72931075     -2.56705522     -3.59510145
H      17.20356904      4.48066033     15.07322369
C       8.64002461    -10.48005718      5.10622588
H       8.27425692     10.89081673     -2.77677930
H       8.93558055     -9.75374432      4.24205783
H       2.50414034    -10.90127639     17.33792964
C       7.25163817    -10.93796320      7.59088829
H       6.13686447    -10.53075026      7.25811758
C       7.52021625     11.12445376     -0.56613262
H       6.95023463    -11.78880674      8.42846936
H      16.75897474     13.71018787      6.45941897
H       6.95325429     11.72969186      0.26404301
C       8.29643181     10.29575463     -1.70321789
H      12.99611035     -2.92408630     -6.89690750
C      12.48998952     -3.86721052     -6.32482806
H      11.78861718     -4.45077785     -7.11041483
H       7.78383764      9.19346904     -1.87449291
H      -3.00582729     10.26668800     11.03852866
C      13.81521034     -5.01852889     -5.07136325
H      -2.19200528     -0.55639516      8.74992408
H      -6.89916191      7.18316497     -0.41685583
C       6.71081973     -3.02162199     -2.43294351
H      -0.15966745     -2.24045542      9.85540352
C       1.47805183    -10.71759480     17.93065912
H       6.38193214     -2.59122751     -1.32742209
H     -10.96219733    -12.27299237     15.66820336
H       1.07334476     -9.60115063     18.09706094
C      -5.30599018     -2.00114582     -6.39337034
H      -3.73428545      7.48815092     -1.23651353
C      -4.53513416      9.66796327     -1.08913855
H      -6.36263653     -1.63893495     -6.09138582
H      -4.47019660     10.78260127     -0.75996358
H      -0.32470235     18.20258977     -5.82896641
H      -1.05843056     18.32665470     -6.06274158
H      14.79001156     -4.33035599     -4.87320437
H      15.33062476     -6.51602252     -6.64955665
H      15.82203967     -6.67001337     -5.05805529
H       2.72325922      0.64076141      7.13188602
H       0.12311360     -0.37677494     10.30921026
H       0.85668497    -11.65036990     18.35699094
H       9.38344340     -1.47010257     -3.93777194
H      -9.42678137     -2.95205145     23.99743731
H       4.34726499     15.16489107     22.65564476
H      16.42978111     13.05772175      6.73203489
H       3.24698445     -2.07510961     10.76950404
H      27.35022043      7.72576109     -1.91703211
H      -4.86352016      9.39267705     11.35257662
H      28.04038967      7.87405299     -1.58525666
H      -1.32256994     -1.84623767      6.00955546
H       8.68536571    -12.47608322      6.09781755
H       5.54702116     -7.07672606    -15.59251550
H       4.26837155     -1.89996639      9.29832163
C      -1.21812375     -0.87329820      6.71052442
C     -10.36022074    -12.21608716     16.66247261
C       2.30604407     -0.12173115      7.91413055
C       1.81184148     -1.19367804      8.97925497
C      11.24459208     -3.22622055     -3.22511970
C       6.66397744     18.45796465     11.45810979
C       3.08253853     -2.11412224      9.54777639
C      -3.97483349      9.70480699     10.61046045
C       7.61211846     17.63176653     10.62862769
C      -6.21416780      7.46318312     -1.36337086
C      -4.01992909     -2.62166712     -6.94362180
C       8.18805115     -2.78721844     -3.11273829
C      14.73472551     -6.37480909     -5.57212992
C      -4.75229952      8.12238289     -1.25533118
C       8.19347614    -11.39503910      6.31373499
H       9.47209862     10.11872583     -1.39728740
H      -3.38692300    -14.07864283    -10.85938728
H      14.30427024     -7.52244639     -5.68871452
H      -9.29848133     -2.27982800     24.37167619
H      -9.75824375    -12.15918183     17.65674162
H      17.02772229      5.23410539     14.97423667
H      11.51594429     -2.37028538     -2.41728478
H       5.04348442     15.37149931     22.94023484
H       5.93739678     19.09112635     12.09380931
H      -3.14092448     -3.17383970     -7.45503165
H      -4.05515189      9.45509148      9.44036520
H      -7.60794556     21.24264905      9.77839656
H       5.61881225     -2.61621575     -2.83376594
H      -1.23409729      0.08512483      5.98070678
H       7.77805922    -10.07389936      8.29510164
H       6.57662564     -4.22734461     -2.53242145
H      -7.74116008     21.25127378     10.54688827
   94

C       5.86823752     -7.43463467    -14.55352040
C      -3.62032420    -13.32427898    -10.05820165
H       6.54822542     -6.70749975    -13.88507644
C      -1.08491812     -0.85107638      8.32752996
H      -6.78222869      7.19349441     -2.38938530
H       3.03629214     -3.28383609      9.15001519
C       0.18632589     -1.16258694      9.35904372
H       5.53362829     -8.50373206    -14.12574299
H      -9.00629938     -6.97077983    -19.18209263
H      -8.99858819     -7.74017383    -19.05413396
C      10.22159286     -3.21110177     -3.84263901
H      17.20343948      4.48035722     15.07276143
C       8.64179526    -10.47504093      5.10034017
H       8.27447946     10.89052470     -2.77694399
H       8.93906195     -9.75110488      4.23464937
H       2.50425844    -10.90118632     17.33758517
C       7.25285285    -10.93487363      7.58706796
H       6.13791235    -10.52473626      7.25847027
C       7.52044851     11.12441107     -0.56627838
H       6.95619192    -11.79176321      8.42027603
H      16.75911297     13.70993625      6.45933943
H       6.95347518     11.72968040      0.26387229
C       8.29655313     10.29554489     -1.70333216
H      12.58961622     -2.62915550     -6.48536052
C      11.89783256     -3.48531104     -5.95729946
H      11.41513686     -4.21087872     -6.79640486
H       7.78383237      9.19332947     -1.87470657
H      -3.00485582     10.26787246     11.04744923
C      13.22849166     -4.80080510     -4.59347166
H      -2.18916589     -0.55240277      8.74739818
H      -6.90726072      7.18428137     -0.41989274
C       7.15411671     -3.03539763     -2.56519403
H      -0.15959536     -2.23746132      9.85685632
C       1.47819573    -10.71751696     17.93036419
H       6.80832400     -2.51228419     -1.50117786
H     -10.96213609    -12.27297242     15.66815272
H       1.07348491     -9.60107587     18.09678088
C      -5.31253406     -2.01722353     -6.40648097
H      -3.72974483      7.49793556     -1.25014811
C      -4.54679388      9.66704008     -1.05629339
H      -6.35810754     -1.63775989     -6.08675402
H      -4.46143775     10.79674951     -0.78500295
H      -0.32163491     18.20951593     -5.83223244
H      -1.05536854     18.33356265     -6.06600022
H      14.18972186     -4.13372546     -4.28347587
H      14.84856385     -6.02376516     -6.37894372
H      15.41842931     -6.23983256     -4.84484444
H       2.71928583      0.64600844      7.13459223
H       0.12569203     -0.37395587     10.30760846
H       0.85684386    -11.65028868     18.35672652
H       9.92422432     -2.05240774     -4.01044646
H      -9.42675544     -2.95204824     23.99740376
H       4.34725348     15.16486320     22.65560149
H      16.42992407     13.05744912      6.73191092
H       3.24941005     -2.08755514     10.76754960
H      27.34947999      7.72515486     -1.91711422
H      -4.86258985      9.39383831     11.36150215
H      28.03965355      7.87353058     -1.58538466
H      -1.31931721     -1.85011694      6.00929812
H       8.68657387    -12.46989408      6.09212377
H       5.52285884     -7.09267220    -15.64974179
H       4.26600428     -1.89366665      9.28929200
C      -1.21673378     -0.87576261      6.70855955
C     -10.36016020    -12.21606716     16.66242232
C       2.30538748     -0.11930112      7.91587356
C       1.81315149     -1.19416248      8.97902152
C      11.78745015     -3.82176116     -4.34417944
C       6.66397886     18.45793911     11.45810788
C       3.08324913     -2.11678002      9.54574544
C      -3.97387557      9.70598162     10.61942456
C       7.61211738     17.63174020     10.62862279
C      -6.21824285      7.46384438     -1.36362545
C      -4.02298619     -2.63464398     -6.95422446
C       8.70249126     -3.13781268     -3.17614267
C      14.28080484     -5.99839545     -5.27550621
C      -4.75527504      8.12109816     -1.24737034
C       8.19447327    -11.38902542      6.30854072
H       9.47217008     10.11834505     -1.39729985
H      -3.39230070    -14.09101819    -10.85916374
H      14.00059818     -7.18135942     -5.47956639
H      -9.29845674     -2.27982476     24.37164303
H      -9.75818431    -12.15916191     17.65669192
H      17.02760508      5.23381033     14.97381401
H      12.09723606     -3.28169255     -3.29077334
H       5.04347153     15.37147220     22.94019443
H       5.93739142     19.09109916     12.09380153
H      -3.13027049     -3.17663130     -7.45297712
H      -4.05418021      9.45623708      9.44933666
H      -7.60795419     21.24264930      9.77839801
H       6.09386356     -2.53402120     -2.95418926
H      -1.23528375      0.08077477      5.97628262
H       7.77482194    -10.06896417      8.29232715
H       6.84389124     -4.21263551     -2.59900293
H      -7.74116572     21.25126849     10.54689030
