   94
energy=      0.00000000
C      -8.28641198     -5.21853503     -5.51129554
C      -7.15061863     -5.74068368     -4.50155146
H      -9.11524698     -4.83686190     -6.24907467
C      -9.80859784     -1.13990614      5.99666389
H     -18.89185999     -7.18329685     -1.80818867
H      -6.60535281     -4.80292263     -3.92672986
C      10.03479860     -5.13379435      7.47149902
H      -7.62554618     -6.48004941     -3.64428071
H      -7.29857073     -5.75426489    -16.93041859
H      -7.29085954     -6.52365889    -16.80245992
C       6.72453409      0.95769595      9.72550155
H       5.54242025      1.27080984      9.57818184
C       9.95931910     -5.92312916      6.14250635
H       6.56936687     -0.26856639      9.79213555
H      10.16643707     -5.03477619      5.35927846
H       1.55471582     -5.76579775     10.80100652
C       9.72243830     -7.54509354      5.97126738
H       8.71168449     -7.74507844      5.29122318
C       6.85020902      0.32707269     -3.62709585
H       9.24453407     -8.08142739      6.97498706
H       6.67918489      0.28919195     -4.84720518
H       7.18408322      1.49986463     -3.44944290
C       5.45550362     -0.14650936     -2.75624760
H       5.47125157     -1.30369150     -2.31560005
C       8.24122760     11.02644941    -16.67267276
H       4.49657668     -0.43473628     -3.48844473
H       7.59522090     11.83457643    -17.13205111
H      -0.88872725     13.61793246     12.14185689
C      12.37234461     -6.91729667    -13.67192055
H     -10.77510614     -0.82944631      5.44088593
H     -19.27118577     -7.16726916     -1.12682601
C      -9.29621238      4.95889644    -10.51509883
H     -10.79913078     -1.00711739      5.41303261
C       0.51886375     -5.59279049     11.40380652
H     -10.39618508      4.89733540    -10.25491754
H      -1.56612923     -6.59940550     11.41111989
H       0.38978094     -4.38882498     11.39489113
C       4.83128195      0.80777199     -1.53369122
H      -0.15263502      6.40628954      1.76825191
C      -0.95341518      6.40430528      2.70359553
H       3.87922307      1.55743617     -1.49094938
H      -0.85329757      7.45853384      3.33184666
H      -0.70945243      5.45649540      3.45076342
H      -2.09827403      6.29590465      2.26351763
H      11.94284700     -5.83658463    -13.37948360
H      12.89496904     -7.08642857    -14.73783995
H      12.27921780     -7.82887681    -12.89843808
H       8.35148854      2.16008375     13.16104838
H       6.24772417      4.45068484     13.01994331
H      -0.72621874     -7.84438439     12.27994258
H       8.84601084      1.31789655     10.73503530
H      -8.70101793     -4.16259184     22.46177845
H       6.51496950      7.26389535     11.35633315
H      -2.34996224     13.47531322     24.25258876
H       8.85215060      5.78360563     13.42513062
H      10.18379770     -0.66805310     -5.16251434
H      -2.64577676     12.68558867     11.84774575
H      18.55725102      0.44639989     -4.90682997
H       1.39558771      1.59097033    -13.44444704
H      11.23595082     -9.19036281      4.61477468
H      28.96170537     -1.67491366      0.07171208
H       9.25544992      5.35760710     11.66312437
C      -8.48942718     -1.43853912      6.76470153
C      -0.55223310     -6.64061067     12.11186568
C       7.48001832      2.49660037     12.35291955
C       7.32836405      4.16387841     12.53028104
C       7.68002019      1.62772229     10.92875280
C       7.59684941      6.98565504     11.81753057
C       8.25730261      5.55426653     12.36217889
C      -2.09086188     13.78156446     11.93157630
C      -1.83061114     14.43964326     23.85948924
C       9.87353138     -0.76632583     -3.97682155
C      18.58308924      0.95460257     -5.98361498
C      19.24340179      0.17749687     -7.13707198
C      28.88118573     -0.51898012     -0.03560767
C       8.35411546     -0.29672972     -3.65430810
C      11.08429152     -8.34372683      5.46305994
H      10.75696117     -0.12059497     -3.41986561
H      -6.28296660     -6.37016902     -5.09993142
H      -7.50515124     -1.66124492      7.33775761
H      -8.57271924     -3.49036836     22.83601772
H      -0.41005966     -6.49393606     13.32832941
H       7.09422898      1.20487213      8.57369600
H       6.56850340      1.91687225     12.94941501
H       8.02165889      8.11779392     11.75079531
H      -1.31126005     15.40397331     23.46638973
H       5.17771685      0.97443488     -0.38601056
H      10.03073710     -1.93649337     -3.64742100
H      -2.24273094     14.40017674     10.87783266
H      18.12735632      2.02946124     -6.21899519
H       1.33584196      2.36539214    -13.51587047
H      12.23280805     -8.24494924      5.82662927
H      28.80418247      0.63796056     -0.13430945
H      -2.58621258     14.42255999     12.85886993
   94
energy=      0.00000000
C      -8.28632556     -5.21847624     -5.51136218
C      -7.15053740     -5.74062806     -4.50161392
H      -9.11557283     -4.83708544     -6.24882395
C      -9.94931484     -1.10799089      5.91473768
H     -18.89185999     -7.18329685     -1.80818867
H      -6.60495792     -4.80307688     -3.92674748
C      10.04040973     -5.11894645      7.46517323
H      -7.62614383     -6.47991443     -3.64465130
H      -7.29857073     -5.75426489    -16.93041859
H      -7.29085954     -6.52365889    -16.80245992
C       6.73371994      1.03147854      9.75943074
H       5.55989814      1.39386719      9.66637110
C       9.95713201     -5.91704649      6.14176881
H       6.58634872     -0.19494535      9.82333480
H      10.12172780     -5.02359190      5.35455872
H       1.53351362     -5.83085622     10.81704188
C       9.73736552     -7.54166032      5.97106878
H       8.72744464     -7.73079839      5.28729799
C       4.86973771      1.72754947     -2.83046129
H       9.26630167     -8.08270524      6.97541990
H       4.80163882      1.79568636     -4.05488323
H       5.04059604      2.54568475     -3.73369440
C       4.52028629      0.05653075     -2.52975602
H       5.21745021     -0.96645803     -2.65593561
C       8.24133052     11.02659787    -16.67272651
H       4.02920994     -0.59587215     -3.45823713
H       7.59532382     11.83472489    -17.13210486
H      -0.88914472     13.61687685     12.12272325
C      12.37234461     -6.91729667    -13.67192055
H     -10.47467657     -0.06583539      5.67877578
H     -19.27118577     -7.16726916     -1.12682601
C      -9.29645936      4.95896142    -10.51503065
H     -10.71682842     -1.85742408      5.39797383
C       0.50672122     -5.59645565     11.41011981
H     -10.39643206      4.89740038    -10.25484936
H      -1.68749835     -6.56271496     11.58929553
H       0.48742234     -4.38842059     11.33894047
C       3.87675302     -0.18287143     -1.01568407
H       5.67405764      3.87265714     -1.44126971
C       3.96328662      3.31529170     -0.48154325
H       2.69590687     -0.06328757     -0.80160251
H       3.73353943      4.39339286      0.08140839
H       3.54067165      2.99435908      0.63941807
H       2.78413245      3.49645099     -0.84356901
H      11.94284700     -5.83658463    -13.37948360
H      12.89496904     -7.08642857    -14.73783995
H      12.27921780     -7.82887681    -12.89843808
H       8.31879890      2.09912369     13.25163918
H       6.17069632      4.41026966     12.89267045
H      -0.45130367     -7.85384272     12.11619842
H       8.90162650      1.49252528     10.68253738
H      -8.70101793     -4.16259184     22.46177845
H       6.54924999      7.23209961     11.26926302
H      -2.34926645     13.47707260     24.28447819
H       8.83924454      5.70924928     13.39145210
H       7.71522753      1.80543858     -2.36483388
H      -2.64619425     12.68453305     11.82861206
H      18.54992280      0.44742033     -4.91106469
H       1.39573177      1.59075688    -13.44446147
H      11.23802062     -9.17497491      4.58855267
H      28.97090236     -1.67643105      0.07609727
H       9.22121302      5.29759131     11.60952593
C      -8.61370621     -1.41036320      6.69234397
C      -0.57759903     -6.62835226     12.12454290
C       7.48774160      2.45870589     12.41082096
C       7.29452409      4.12521519     12.51245053
C       7.72232447      1.68306400     10.94243211
C       7.60316643      6.94425893     11.78621758
C       8.23856820      5.50143261     12.32859574
C      -2.09127935     13.78050884     11.91244264
C      -1.82991536     14.44140264     23.89137868
C       6.94356911      2.00756123     -1.41023713
C      18.57578614      0.95558225     -5.98787185
C      19.23607072      0.17857861     -7.14141271
C      28.89202853     -0.52001579     -0.02718812
C       5.31734196      2.68965874     -1.45603213
C      11.09143440     -8.35405626      5.46313197
H       8.04670291      2.36874692     -1.02520333
H      -6.28260564     -6.37004062     -5.09966482
H      -7.62288714     -1.63464033      7.26921031
H      -8.57271924     -3.49036836     22.83601772
H      -0.62314808     -6.46300505     13.34657281
H       7.05614522      1.25721100      8.58974112
H       6.61572788      1.84376548     13.03203424
H       8.03200671      8.07655684     11.77352867
H      -1.31056426     15.40573269     23.49827917
H       4.35949355     -0.38409433      0.08659683
H       7.32749767      0.92774185     -0.94212348
H      -2.24314842     14.39912108     10.85869898
H      18.12008332      2.03042956     -6.22335101
H       1.33598602      2.36517869    -13.51588489
H      12.23309733     -8.30075597      5.85646076
H      28.81337808      0.63646345     -0.12992607
H      -2.58663002     14.42150435     12.83973628
