   94
energy=      0.00000000
C       7.15036646     -6.80599302     -7.68810894
C       5.70666805     -7.63199350     -7.24760001
H       7.41400203     -5.97125988     -6.80295010
C       4.08449632     -0.81968071      5.04304242
H     -18.89185999     -7.18329685     -1.80818867
H       4.70080975     -7.03512677     -6.83584268
C       4.86638120     -1.54994451      6.39653528
H       5.75288483     -8.45823053     -6.32358972
H      -7.81523282     -6.27941550    -16.91792814
H      -7.80752163     -7.04880949    -16.78996947
C       9.23047881      1.90958589      6.58952917
H       9.87585637      1.21248492      7.37555114
C       7.26449257     -2.28450551      4.09402023
H       6.58200219      5.80272962     -4.82812071
H       7.38765877     -1.47756787      3.25346181
H       2.83409951     -8.29224691     13.31861254
C       5.67367711     -3.09617402      6.25033000
H       4.89945196     -4.06631386      6.23733755
C       5.52285317      7.82758628     -5.33498170
H       5.87147704     -3.85277584      7.21588796
H       6.34758905      8.60993567     -5.75493447
H       4.53912963      8.34172404     -5.81890951
C       5.68781764      6.50323443     -4.33105549
H      10.53873598      4.36474203    -14.23841508
C       9.88607237      4.01373365    -13.38452967
H       9.90939468      2.48111953      4.10346729
H       4.98953850      5.56916158     -4.75445879
H      -3.00408555     13.84794160     10.96389429
C       8.54666331     -7.64175557     -8.26034070
H       3.45934381      0.18379729      5.33687605
H     -19.27118577     -7.16726916     -1.12682601
C      -1.26532867     -8.37663124      0.61565823
H       3.73678287     -1.95795435      6.70758573
C       1.80558891     -8.16541615     13.91652165
H      -2.07633097     -8.84752802      1.30465513
H      -9.82222868    -11.96719384     15.58681129
H       1.47737999     -7.01882100     14.03589248
C      -3.95008077      0.02188454     -7.52418445
H       6.18888130      7.96416669     -2.47459248
C       4.14798222      6.99616394     -1.83525657
H      -4.45424840      0.92846253     -8.05155204
H       4.06300311      7.62807585     -0.77236762
H       3.52462314      5.97661329     -1.51042277
H       3.16320063      7.56806144     -2.32154107
H       8.82299195     -7.46313337     -9.45733726
H       8.44543023     -8.83795829     -8.56900561
H      10.39888243     -8.24979459     -6.49075896
H       5.58585210      2.03961968      7.63126140
H       4.49480647     -0.23025516      8.25474159
H       1.20918287     -9.12326420     14.32978414
H       7.12269502      1.74336009      5.46567507
H      -9.42675544     -2.95204824     23.99740376
H       4.78387451     13.79154262     17.27421690
H       3.36660044     13.38639644     20.35991739
H       6.04088872     -1.67938350     10.00116477
H      17.43837820      4.39965508      0.15020646
H      -4.76113507     12.91559780     10.66978309
H      18.12855176      4.54803080      0.48193601
H       4.04907202     -1.57897674      2.50518976
H       7.31591068     -4.39710217      4.72858570
H       6.90033920     -5.82966504     -8.42140149
H       7.52891367     -1.58267112      9.10914826
C       3.63891692     -0.84652343      3.40430288
C      -9.09079301    -11.93715460     16.49020722
C       6.33643694      1.05339118      7.58916356
C       5.54671495     -0.50378126      7.65326450
C       7.59255614      1.51977631      6.56263738
C       5.07507659     14.28618121     18.35941950
C       6.37460635     -1.26354621      8.90944010
C      -4.20622018     14.01157358     10.75361368
C       4.08810531     13.76579439     19.51585113
C       6.80682617      5.95873163     -1.78410575
C      11.44411760      1.32319971      4.78995737
C      10.08473820      1.95821336      5.17275936
C       9.96020269     -7.54771827     -7.37464303
C       5.66587231      6.84564625     -2.63847601
C       7.08087615     -3.32406176      5.30050392
H       7.89001577      6.24582471     -1.32201284
H       5.08869552     -8.28040628     -8.10550861
H       2.47220014     -1.16610091      3.14575752
H      -9.29845674     -2.27982476     24.37164303
H      -8.63067936    -11.85455575     17.55486564
H       9.47640485      2.97901749      7.16227828
H       6.67412316      1.56097781      8.67001913
H       6.24090124     13.98986681     18.60473867
H       5.01529453     15.50696154     18.24430293
H      -3.44591365     -0.88469376     -6.99681692
H       6.85526819      4.80361420     -1.42278333
H      -4.35808925     14.63018583      9.69987001
H      -0.45432640     -7.90573455     -0.07333875
H       3.86752165      0.17186049      2.73388314
H       8.22484814     -3.30716676      5.77286645
H      10.86623068     -6.74362805     -7.40456141
H      -4.70157084     14.65256910     11.68090732
   94
energy=      0.00000000
C       7.15017743     -6.80539434     -7.68906074
C       5.70773994     -7.63265730     -7.24683450
H       7.41383772     -5.96923340     -6.80524697
C       3.80670252     -1.04909194      4.90132175
H     -18.89185999     -7.18329685     -1.80818867
H       4.70213632     -7.03677362     -6.83306378
C       4.58739031     -1.78646874      6.24490248
H       5.75571904     -8.45936141     -6.32334522
H      -7.81523282     -6.27941550    -16.91792814
H      -7.80752163     -7.04880949    -16.78996947
C       8.76877861      1.53336146      6.13296009
H      14.01585003      6.01792577     10.72756143
C       7.06044829     -2.53092365      3.88637261
H       6.58298915      5.85774038     -4.85831488
H       7.23871325     -1.75872346      3.02088375
H       2.82035719     -8.53687346     13.57806579
C       5.38516845     -3.32785880      6.03723773
H       4.60229891     -4.28499431      5.91894804
C       5.51775691      7.86194117     -5.38361477
H       5.54572267     -4.08325454      7.01142467
H       6.33923719      8.63741778     -5.82212386
H       4.53843640      8.36957788     -5.88306833
C       5.68341477      6.55093729     -4.36128601
H      10.54966960      4.35859799    -14.26297634
C       9.89700599      4.00758961    -13.40909094
H       9.66437632      2.30003130      3.97394739
H       4.97503794      5.61816414     -4.77031259
H      -3.00408555     13.84794160     10.96389429
C       8.54669082     -7.64066111     -8.26143905
H       3.18818670     -0.03997135      5.19212132
H     -19.27118577     -7.16726916     -1.12682601
C      -1.51866549     -8.63375620      0.43502515
H       3.46359577     -2.18766121      6.58642155
C       1.79285249     -8.37802301     14.17329943
H      -2.32966778     -9.10465294      1.12402208
H      -9.97034981    -12.02712852     15.60339245
H       1.42066723     -7.24775990     14.31965463
C      -3.95008086      0.02188449     -7.52418446
H       6.19105106      8.00224143     -2.50341037
C       4.14714718      7.02421978     -1.86331413
H      -4.45424836      0.92846256     -8.05155204
H       4.05801911      7.64200489     -0.79259961
H       3.52334166      6.00229572     -1.54594522
H       3.16518431      7.59920051     -2.35149704
H       8.82392135     -7.46007198     -9.45791699
H       8.44595265     -8.83626064     -8.57265652
H      10.39202870     -8.24756378     -6.48453259
H       5.29382204      1.80148682      7.43802803
H       4.22305586     -0.47533540      8.12873919
H       1.18175430     -9.32143667     14.59430382
H       6.84442364      1.51641298      5.26067810
H      -9.42675544     -2.95204824     23.99740376
H       4.78385924     13.79171281     17.27412426
H       3.36678270     13.38625641     20.36001010
H       5.76728106     -1.92603764      9.84904636
H      18.06949782      4.47561687     -0.64462133
H      -4.76113507     12.91559780     10.66978309
H      18.75967138      4.62399260     -0.31289178
H       3.78071935     -1.87534087      2.40151219
H       7.02132822     -4.63031889      4.53373095
H       6.89862460     -5.82980168     -8.42278838
H       7.25925530     -1.81807446      8.94879997
C       3.36366604     -1.10830976      3.26739781
C      -9.30222126    -11.98348273     16.55487947
C       6.03431902      0.80856162      7.43590591
C       5.26338564     -0.75075289      7.50952133
C       7.22543734      1.23649854      6.36116042
C       5.07503143     14.28621610     18.35939653
C       6.10130642     -1.50768367      8.75866104
C      -4.20622018     14.01157358     10.75361368
C       4.08805888     13.76583130     19.51582798
C       6.80080637      5.98887486     -1.81142964
C      11.18429442      1.03774970      4.72873187
C       9.84011186      1.72173219      4.99756789
C       9.95902100     -7.54856483     -7.37364680
C       5.66600181      6.88414487     -2.66663716
C       6.80355078     -3.55073983      5.10079352
H       7.88480345      6.26328250     -1.34384071
H       5.08911253     -8.28100524     -8.10432520
H       2.19495693     -1.42675812      3.01699010
H      -9.29845674     -2.27982476     24.37164303
H      -8.76948275    -11.91360962     17.58683669
H      13.84001574      6.77137901     10.62861420
H       6.45542525      1.34847728      8.46991952
H       6.24074480     13.98974737     18.60505779
H       5.01537555     15.50697903     18.24402985
H      -3.44591361     -0.88469374     -6.99681691
H       6.84387084      4.83340778     -1.45003024
H      -4.35808925     14.63018583      9.69987001
H      -0.70766323     -8.16285954     -0.25397186
H       3.59976774     -0.09561603      2.59235038
H       7.93071861     -3.54056357      5.61031871
H      10.86920503     -6.74931383     -7.40679178
H      -4.70157084     14.65256910     11.68090732
