   94
energy=      0.00000000
C       5.86823752     -7.43463467    -14.55352040
C      -3.62032420    -13.32427898    -10.05820165
H       6.54822542     -6.70749975    -13.88507644
C      -1.08491812     -0.85107638      8.32752996
H      -6.78222869      7.19349441     -2.38938530
H       3.03629214     -3.28383609      9.15001519
C       0.18632589     -1.16258694      9.35904372
H       5.53362829     -8.50373206    -14.12574299
H      -9.00629938     -6.97077983    -19.18209263
H      -8.99858819     -7.74017383    -19.05413396
C      10.22159286     -3.21110177     -3.84263901
H      17.20343948      4.48035722     15.07276143
C       8.64179526    -10.47504093      5.10034017
H       8.27447946     10.89052470     -2.77694399
H       8.93906195     -9.75110488      4.23464937
H       2.50425844    -10.90118632     17.33758517
C       7.25285285    -10.93487363      7.58706796
H       6.13791235    -10.52473626      7.25847027
C       7.52044851     11.12441107     -0.56627838
H       6.95619192    -11.79176321      8.42027603
H      16.75911297     13.70993625      6.45933943
H       6.95347518     11.72968040      0.26387229
C       8.29655313     10.29554489     -1.70333216
H      12.58961622     -2.62915550     -6.48536052
C      11.89783256     -3.48531104     -5.95729946
H      11.41513686     -4.21087872     -6.79640486
H       7.78383237      9.19332947     -1.87470657
H      -3.00485582     10.26787246     11.04744923
C      13.22849166     -4.80080510     -4.59347166
H      -2.18916589     -0.55240277      8.74739818
H      -6.90726072      7.18428137     -0.41989274
C       7.15411671     -3.03539763     -2.56519403
H      -0.15959536     -2.23746132      9.85685632
C       1.47819573    -10.71751696     17.93036419
H       6.80832400     -2.51228419     -1.50117786
H     -10.96213609    -12.27297242     15.66815272
H       1.07348491     -9.60107587     18.09678088
C      -5.31253406     -2.01722353     -6.40648097
H      -3.72974483      7.49793556     -1.25014811
C      -4.54679388      9.66704008     -1.05629339
H      -6.35810754     -1.63775989     -6.08675402
H      -4.46143775     10.79674951     -0.78500295
H      -0.32163491     18.20951593     -5.83223244
H      -1.05536854     18.33356265     -6.06600022
H      14.18972186     -4.13372546     -4.28347587
H      14.84856385     -6.02376516     -6.37894372
H      15.41842931     -6.23983256     -4.84484444
H       2.71928583      0.64600844      7.13459223
H       0.12569203     -0.37395587     10.30760846
H       0.85684386    -11.65028868     18.35672652
H       9.92422432     -2.05240774     -4.01044646
H      -9.42675544     -2.95204824     23.99740376
H       4.34725348     15.16486320     22.65560149
H      16.42992407     13.05744912      6.73191092
H       3.24941005     -2.08755514     10.76754960
H      27.34947999      7.72515486     -1.91711422
H      -4.86258985      9.39383831     11.36150215
H      28.03965355      7.87353058     -1.58538466
H      -1.31931721     -1.85011694      6.00929812
H       8.68657387    -12.46989408      6.09212377
H       5.52285884     -7.09267220    -15.64974179
H       4.26600428     -1.89366665      9.28929200
C      -1.21673378     -0.87576261      6.70855955
C     -10.36016020    -12.21606716     16.66242232
C       2.30538748     -0.11930112      7.91587356
C       1.81315149     -1.19416248      8.97902152
C      11.78745015     -3.82176116     -4.34417944
C       6.66397886     18.45793911     11.45810788
C       3.08324913     -2.11678002      9.54574544
C      -3.97387557      9.70598162     10.61942456
C       7.61211738     17.63174020     10.62862279
C      -6.21824285      7.46384438     -1.36362545
C      -4.02298619     -2.63464398     -6.95422446
C       8.70249126     -3.13781268     -3.17614267
C      14.28080484     -5.99839545     -5.27550621
C      -4.75527504      8.12109816     -1.24737034
C       8.19447327    -11.38902542      6.30854072
H       9.47217008     10.11834505     -1.39729985
H      -3.39230070    -14.09101819    -10.85916374
H      14.00059818     -7.18135942     -5.47956639
H      -9.29845674     -2.27982476     24.37164303
H      -9.75818431    -12.15916191     17.65669192
H      17.02760508      5.23381033     14.97381401
H      12.09723606     -3.28169255     -3.29077334
H       5.04347153     15.37147220     22.94019443
H       5.93739142     19.09109916     12.09380153
H      -3.13027049     -3.17663130     -7.45297712
H      -4.05418021      9.45623708      9.44933666
H      -7.60795419     21.24264930      9.77839801
H       6.09386356     -2.53402120     -2.95418926
H      -1.23528375      0.08077477      5.97628262
H       7.77482194    -10.06896417      8.29232715
H       6.84389124     -4.21263551     -2.59900293
H      -7.74116572     21.25126849     10.54689030
   94
energy=      0.00000000
C       5.86821323     -7.43465020    -14.55356690
C      -3.62031425    -13.32437303    -10.05823260
H       6.54820113     -6.70751528    -13.88512293
C      -1.07877379     -0.84417422      8.32476388
H      -6.77494903      7.20492668     -2.39241444
H       3.02813580     -3.29240376      9.13721703
C       0.18700196     -1.15334958      9.36382602
H       5.53360401     -8.50374759    -14.12578948
H      -9.00629938     -6.97077983    -19.18209263
H      -8.99858819     -7.74017383    -19.05413396
C      10.14890146     -2.39389442     -4.09568261
H      17.20343948      4.48035722     15.07276143
C       8.64212853    -10.47372135      5.09930130
H       8.27447595     10.89040017     -2.77703555
H       8.94600834     -9.75865998      4.22855525
H       2.50425844    -10.90118632     17.33758517
C       7.25169396    -10.93446405      7.58873602
H       6.13600478    -10.52161501      7.26625763
C       7.52041548     11.12441164     -0.56630135
H       6.96217298    -11.79971891      8.41590137
H      16.75911297     13.70993625      6.45933943
H       6.95360071     11.72967848      0.26395939
C       8.29652188     10.29554537     -1.70335385
H      12.47188030     -2.35217280     -6.82900237
C      11.67581991     -3.01167669     -6.21956785
H      11.16457926     -3.72309879     -7.05815301
H       7.78384108      9.19332922     -1.87484320
H      -3.00484610     10.26787996     11.04749857
C      11.87462478     -5.03429882     -3.82781967
H      -2.17936360     -0.52564831      8.73917672
H      -6.91753788      7.15955958     -0.42613748
C       8.92434176     -4.01971753     -3.06327343
H      -0.16449934     -2.22152517      9.87186995
C       1.47819573    -10.71751696     17.93036419
H       8.66139480     -3.52252964     -1.95151639
H     -10.96213609    -12.27297242     15.66815272
H       1.07348491     -9.60107587     18.09678088
C      -5.33370374     -2.03989297     -6.43111226
H      -3.73231387      7.50449605     -1.26652661
C      -4.55101640      9.66517144     -1.01753025
H      -6.34333801     -1.61275979     -6.05994029
H      -4.44405451     10.80890976     -0.82331897
H      -0.32161634     18.20955584     -5.83225133
H      -1.05534996     18.33360255     -6.06601911
H      12.44429673     -4.99111520     -2.76023052
H      13.73211222     -5.66005564     -5.73776205
H      14.31594595     -5.92229442     -4.32021697
H       2.70589514      0.68164890      7.16373084
H       0.12983767     -0.36182804     10.31022741
H       0.85684386    -11.65028868     18.35672652
H       9.68385293     -1.27623090     -4.20437693
H      -9.42675544     -2.95204824     23.99740376
H       4.34725348     15.16486320     22.65560149
H      16.42992407     13.05744912      6.73191092
H       3.25089928     -2.12290215     10.75727232
H      27.34947999      7.72515486     -1.91711422
H      -4.86258770      9.39384225     11.36155288
H      28.03965355      7.87353058     -1.58538466
H      -1.30715360     -1.87810469      6.02069714
H       8.68517547    -12.46554859      6.09056792
H       5.52283456     -7.09268773    -15.64978828
H       4.25813088     -1.89283173      9.26960028
C      -1.21034157     -0.89346304      6.70615089
C     -10.36016020    -12.21606716     16.66242232
C       2.30262060     -0.10092628      7.93334945
C       1.81314370     -1.19073201      8.98259313
C      11.47421399     -2.91243496     -4.58802600
C       6.66398410     18.45793991     11.45811307
C       3.07954927     -2.12655900      9.53581755
C      -3.97386918      9.70598879     10.61948146
C       7.61211510     17.63173985     10.62862054
C      -6.22052978      7.45985594     -1.35750500
C      -4.04288293     -2.65584605     -6.97787384
C      10.52239637     -3.93162351     -3.76493804
C      13.12798209     -5.87607963     -4.67775817
C      -4.76066692      8.12179727     -1.22826574
C       8.19286055    -11.38515400      6.30861428
H       9.47210364     10.11847069     -1.39711409
H      -3.39229076    -14.09111223    -10.85919470
H      12.94256636     -7.05342251     -4.99512953
H      -9.29845674     -2.27982476     24.37164303
H      -9.75818431    -12.15916191     17.65669192
H      17.02760508      5.23381033     14.97381401
H      12.28761015     -2.30375791     -3.86970487
H       5.04347153     15.37147220     22.94019443
H       5.93738845     19.09109871     12.09379859
H      -3.10397080     -3.15795078     -7.43164445
H      -4.05417369      9.45624436      9.44939385
H      -7.60795419     21.24264930      9.77839801
H       7.85523204     -3.51466167     -3.45821791
H      -1.23529826      0.05091809      5.95837388
H       7.76763886    -10.06652083      8.29586164
H       8.19473152     -5.00321565     -2.95705581
H      -7.74116572     21.25126849     10.54689030
