   47
energy=      0.00000000
C      -1.82455659      0.05563908      1.08885127
C      -0.29795799      0.03988770      1.07229269
H      -2.18338584      0.84577224      0.42479117
C      -2.38528711      0.28349607      2.49041561
H      -2.19899854     -0.89478195      0.70093523
H       0.07712662      0.99003514      1.46016018
C       0.25553088     -0.18535606     -0.33258204
H       0.06274259     -0.75110522      1.73416764
H      -0.11107624      0.60310622     -0.99436210
H      -0.11711800     -1.13744780     -0.71811055
C       1.78200613     -0.19448762     -0.35938292
H       2.15576360      0.75751470      0.02518204
C       2.32625646     -0.41865855     -1.76808296
H       2.15057258     -0.98347794      0.30054732
H       1.95371119      0.36919078     -2.42728453
H       1.95246257     -1.37138207     -2.15098137
C       3.85247501     -0.42550842     -1.80552507
H       4.22749883      0.52714115     -1.42373723
C       4.38780175     -0.64947672     -3.21776997
H       4.22659847     -1.21380450     -1.14784052
H       4.01176205      0.13885832     -3.87451659
H       4.01101894     -1.60186351     -3.59879150
C       5.91367530     -0.65730650     -3.26327583
H       6.29131316      0.29487574     -2.88274933
C       6.44481889     -0.88043454     -4.67724625
H       6.29056688     -1.44652927     -2.60819174
H       6.06864010     -0.09070261     -5.33183194
H       6.06653209     -1.83212398     -5.05784299
C       7.96790278     -0.88875205     -4.71832351
H      -2.00692901      1.23139540      2.88069138
H      -2.03264574     -0.50973423      3.15400844
C      -3.91187811      0.30796641      2.49927137
H      -4.26313145      1.10035924      1.83374205
C      -4.47674129      0.53855969      3.89864446
H      -4.28998202     -0.64022411      2.10924925
H      -4.09590375      1.48506537      4.29003384
H      -4.12981660     -0.25613507      4.56359423
C      -6.00320255      0.56960804      3.90513421
H      -6.34993717      1.36421121      3.24026685
C      -6.56103124      0.80119674      5.30399242
H      -6.38442385     -0.37684679      3.51457313
H      -6.20768421      1.74956755      5.70327920
H      -6.24334536      0.00800549      5.97748900
H      -7.64835368      0.82056013      5.28543266
H       8.36434629      0.05928949     -4.36094096
H       8.32359065     -1.04844091     -5.73370549
H       8.36219369     -1.68282149     -4.08772024
   47
energy=      0.00000000
C      -1.90008181      0.12168567      1.07140232
C      -0.20463896      0.05616921      1.06833728
H      -2.39670982      0.90878169      0.22916201
C      -2.50203780      0.40894720      2.63303598
H      -2.39389107     -0.88288011      0.50471060
H       0.31586556      1.05682041      1.62139864
C       0.38591136     -0.21966666     -0.49347253
H       0.27346116     -0.75806945      1.89776870
H      -0.09825674      0.56970308     -1.34275394
H      -0.10926889     -1.24035612     -1.03519077
C       2.07911704     -0.22767492     -0.48030208
H       2.58129866      0.78012299      0.07806615
C       2.64622751     -0.47696374     -2.05616648
H       2.57114018     -1.01992676      0.36255091
H       2.14335801      0.32118381     -2.88630280
H       2.14188726     -1.49294529     -2.59702986
C       4.34081641     -0.48042751     -2.09153508
H       4.83228639      0.52905938     -1.52879002
C       4.93071924     -0.72943923     -3.66847232
H       4.83303542     -1.26551936     -1.24388427
H       4.41523795      0.06389387     -4.49197026
H       4.41524582     -1.73798448     -4.20728518
C       6.63055087     -0.74712952     -3.78008894
H       7.11206663      0.26356786     -3.21790100
C       7.31066706     -0.99196393     -5.33281994
H       7.11133646     -1.53596227     -2.93393338
H       6.83935070     -0.24287759     -6.21742579
H       6.83745733     -1.97502123     -5.94556127
C       9.01613037     -0.99947218     -5.36578112
H      -2.20047460      1.50635694      3.15991555
H      -1.85494402     -0.18526943      3.51760508
C      -4.14919149      0.06065059      2.71868533
H      -4.80618237      0.97198317      2.19479511
C      -4.29041876     -0.52815215      4.21441112
H      -4.85749819     -0.75099626      2.11003300
H      -6.59906265      1.94457540      4.75350432
H      -4.17064727     -0.88830178      5.33007600
C      -7.62420512      1.25696398      4.84659853
H      -8.11361155      1.87210915      3.89532373
C      -8.06881268      1.10945150      6.48052730
H      -7.73916567      0.18265887      4.23330050
H      -7.77029233      2.02959298      7.25354214
H      -7.63937345      0.17360500      7.17347863
H      -9.28621296      1.00764270      6.66998263
H       9.62312071      0.02535990     -5.01564517
H       9.57176958     -1.17045925     -6.45157883
H       9.62044169     -1.86952612     -4.71837052
