   94
energy=      0.00000000
C     -11.92916030     -2.50664664     -4.38067882
C     -10.43352861     -2.86965864     -3.61161289
H     -11.73078066     -1.86476399     -5.43264152
C     -13.24635299     -1.82914042     -3.50540256
H     -12.31559029     -3.47993890     -5.05968131
H      -9.75803826     -1.94521547     -3.13516310
C       8.78095586     -2.26243855      8.26828712
H     -10.41238050     -3.65260794     -2.65048078
H      -7.19112992     -5.48015878    -16.76657874
H      -7.18341873     -6.24955277    -16.63862007
C       0.26667553    -10.63947967     -4.90345104
H      -0.16402431     -9.60523055     -5.21811217
C       8.47925059     -2.82799451      6.82666926
H       0.69737231    -11.67373136     -4.58879419
H       9.19311638     -2.06358623      6.17765776
H       7.43571422     -2.20619054      6.61781543
C       8.56052649     -4.51937327      6.65635136
H       7.63162870     -4.93915876      5.95139805
C       7.43402709      0.61075011     -4.35145227
H       8.21350068     -5.10927532      7.68956915
H       7.41857731      0.91580215     -5.54400783
H       7.70500243      1.69500967     -3.82929008
C       5.94104355     -0.06524576     -3.89929628
H       5.61655752      0.00933052     -2.71026378
C       5.86219405      8.55305390    -15.05905752
H       5.82092234     -1.28817129     -4.02071862
H       5.21618735      9.36118092    -15.51843587
H      -0.82079082     12.19164813     11.23290677
C      12.36127508     -6.81242321    -13.53382142
H     -13.11158059     -0.72108302     -2.96531494
H     -13.73711089     -2.45951166     -2.55708440
C      -2.18946281      2.06905159     -9.22785801
H     -14.32767270     -1.57223345     -4.05480151
C      -2.48125992     -5.56895598     12.50643611
H      -3.35506719      2.00405363     -8.95223684
H      -1.10731694     -5.70952994     10.60820828
H      -3.45754388     -5.19421385     13.03878732
C       4.59944053      0.48792226     -4.62091693
H      -2.74889620      2.90049501      2.85972637
C      -3.54966944      2.89849983      3.79507618
H       3.63372928      0.90924032     -5.14795025
H      -3.44952955      3.95272596      4.42332796
H      -3.30572828      1.95069677      4.54225962
H      -4.69452374      2.79008159      3.35499078
H      11.93177746     -5.73171119    -13.24138442
H      12.88389950     -6.98155502    -14.59974085
H      12.26814820     -7.72400326    -12.76033886
H       8.99598656      5.85778575     16.58912134
H       7.30950691      4.38125062     14.23544894
H      -1.08078027     -7.30818564     11.78221425
H      11.06499272      3.26767265     16.22335891
H      -8.70101793     -4.16259184     22.46177845
H       6.73792497      6.00004335     11.13873982
H      -2.36482218     13.37380068     23.24947433
H       9.97912478      5.60347743     12.47256103
H      10.14949927     -0.75774667     -5.96356500
H      -2.57782584     11.25931802     10.93885777
H      12.48609429     -0.26776269     -3.39019348
H      -1.51880915      1.07625915     -9.27311621
H      10.09263929     -6.36424623      5.54805905
H      25.95114173     -1.25922372     -0.91414506
H       9.08403164      4.18192346     12.10125455
C      17.30322965     -4.04092092     16.91429424
C      -1.14437358     -6.08219101     11.77734521
C       9.04342922      4.90262286     15.79526900
C       8.26014124      5.18559096     14.28004202
C      10.61208878      4.36675741     15.99130941
C       7.87967902      6.12304278     11.53031497
C       8.79923443      5.26455461     12.64184961
C      -2.02292725     12.35530458     11.02265549
C      -1.84547127     14.33813067     22.85637445
C      10.33895754     -0.70639396     -4.74811471
C      11.88055784     -0.07319152     -4.44350570
C      13.00599442     -0.59459438     -5.42264400
C      25.65424051     -0.29178792     -1.55745192
C       8.90728857     -0.08375675     -4.28301249
C       9.93152383     -5.32847395      6.15511695
H      25.20112132     -0.42093169     -2.66014452
H      -9.50254372     -3.41150412     -4.22541972
H      16.35524265     -3.75935048     17.46515407
H      -8.57271924     -3.49036836     22.83601772
H      -0.14109852     -5.65266885     12.33955563
H      11.66595681      4.96289929     16.00803316
H       8.40137972      4.16693659     16.56506751
H       8.09460245      7.11495595     10.86929456
H      -1.32611999     15.30246077     22.46327531
H       7.65506949      6.25546351     14.46781595
H      10.18291919     -1.88455066     -4.41787289
H      -2.17478202     12.97394826      9.96892823
H      12.06825388      1.14238573     -4.49556957
H      -1.67789149      3.12775941     -9.46215579
H      11.11247724     -5.11802100      6.30170690
H      25.81045847      0.80479166     -1.09806617
H      -2.51831033     12.99630389     11.94992920
   94
energy=      0.00000000
C      -8.77971982     -4.51273311     -4.36876665
C      -7.58551343     -5.00101279     -3.41198271
H      -9.34572949     -4.01027195     -5.26551899
C     -18.81442294     -0.21206250     -3.19761345
H     -18.15618962     -0.93996628     -3.94720271
H      -7.07248299     -4.00995723     -2.90178183
C       8.84726163     -2.38220602      8.32807774
H      -7.86954266     -5.76627118     -2.49450363
H      -7.19121615     -5.48029547    -16.76670738
H      -7.18350496     -6.24968946    -16.63874871
C       1.72028799    -11.73038732     -5.08069549
H       1.28958925    -10.69613727     -5.39535507
C       8.51778849     -2.95530231      6.89557454
H       2.15098588    -12.76463809     -4.76603709
H       9.23378551     -2.20999932      6.22705826
H       7.47900427     -2.32523165      6.68988757
C       8.58069446     -4.64741400      6.73493467
H       7.65350139     -5.06209182      6.02429192
C       7.48721411      0.67707678     -4.42792551
H       8.22151856     -5.24425664      7.76122315
H       7.45579692      1.06405617     -5.59732332
H       7.76643744      1.72769034     -3.84490859
C       6.02332725     -0.03863911     -3.94327745
H       5.73137378      0.00074942     -2.74377996
C       6.77340498      9.34954477    -15.74976683
H       5.91418965     -1.26261389     -4.05864717
H       6.12739829     10.15767179    -16.20914518
H      -0.78905683     12.40473109     11.33158322
C      12.38100449     -6.84827836    -13.58138237
H     -18.29692305      0.82588878     -2.78806934
H     -19.07195165     -0.84189123     -2.17321065
C      -1.53146274      3.00200945    -10.14624131
H     -19.80193677      0.16394440     -3.82587933
C      -2.52954761     -5.57714852     12.53099213
H      -2.69678092      2.93703264     -9.87068233
H      -1.15558742     -5.71774236     10.63275872
H      -3.50581062     -5.20238822     13.06336896
C       4.66544280      0.50189354     -4.64174860
H      -2.52219618      3.03187521      3.08985860
C      -3.32297399      3.02989044      4.02520452
H       3.70222462      0.92150205     -5.17390483
H      -3.22284586      4.08411855      4.65345486
H      -3.07902304      2.08208479      4.77238148
H      -4.46783087      2.92148322      3.58512315
H      11.95150688     -5.76756633    -13.28894542
H      12.90362892     -7.01741024    -14.64730179
H      12.28787766     -7.75985849    -12.80789989
H       9.00707412      5.91003933     16.63520084
H       7.27629461      4.44359037     14.29311094
H      -1.12905274     -7.31637729     11.80675001
H      11.06422067      3.30580740     16.18287801
H      -8.70101793     -4.16259184     22.46177845
H       6.78100962      6.00659841     11.12595411
H      -2.36325948     13.39212657     23.36573642
H       9.97413630      5.67393703     12.55451634
H      10.21695424     -0.85971170     -6.04415039
H      -2.54609935     11.47239390     11.03750204
H      12.45566884     -0.23830064     -3.40311858
H      -0.86715312      2.00469082    -10.18954860
H      10.13301898     -6.45013504      5.59748242
H      25.95114173     -1.25922372     -0.91414506
H       9.09342949      4.23051192     12.17820820
C      17.30322965     -4.04092092     16.91429424
C      -1.19266103     -6.09038335     11.80190152
C       9.03916914      4.95612989     15.83916205
C       8.23442615      5.23920949     14.33530024
C      10.60994257      4.41234293     15.99326040
C       7.90159480      6.15994100     11.56423886
C       8.79731994      5.31675168     12.70523442
C      -1.99119233     12.56837488     11.12131677
C      -1.84390843     14.35645660     22.97263680
C      10.37997935     -0.70792972     -4.83191702
C      11.90082699     -0.04720629     -4.48505607
C      13.07699393     -0.52906371     -5.42311813
C      25.65424051     -0.29178792     -1.55745192
C       8.94936705     -0.03885749     -4.43994445
C       9.96372016     -5.43444686      6.23437756
H      25.20112132     -0.42093169     -2.66014452
H      -6.76572579     -5.60043037     -4.09964924
H      16.35524265     -3.75935048     17.46515407
H      -8.57271924     -3.49036836     22.83601772
H      -0.18941362     -5.66083808     12.36414361
H      11.66580109      5.00555594     15.99897449
H       8.41102321      4.22598534     16.62548485
H       8.12309749      7.15983181     10.91731187
H      -1.32455729     15.32078666     22.57953739
H       7.60052950      6.29313747     14.52137326
H      10.21576414     -1.85902772     -4.42103160
H      -2.14305449     13.18700230     10.06758102
H      12.07995107      1.16910958     -4.53717698
H      -1.02687648      4.06449954    -10.37934093
H      11.13976713     -5.20713380      6.39754049
H      25.81045847      0.80479166     -1.09806617
H      -2.48655863     13.20937223     12.04860079
