   94
energy=      0.00000000
C      -5.84030910     -0.91568278     -2.28636524
C      -4.24624451     -1.26370171     -1.68094841
H      -5.76580974     -0.19921729     -3.29735967
C      -7.19961017     -0.33550375     -1.37259031
H      -6.15083170     -1.85331141     -3.04197349
H      -3.86209545     -0.14036750     -1.35430658
C      -2.67350063     -1.82108544     -2.02962277
H      -4.47887058     -2.12083309     -0.81932602
H      -6.01397504     -4.00258427    -11.86870429
H      -6.00626385     -4.77197826    -11.74074562
C      -1.37053242     -1.50302608     -3.05965912
H      -1.91196992     -1.06100540     -4.08434698
C       0.11879315     -0.69383423     -2.66028701
H      -1.21544832     -2.58441170     -3.65576529
H       0.15758824      0.37581161     -3.29843139
H       0.98074035     -1.14001939     -3.44833288
C       0.86845098     -0.42349744     -1.10451231
H       2.10151595     -0.26703803     -1.23793440
C       0.34703012      0.65922144      0.16784208
H       1.22288009     -1.52899257     -0.66058569
H      -0.16632593      1.64623962     -0.37953413
H       1.22132941      1.51538117      0.40602360
C      -0.43037394      0.27307052      1.69237273
H       0.26352559      0.61340483      2.66875999
C       3.19297233      3.55580263    -10.57421491
H      -0.10480663     -0.86754262      2.06801727
H       2.54696552      4.36393011    -11.03359363
H       0.48491778      9.63784040     12.23486795
C      11.22190178     -4.54318866     -9.41952332
H      -7.10557126      0.73344537     -0.76487836
H      -7.40414257     -0.93171668     -0.30881648
C     -13.85246749     -1.05935843     -2.16448158
H      -8.35751419     -0.08800794     -1.79528157
C      -8.02647754      0.02912341     10.35899698
H     -14.53069554     -1.94437877     -2.16795639
H      -8.08578045      0.90465052      9.59471959
H      -7.96575459     -0.84330005     11.12670434
C      -2.09733584      0.55935385      2.11741884
H      -2.49047537      1.45266260      1.34993718
C      -3.06357609      0.98395109      3.48663625
H      -2.63061045     -0.52062326      1.82754668
H      -2.86807427      2.05705294      4.07616956
H      -3.09213455      0.26270429      4.49553254
H      -4.30145738      1.09709716      3.38719069
H      10.79248964     -3.46244200     -9.12708881
H      11.74449709     -4.71236829    -10.48544943
H      11.12871866     -5.45475552     -8.64603198
H       4.47020666     -3.47158921     17.31082888
H       1.79533823     -3.95229219     19.30883324
H      12.06658081     -4.89205676     10.77758377
H      15.02990685     -4.73468977     11.24761114
H      -8.07699597     -4.13141171     22.20283248
H       7.36838581      7.45251816      0.66639342
H      -1.24622432     10.01169206     14.99401261
H       9.09895531      7.13358342      3.73149834
H      15.68584372     -2.45086321      0.63767507
H      -1.17627422      8.76855407     12.30646483
H      18.36281300     -0.79615807      1.52761423
H      17.76657717     -1.75549866     -1.56120675
H      12.54925145     -1.69678331      2.75198462
H      20.64593405     -1.50469226     -0.79818038
H       7.66014637      5.97778611      3.28540156
C      12.01509751     -3.18223904     12.33320400
C      12.61558622     -3.80984460     10.97932770
C       3.33218051     -3.12100092     17.22017775
C       2.34350286     -3.54656551     18.36350247
C      14.26683473     -3.82026836     11.04728596
C       7.96614579      7.80804833      1.65535341
C       7.99498208      7.16004924      3.18203745
C      -0.69687957      9.89393547     12.50582779
C      -1.06546163     10.68908968     13.97213200
C      16.12133275     -1.51098614      1.30527300
C      17.47553672     -0.65614618      0.66961767
C      18.17616106     -0.77184317     -0.91814321
C      19.86719313     -0.65388574     -1.25771038
C      14.65670325     -0.96009974      1.72913876
C      13.20735947     -0.78262442      2.34261363
H      20.33654003     -0.70645003     -2.40519681
H      -2.29805042     -2.74881960     -1.31847574
H      11.65630495     -2.68363682     13.33283667
H      -7.94869727     -3.45918822     22.57707175
H      12.12145733     -3.21961530     10.01969475
H      15.04448213     -2.90195021     10.93874407
H       3.04846621     -2.46846467     16.25957480
H       8.53188433      8.77916128      1.20918465
H      -0.24856092     11.50109743     14.42956335
H       7.25663307      7.74415360      3.98006714
H      16.32233380     -2.09553193      2.37477333
H      -1.01186013     10.44243633     11.43995789
H      17.32928909      0.54390033      0.96798964
H      17.53403452     -0.05092858     -1.70854120
H      12.66134038      0.27029284      2.47492127
H      20.48688111      0.37976244     -0.96116082
H      -2.08821859     11.38683256     14.02944246
   94
energy=      0.00000000
C      -9.75561445     -1.64884042     -3.71935278
C      -8.28602464     -2.05648443     -2.92401046
H      -9.55818517     -0.96339711     -4.74337105
C     -11.07293115     -1.02388920     -2.80405227
H     -10.10481031     -2.56596129     -4.48906867
H      -7.56922880     -1.08792617     -2.62804976
C      -0.19341317     -1.70242202     -1.26599688
H      -8.35019738     -2.83101861     -1.95904663
H      -5.83149183     -4.70305512    -13.95103974
H      -5.82378064     -5.47244912    -13.82308107
C       0.93958963     -1.42909229     -2.32212343
H       0.16327306     -0.99920811     -3.18075696
C       2.36172885     -0.58137810     -1.87922316
H       0.97559425     -2.59343405     -2.73067182
H       2.34262161      0.50705414     -2.48169890
H       3.22407392     -0.96692916     -2.69359494
C       3.00575449     -0.39484895     -0.27217857
H       4.25100338     -0.33704502     -0.32708361
C       2.47774993      0.71629893      0.96889012
H       3.21205467     -1.53739753      0.17001234
H       1.96079132      1.70496103      0.42802830
H       3.35235568      1.57821526      1.18420260
C       1.68391534      0.33166644      2.48062795
H       2.37644746      0.71314518      3.44336678
C       3.18964520      3.55919449    -10.57476222
H       2.02338386     -0.78020465      2.92477145
H       2.54363838      4.36732196    -11.03414092
H       0.48554135      9.62602215     12.25078141
C      11.20979782     -4.55356762     -9.44258479
H     -10.98105034      0.10224616     -2.29189199
H     -11.49060704     -1.64754610     -1.81755207
C     -21.28676211     -1.46699077     -2.29644391
H     -12.19181208     -0.85321011     -3.30821684
C      -8.02604159      0.03007679     10.36005092
H     -21.96497884     -2.35200931     -2.29991794
H      -8.08599946      0.90417613      9.59419152
H      -7.96597244     -0.84377905     11.12617943
C      -0.00946377      0.56988630      2.81539666
H      -0.49767110      1.36686892      1.99670279
C      -0.83099502      1.01130917      4.27189759
H      -0.59873076     -0.43589993      2.37542048
H      -0.56910537      2.08133857      4.84355877
H      -0.79134636      0.28180257      5.27460838
H      -2.06618933      1.15459363      4.29264502
H      10.78038563     -3.47282103     -9.15015010
H      11.73239316     -4.72274738    -10.50851087
H      11.11661468     -5.46513444     -8.66909341
H       4.46227252     -3.45177744     17.30022740
H       1.67116909     -3.91378547     19.31396788
H      12.08920534     -4.90537066     10.85316351
H      15.05395673     -4.76129252     11.29244838
H      -8.15060748     -4.13466397     22.23418244
H       8.59082486      8.66443840      0.98123329
H      -1.22752359     10.00974931     14.99585473
H      10.32193897      8.34594168      4.04415163
H      15.73523940     -2.50917575      0.60580318
H      -1.19265089      8.77759560     12.29356301
H      18.35201954     -0.66624843      1.54182262
H      17.76167520     -1.74108044     -1.57176269
H      12.56549052     -1.61192637      2.68116686
H      20.62891707     -1.49081381     -0.81877342
H       8.88128837      7.18966205      3.60245371
C      12.03199689     -3.19755441     12.38732266
C      12.64403761     -3.82323694     11.03764090
C       3.31170908     -3.13068763     17.27081417
C       2.34348886     -3.56555593     18.42799818
C      14.29587394     -3.84330686     11.08935966
C       9.18833265      9.01973075      1.97041339
C       9.21677020      8.37155021      3.49702694
C      -0.69736828      9.89369614     12.50583756
C      -1.06480955     10.68920352     13.97220458
C      16.17151341     -1.57118906      1.27536016
C      17.47707993     -0.63369967      0.66036420
C      18.16668481     -0.75510353     -0.93017175
C      19.85399201     -0.63710103     -1.27908656
C      14.72175217     -0.99676554      1.70923778
C      13.27141268     -0.73203964      2.27948594
H      20.31201333     -0.68636513     -2.43127938
H      -7.32723646     -2.72685079     -3.32458007
H      11.63185306     -2.72467278     13.38380043
H      -8.02230878     -3.46244048     22.60842171
H      12.15780372     -3.23174653     10.07470679
H      15.08154330     -2.93547845     10.95420539
H       2.94731158     -2.47749786     16.33839900
H       9.75455319      9.99070920      1.52452152
H      -0.25694009     11.51524514     14.42057049
H       8.47749427      8.95422929      4.29523458
H      16.39915760     -2.24011359      2.28888566
H      -0.99997697     10.44442049     11.43756789
H      17.28229801      0.56199864      0.94667615
H      17.51303996     -0.04121215     -1.71750326
H      12.78392726      0.35382879      2.36678881
H      20.47492851      0.39745732     -0.98976157
H      -2.09483358     11.37554563     14.03588920
