   94

C      -8.28597393     -5.21916584     -5.51315387
C      -7.15018730     -5.74131867     -4.50340441
H      -9.11534893     -4.83786276     -6.25051735
C     -10.05551543     -1.06113272      5.85263059
H     -18.89185999     -7.18329685     -1.80818867
H      -6.60451038     -4.80383267     -3.92852412
C      10.23481595     -5.69103891      7.09762372
H      -7.62600430     -6.48058048     -3.64653754
H      -7.31887676     -5.77374913    -16.93688832
H      -7.31116557     -6.54314312    -16.80892965
C       6.79237791      0.29522516      9.98947454
H       5.62720366      0.69147660      9.92694198
C      10.12681648     -6.49349685      5.77861730
H       6.64695445     -0.93014077     10.05181016
H      10.26193394     -5.59946738      4.98660594
H       1.04393171     -6.44822221     10.86014941
C       9.91364863     -8.11987572      5.61622467
H       8.90272561     -8.31587072      4.93609692
C       5.46048627      3.12047412     -3.51975719
H       9.44667532     -8.65649395      6.62474004
H       6.61283895      2.99976189     -3.94058165
H       4.92248588      4.21883142     -3.74018231
C       4.81791463      2.19705529     -4.84403962
H       6.10931499      2.96385242     -7.07472616
C       5.19463175      3.03919402     -6.26813705
H       4.63121583      1.37481329     -5.73611818
H       4.74666233      4.00787241     -6.85399701
H      -1.67522236     13.86417483     12.14530767
C      19.17881947     -6.50264765     -9.27006443
H     -10.44736534      0.05789891      5.70251183
H     -19.27118577     -7.16726916     -1.12682601
C      -9.30897803      4.96232714    -10.51107341
H     -10.71758503     -1.94156433      5.38914609
C       0.01868142     -6.20375432     11.45219034
H     -10.40895073      4.90076610    -10.25089213
H      -2.21417198     -7.15397523     11.70271956
H       0.02038111     -4.99722383     11.36887734
C       3.95068239      0.97383215     -4.09038086
H       6.19125683      4.38803541     -1.63782573
C       4.35232498      3.37033314     -0.71215041
H       2.77891984      0.82772475     -3.81035128
H       4.16424498      4.38113049     -0.01540401
H       4.11630014      2.58086728      0.21181885
H       3.16527587      3.32398975     -1.05543663
H      18.05736656     -6.34797296     -9.64501179
H      18.84120732     -7.03176472    -10.28329125
H      20.05271809     -7.31017322     -7.38677952
H       8.38746051      1.22925873     13.52298024
H       6.21203063      3.70507664     12.88622664
H      -0.85402254     -8.43395041     12.10513115
H       8.98918690      0.80852660     10.85949458
H      -8.70101793     -4.16259184     22.46177845
H       8.19621031     13.30775194     11.15673484
H      -2.34916350     13.47718722     24.28698232
H       8.86038948      5.02706627     13.58203615
H       7.94600742      1.74144898     -1.82726418
H      -3.43227189     12.93183102     11.85119647
H      17.91127474      4.34681525     -3.56111878
H       1.15332686      1.56248793    -14.18199009
H      11.42339102     -9.70790620      4.19332133
H      21.41395811     -6.04318490     -7.66391858
H       9.16905596      4.65326057     11.72366634
C      -8.72375230     -1.36263247      6.62799752
C      -1.07482916     -7.22277978     12.17138268
C       7.55394016      1.57176064     12.67942846
C       7.31715513      3.21759963     12.73218301
C       7.80920649      0.90291046     11.16736642
C       9.20005750     13.62721484     11.64596529
C       8.46907993      4.36199589     12.65891051
C      -2.87735699     14.02780680     11.93502706
C      -1.82981241     14.44151727     23.89388281
C       7.01638013      2.24745085     -1.18447358
C      17.93713994      4.85497380     -4.63792778
C      18.59742032      4.07798092     -5.79147826
C      20.31049250     -6.32333773     -8.07401679
C       5.71762546      3.23535935     -1.78570914
C      11.26661253     -8.93406025      5.10827283
H       7.84772027      2.71196848     -0.38849872
H      -6.28216874     -6.37070865     -5.10135315
H      -7.73533716     -1.58639748      7.20346371
H      -8.57271924     -3.49036836     22.83601772
H      -1.19300698     -7.05759219     13.38847055
H       7.08608155      0.52840090      8.81405661
H       6.70930394      0.96052603     13.33764317
H      10.01870609     14.38605833     11.96703103
H      -1.31046131     15.40584731     23.50078330
H       4.30242798     -0.09164847     -3.61689961
H       6.79949622      1.14191765     -0.67227742
H      -3.02922606     14.64641905     10.88128340
H      17.48143955      5.92982066     -4.87341253
H       1.09358096      2.33690965    -14.25341365
H      12.39433056     -8.92998680      5.54330068
H      20.86571380     -5.26766877     -7.84537965
H      -3.37270766     14.66880232     12.86232070
   94

C      -8.28598513     -5.21965425     -5.51443569
C      -7.15021193     -5.74182600     -4.50468545
H      -9.11534672     -4.83830877     -6.25179047
C     -10.06881743     -1.05183309      5.84510056
H     -18.89193727     -7.18331445     -1.80822817
H      -6.60454923     -4.80433123     -3.92980730
C      10.24370320     -5.30955116      7.35808792
H      -7.62603947     -6.48108639     -3.64782421
H      -7.31890154     -5.77375927    -16.93693381
H      -7.31118932     -6.54315313    -16.80897435
C       6.67126512      0.20430459      9.86603578
H       5.52402166      0.65379444      9.85059176
C      10.13113290     -6.14564861      6.04707953
H       6.47115616     -1.01466373      9.89738060
H      10.27967028     -5.27365636      5.23493547
H       0.95866426     -6.50403578     10.89185738
C       9.91186310     -7.77047120      5.83829187
H       8.90321056     -7.94039148      5.14857231
C       5.46987473      3.12755863     -3.52270608
H       9.45973561     -8.32658122      6.84194246
H       6.62512819      3.04838045     -3.94773531
H       4.92432234      4.22205780     -3.74348309
C       4.83398449      2.19044202     -4.84191366
H       6.08412531      2.98548160     -7.08826244
C       5.17648025      3.03870820     -6.27214972
H       4.73450545      1.32929314     -5.71240243
H       4.68837015      3.98639324     -6.85903143
H      -1.67546471     13.86448664     12.14525480
C      19.18205203     -6.50362751     -9.27376718
H     -10.46056169      0.06723842      5.69501678
H     -19.27126350     -7.16728693     -1.12686576
C      -9.30904529      4.96235159    -10.51114560
H     -10.73081957     -1.93231672      5.38162265
C      -0.06606844     -6.25916781     11.48453112
H     -10.40901582      4.90078856    -10.25095583
H      -2.29845655     -7.20973284     11.73578767
H      -0.06469056     -5.05272470     11.40064804
C       3.94013414      0.98377632     -4.09024270
H       6.20091608      4.38609959     -1.63469316
C       4.35511199      3.37128154     -0.71784134
H       2.76061599      0.85333385     -3.83862745
H       4.17039912      4.38011608     -0.01740301
H       4.11131384      2.57768281      0.20053199
H       3.16885541      3.33092488     -1.06430115
H      18.05445998     -6.32861729     -9.62520943
H      18.88387673     -7.04331462    -10.29531639
H      20.04197911     -7.28851540     -7.35441188
H       8.48499991      0.96969878     13.40575659
H       6.43372639      3.60586746     12.70028360
H      -0.93725271     -8.48940559     12.13738025
H       8.90763939      0.56729088     10.62856014
H      -8.70126296     -4.16257970     22.46202120
H       8.19557588     13.30365262     11.15651171
H      -2.34917670     13.47721012     24.28701546
H       9.14462623      4.73475927     13.36834884
H       7.94714894      1.73706994     -1.82363352
H      -3.43252650     12.93211653     11.85115162
H      17.91161249      4.34716297     -3.56151809
H       1.15318887      1.56246800    -14.18228978
H      11.34688444     -9.39708123      4.36254183
H      21.44214541     -6.08921344     -7.72691811
H       9.35646007      4.39183774     11.53731012
C      -8.73711609     -1.35335662      6.62053084
C      -1.15895922     -7.27844040     12.20401699
C       7.66324733      1.33971751     12.56396197
C       7.47632595      2.98979241     12.59445435
C       7.76374176      0.68170586     11.03349561
C       9.19574150     13.64151627     11.64104498
C       8.71747942      4.03156435     12.49087371
C      -2.87760457     14.02808776     11.93498482
C      -1.82982461     14.44153927     23.89391455
C       7.01576765      2.24220951     -1.18288061
C      17.93739891      4.85527921     -4.63834799
C      18.59764353      4.07823594     -5.79188213
C      20.30465324     -6.32502543     -8.07218710
C       5.72326295      3.23579341     -1.78747344
C      11.22403011     -8.62577521      5.28593506
H       7.83997653      2.70143089     -0.37628385
H      -6.28219046     -6.37121185     -5.10263282
H      -7.74876071     -1.57715534      7.19607260
H      -8.57293627     -3.49034949     22.83623877
H      -1.27714618     -7.11306347     13.42104655
H       6.93938741      0.47734112      8.69237741
H       6.84932510      0.72654012     13.25824279
H      10.02527096     14.38487586     11.97049431
H      -1.31047260     15.40586832     23.50081330
H       4.26779547     -0.08513877     -3.60719426
H       6.79354970      1.13472804     -0.67735655
H      -3.02947048     14.64669797     10.88124018
H      17.48166565      5.93011208     -4.87382876
H       1.09343003      2.33688715    -14.25373073
H      12.36553860     -8.68490508      5.67873701
H      20.81209275     -5.24860590     -7.82210329
H      -3.37293602     14.66906572     12.86230016
   94

C      -8.28596276     -5.22014684     -5.51570338
C      -7.15020014     -5.74233638     -4.50595419
H      -9.11531478     -4.83876204     -6.25304705
C     -10.08209890     -1.04252671      5.83757901
H     -18.89200925     -7.18333180     -1.80826641
H      -6.60454913     -4.80483443     -3.93107778
C      10.26726770     -4.93729157      7.61417729
H      -7.62603726     -6.48159574     -3.64909823
H      -7.31892128     -5.77376899    -16.93697364
H      -7.31120816     -6.54316273    -16.80901352
C       6.53339014      0.12112009      9.75676350
H       5.40817162      0.62258158      9.78817906
C      10.14120206     -5.80414395      6.31107457
H       6.27514509     -1.08755959      9.75984474
H      10.30188326     -4.95405074      5.47982412
H       0.87366140     -6.56012932     10.92339123
C       9.91280865     -7.42602633      6.05770537
H       8.90676227     -7.56878407      5.35879673
C       5.48025589      3.13566104     -3.52516817
H       9.47478233     -8.00050514      7.05621626
H       6.63704631      3.09865077     -3.95415927
H       4.92669097      4.22599064     -3.74645480
C       4.85156389      2.18422455     -4.83834014
H       6.05601805      3.00368403     -7.10143886
C       5.15572663      3.03424294     -6.27622957
H       4.84233951      1.28908356     -5.68109689
H       4.62916274      3.96076175     -6.86250834
H      -1.67564682     13.86471011     12.14523889
C      19.18463760     -6.50516881     -9.27693043
H     -10.47373845      0.07658453      5.68753033
H     -19.27133616     -7.16730442     -1.12690436
C      -9.30910798      4.96237334    -10.51121222
H     -10.74403406     -1.92306070      5.37410485
C      -0.15052647     -6.31484711     11.51674282
H     -10.40907642      4.90080850    -10.25101430
H      -2.38255388     -7.26560070     11.76877039
H      -0.14947408     -5.10848648     11.43237397
C       3.92983785      0.99362938     -4.09413756
H       6.21075201      4.38409026     -1.63068014
C       4.35791523      3.37180136     -0.72343189
H       2.74357820      0.88014420     -3.86983368
H       4.17630542      4.37850298     -0.01916686
H       4.10632236      2.57394732      0.18910597
H       3.17255939      3.33729303     -1.07326904
H      18.05195304     -6.30867344     -9.60481206
H      18.92745272     -7.05436605    -10.30611415
H      20.03359632     -7.26618602     -7.32300702
H       8.56184484      0.70504988     13.28769794
H       6.70583067      3.51490753     12.51515159
H      -1.02031073     -8.54499863     12.16954570
H       8.79216665      0.34117135     10.40268159
H      -8.70147500     -4.16254970     22.46224490
H       8.19495555     13.29862527     11.15683285
H      -2.34918385     13.47721602     24.28703225
H       9.44674838      4.42874034     13.14698035
H       7.94831157      1.73258743     -1.82002379
H      -3.43271319     12.93231152     11.85113958
H      17.91189199      4.34743775     -3.56187040
H       1.15307895      1.56243728    -14.18253643
H      11.26993085     -9.08832886      4.53040501
H      21.46353239     -6.13447062     -7.78797653
H       9.55252051      4.13663225     11.35060560
C      -8.75046151     -1.34407791      6.61307655
C      -1.24289996     -7.33423662     12.23655835
C       7.76494303      1.11045959     12.43965729
C       7.65997093      2.76749837     12.44025048
C       7.69293154      0.46546356     10.90501249
C       9.19066903     13.65706707     11.63583917
C       9.00564311      3.67442161     12.31839530
C      -2.87779062     14.02828169     11.93497294
C      -1.82983337     14.44154693     23.89393311
C       7.01519882      2.23666932     -1.18115202
C      17.93761275      4.85551957     -4.63871727
C      18.59782735      4.07843042     -5.79223517
C      20.29865339     -6.32590288     -8.07010375
C       5.72915247      3.23622147     -1.78881409
C      11.18179860     -8.32053370      5.46178662
H       7.83215729      2.69031103     -0.36388929
H      -6.28217531     -6.37171814     -5.10389973
H      -7.76217096     -1.56791843      7.18870007
H      -8.57311851     -3.49031207     22.83643890
H      -1.36110418     -7.16864310     13.45352576
H       6.77841724      0.43203588      8.58650299
H       6.96783213      0.51219162     13.16665764
H      10.03204028     14.38288105     11.97441655
H      -1.31048309     15.40587776     23.50083351
H       4.23263351     -0.07750083     -3.59980666
H       6.78764618      1.12715409     -0.68264040
H      -3.02965284     14.64688861     10.88122648
H      17.48185327      5.93034120     -4.87419477
H       1.09330740      2.33685364    -14.25399743
H      12.33253825     -8.44241900      5.81056127
H      20.76211085     -5.23236205     -7.80196413
H      -3.37310881     14.66924564     12.86230436
   94

C      -8.28591144     -5.22064502     -5.51696625
C      -7.15015706     -5.74285177     -4.50721979
H      -9.11525777     -4.83922333     -6.25429596
C     -10.09544496     -1.03319140      5.83002773
H     -18.89208017     -7.18335008     -1.80830583
H      -6.60451565     -4.80534402     -3.93234465
C      10.30954062     -4.57490927      7.86679060
H      -7.62600347     -6.48211066     -3.65036930
H      -7.31893596     -5.77377816    -16.93700841
H      -7.31122205     -6.54317180    -16.80904777
C       6.37392613      0.04375055      9.66535455
H       5.27621449      0.59815179      9.74669775
C      10.15682313     -5.46828914      6.57090723
H       6.05428998     -1.15037080      9.64403072
H      10.32857416     -4.63967522      5.72177823
H       0.78869888     -6.61686548     10.95490629
C       9.91646549     -7.08595364      6.27446381
H       8.91356963     -7.20066638      5.56661988
C       5.49152329      3.14480060     -3.52697094
H       9.49171914     -7.67787255      7.26751139
H       6.64842378      3.15016916     -3.95966078
H       4.92955423      4.23065144     -3.74895077
C       4.87042319      2.17859952     -4.83320656
H       6.02564130      3.01685849     -7.11398584
C       5.13336974      3.02608266     -6.27984047
H       4.94963271      1.25606644     -5.64343234
H       4.57086084      3.93159353     -6.86449143
H      -1.67570193     13.86477495     12.14525621
C      19.18657324     -6.50740829     -9.27958228
H     -10.48697500      0.08596127      5.68001530
H     -19.27140806     -7.16732286     -1.12694432
C      -9.30916496      4.96239331    -10.51127360
H     -10.75731155     -1.91377453      5.36655295
C      -0.23494554     -6.37117637     11.54893597
H     -10.40913155      4.90082683    -10.25106843
H      -2.46675050     -7.32188100     11.80180076
H      -0.23430120     -5.16489833     11.46412796
C       3.92026650      1.00333830     -4.10137936
H       6.22080709      4.38193874     -1.62565756
C       4.36078355      3.37181235     -0.72875833
H       2.72844265      0.90715619     -3.90240789
H       4.18199891      4.37621434     -0.02054202
H       4.10137465      2.56958204      0.17770092
H       3.17643936      3.34300659     -1.08218671
H      18.04988069     -6.28809800     -9.58369979
H      18.97191870     -7.06480617    -10.31571587
H      20.02736466     -7.24326557     -7.29270130
H       8.61608234      0.45212623     13.17279943
H       7.02487943      3.41288178     12.29704194
H      -1.10348519     -8.60104182     12.20177549
H       8.63766288      0.13171409     10.18569601
H      -8.70166290     -4.16250445     22.46246151
H       8.19438932     13.29223634     11.15783166
H      -2.34916331     13.47718174     24.28700747
H       9.77194311      4.08657053     12.93910298
H       7.94956019      1.72799569     -1.81609759
H      -3.43277151     12.93236259     11.85115860
H      17.91209812      4.34763087     -3.56216788
H       1.15299841      1.56240145    -14.18273381
H      11.19263748     -8.78118465      4.69702973
H      21.47933294     -6.17984770     -7.84662409
H       9.80670549      3.87649657     11.18369429
C      -8.76387990     -1.33478087      6.60560197
C      -1.32694172     -7.39048240     12.26914465
C       7.86005693      0.88638272     12.30332923
C       7.87339489      2.54652675     12.23667779
C       7.59231796      0.25365847     10.78570242
C       9.18469138     13.67375841     11.63030530
C       9.30644520      3.32132163     12.12988107
C      -2.87784729     14.02833145     11.93499122
C      -1.82981625     14.44151604     23.89391194
C       7.01469417      2.23080332     -1.17900101
C      17.93776987      4.85568848     -4.63902659
C      18.59796254      4.07856046     -5.79252866
C      20.29301765     -6.32623817     -8.06809047
C       5.73533995      3.23658023     -1.78957942
C      11.13984173     -8.01800597      5.63596918
H       7.82423213      2.67858874     -0.35098806
H      -6.28212807     -6.37222926     -5.10516271
H      -7.77566685     -1.55868475      7.18132031
H      -8.57327358     -3.49025837     22.83662905
H      -1.44515610     -7.22461823     13.48604267
H       6.59500703      0.38856856      8.49854037
H       7.06465062      0.33135758     13.06748970
H      10.03883386     14.37977652     11.97878178
H      -1.31047023     15.40585113     23.50081694
H       4.19848962     -0.06919445     -3.59580692
H       6.78183429      1.11917715     -0.68781455
H      -3.02970698     14.64693885     10.88124519
H      17.48199202      5.93050221     -4.87450123
H       1.09321585      2.33681525    -14.25421377
H      12.29522434     -8.20193286      5.93910122
H      20.71420130     -5.21767344     -7.78502179
H      -3.37315450     14.66928635     12.86233421
   94

C      -8.28586066     -5.22115175     -5.51824888
C      -7.15011399     -5.74338068     -4.50850883
H      -9.11520449     -4.83968907     -6.25555870
C     -10.10893105     -1.02389678      5.82244886
H     -18.89216279     -7.18337197     -1.80835236
H      -6.60448226     -4.80586672     -3.93363570
C      10.37743757     -4.22414079      8.11603204
H      -7.62597228     -6.48263969     -3.65166584
H      -7.31894675     -5.77378676    -16.93704231
H      -7.31123228     -6.54318036    -16.80908145
C       6.16603725     -0.05757938      9.59710485
H       5.10558619      0.55640885      9.73196313
C      10.17671541     -5.13860257      6.82694304
H       5.77933003     -1.23183117      9.56531110
H      10.35838289     -4.33077944      5.96120266
H       0.70321013     -6.67512495     10.98645264
C       9.92309494     -6.75100723      6.48739730
H       8.92432012     -6.83739550      5.77039827
C       5.50346952      3.15472747     -3.52797279
H       9.51060990     -7.36013436      7.47427237
H       6.65904858      3.20202419     -3.96407590
H       4.93295696      4.23590406     -3.75082250
C       4.88992265      2.17377570     -4.82661601
H       5.99416462      3.02427075     -7.12550639
C       5.11056317      3.01502652     -6.28251368
H       5.05199189      1.23080523     -5.60144217
H       4.51520361      3.89996371     -6.86514809
H      -1.67547803     13.86451434     12.14531047
C      19.18790253     -6.51035394     -9.28185140
H     -10.50032447      0.09530614      5.67247871
H     -19.27149190     -7.16734493     -1.12699152
C      -9.30921633      4.96241366    -10.51133509
H     -10.77071599     -1.90453316      5.35896584
C      -0.31979177     -6.42890810     11.58122493
H     -10.40918146      4.90084584    -10.25112415
H      -2.55139720     -7.37910154     11.83508068
H      -0.32003001     -5.22275124     11.49587854
C       3.91173507      1.01283454     -4.11089066
H       6.23117481      4.37947004     -1.61960321
C       4.36380862      3.37122204     -0.73367756
H       2.71552875      0.93332895     -3.93477560
H       4.18757563      4.37320286     -0.02145211
H       4.09658396      2.56454652      0.16650664
H       3.18057835      3.34795675     -1.09088850
H      18.04828381     -6.26687058     -9.56170759
H      19.01719503     -7.07458396    -10.32413131
H      20.02316369     -7.21979354     -7.26367790
H       8.59401112      0.23543299     13.07427521
H       7.47295243      3.27511843     11.80440264
H      -1.18703448     -8.65808048     12.23431246
H       8.41279500     -0.12619742      9.99601410
H      -8.70184075     -4.16243898     22.46269056
H       8.19375308     13.28453229     11.15982763
H      -2.34906054     13.47703975     24.28686747
H      10.04162599      3.75761634     12.86486239
H       7.95098180      1.72320213     -1.81144505
H      -3.43255173     12.93213439     11.85121716
H      17.91218332      4.34771677     -3.56235810
H       1.15295121      1.56236901    -14.18288151
H      11.11531924     -8.47717855      4.86151091
H      21.49050296     -6.22582208     -7.90272178
H      10.25604829      3.67870704     11.16887939
C      -8.77746909     -1.32555004      6.59812937
C      -1.41148074     -7.44776692     12.30204113
C       7.93126450      0.68105493     12.13894805
C       8.20473019      2.30182865     11.86003420
C       7.43191362      0.01419099     10.68837632
C       9.17753443     13.69170891     11.62462172
C       9.67854362      3.00265251     11.98833079
C      -2.87762024     14.02809965     11.93505088
C      -1.82971932     14.44137924     23.89377763
C       7.01432862      2.22455400     -1.17606913
C      17.93783560      4.85576166     -4.63922279
C      18.59801992      4.07861015     -5.79271257
C      20.28809622     -6.32615351     -8.06641644
C       5.74190515      3.23669500     -1.78964344
C      11.09821503     -7.71940274      5.80727882
H       7.81624428      2.66625101     -0.33722048
H      -6.28207971     -6.37275278     -5.10644851
H      -7.78937161     -1.54956963      7.17398222
H      -8.57341202     -3.49018229     22.83682549
H      -1.52952636     -7.28141220     13.51883988
H       6.35857682      0.30434025      8.42873459
H       7.09072258      0.28823802     12.95652893
H      10.04519663     14.37576086     11.98358488
H      -1.31038270     15.40572331     23.50069290
H       4.16679129     -0.06074423     -3.59560020
H       6.77623232      1.11078236     -0.69240501
H      -3.02949248     14.64672577     10.88131758
H      17.48205268      5.93057235     -4.87469923
H       1.09316115      2.33678105    -14.25437461
H      12.25356944     -7.96452312      6.06360326
H      20.66711900     -5.20386508     -7.77089398
H      -3.37291718     14.66905230     12.86240084
   94

C      -8.28574826     -5.22162514     -5.51941916
C      -7.15000710     -5.74386445     -4.50967993
H      -9.11509165     -4.84014002     -6.25671723
C     -10.12206565     -1.01479130      5.81506657
H     -18.89222262     -7.18338726     -1.80838623
H      -6.60438246     -4.80634747     -3.93480551
C      10.48559261     -3.88700169      8.34703558
H      -7.62587404     -6.48312425     -3.65284282
H      -7.31895764     -5.77379409    -16.93706305
H      -7.31124244     -6.54318760    -16.80910169
C       5.86859456     -0.00113118      9.63865536
H       5.00199483      0.83842157      9.87243918
C      10.18922737     -4.81794100      7.07247263
H       5.26556533     -1.08129260      9.63316714
H      10.37552694     -4.03236430      6.18832359
H       0.62053496     -6.73102689     11.01764890
C       9.92758443     -6.42566322      6.69140764
H       8.93327989     -6.48480374      5.96593807
C       5.51465669      3.16538726     -3.52929417
H       9.52696714     -7.05089750      7.67226648
H       6.66753336      3.25371512     -3.96860196
H       4.93563003      4.24179571     -3.75303236
C       4.90817475      2.16989567     -4.81976150
H       5.96241192      3.02614789     -7.13632770
C       5.08758554      3.00195628     -6.28493282
H       5.14590825      1.21267866     -5.55790799
H       4.46299701      3.86722983     -6.86554990
H      -1.67477340     13.86373553     12.14529829
C      19.18881078     -6.51388444     -9.28414530
H     -10.51332427      0.10446046      5.66513874
H     -19.27155343     -7.16736055     -1.12702633
C      -9.30925521      4.96243075    -10.51136832
H     -10.78375419     -1.89549345      5.35157996
C      -0.40207368     -6.48494346     11.61299459
H     -10.40921914      4.90086145    -10.25115284
H      -2.63348779     -7.43472936     11.86756066
H      -0.40379182     -5.27888398     11.52755980
C       3.90356152      1.02193468     -4.12218671
H       6.24063960      4.37681717     -1.61391104
C       4.36612613      3.37009638     -0.73875230
H       2.70406957      0.95778514     -3.96604080
H       4.19223196      4.36963085     -0.02256957
H       4.09131328      2.55902293      0.15514857
H       3.18403051      3.35209376     -1.09965668
H      18.04727734     -6.24511354     -9.53880356
H      19.06323442     -7.08380146    -10.33149922
H      20.02105414     -7.19597791     -7.23642842
H       8.62936424      0.07751240     12.88991250
H       9.66010345      1.99832052     10.09641150
H      -1.26788594     -8.71343456     12.26594482
H       7.87188662     -0.83718319     10.03550721
H      -8.70205294     -4.16242546     22.46295089
H       8.19270153     13.27038367     11.16274722
H      -2.34905223     13.47699143     24.28680218
H       9.41431294      3.42980298     13.06087156
H       7.95118801      1.71761275     -1.80846549
H      -3.43187354     12.93150344     11.85122519
H      17.91267324      4.34794326     -3.56313738
H       1.15288892      1.56234335    -14.18303255
H      11.03539207     -8.18108029      5.02071840
H      21.49786859     -6.27268287     -7.95647011
H      10.12411494      4.03153371     11.72690336
C      -8.79071444     -1.31650110      6.59085918
C      -1.49349426     -7.50341914     12.33421882
C       8.06764124      0.59201129     11.91371772
C       9.19375108      1.58839018     11.14716155
C       7.15716028     -0.12063827     10.68783840
C       9.16838245     13.70652629     11.61860067
C       9.66014726      2.93741193     11.98319389
C      -2.87690364     14.02745071     11.93506056
C      -1.82970661     14.44132386     23.89370159
C       7.01294936      2.21762874     -1.17459330
C      17.93819349      4.85598026     -4.64000555
C      18.59831843      4.07871610     -5.79344348
C      20.28420371     -6.32572179     -8.06546551
C       5.74754354      3.23670812     -1.79015457
C      11.05323804     -7.42916321      5.97238668
H       7.80755205      2.65347709     -0.32560849
H      -6.28196604     -6.37323288     -5.10761302
H      -7.80274372     -1.54063294      7.16686280
H      -8.57359802     -3.49016120     22.83706322
H      -1.61149634     -7.33676810     13.55093469
H       6.03396595      0.31613538      8.45360308
H       7.24184209      0.50747087     12.83256345
H      10.04936632     14.36780458     11.98811134
H      -1.31036680     15.40566280     23.50060930
H       4.13772264     -0.05264054     -3.59941778
H       6.76980812      1.10190589     -0.69808771
H      -3.02878922     14.64609436     10.88133796
H      17.48238546      5.93078291     -4.87545669
H       1.09309673      2.33675481    -14.25453043
H      12.20404602     -7.73402605      6.18129350
H      20.62002346     -5.19069945     -7.75922353
H      -3.37221808     14.66844212     12.86237616
   94

C      -8.28533119     -5.22203988     -5.52031664
C      -7.14958179     -5.74424304     -4.51056231
H      -9.11468639     -4.84060201     -6.25762832
C     -10.13431304     -1.00567906      5.80784542
H     -18.89218160     -7.18338855     -1.80837857
H      -6.60395193     -4.80673072     -3.93568360
C      10.48740658     -3.55626911      8.60631277
H      -7.62543961     -6.48350230     -3.65371850
H      -7.31893452     -5.77379171    -16.93702324
H      -7.31121855     -6.54318497    -16.80906036
C       5.84998985      0.17490613      9.59266690
H       5.01773866      1.02671058      9.89037432
C      10.18723990     -4.49832012      7.32752980
H       5.21334161     -0.88375421      9.53347595
H      10.38312421     -3.73031785      6.43143882
H       0.54942032     -6.77666176     11.04748769
C       9.92172354     -6.09908861      6.90105842
H       8.93359127     -6.12841250      6.16589327
C       5.52715487      3.17615507     -3.52782023
H       9.53118055     -6.74142960      7.87409613
H       6.67606036      3.30418916     -3.97008121
H       4.93987979      4.24781185     -3.75267335
C       4.92710232      2.16692991     -4.81014213
H       5.93133669      3.02359450     -7.14436389
C       5.06590630      2.98771887     -6.28431832
H       5.23333981      1.20057865     -5.51135370
H       4.41385087      3.83283016     -6.86351029
H      -1.67532192     13.86448598     12.14545056
C      19.18913669     -6.51815038     -9.28624929
H     -10.52560332      0.11356994      5.65794153
H     -19.27151541     -7.16736262     -1.12702032
C      -9.30924283      4.96241417    -10.51135834
H     -10.79598071     -1.88641226      5.34437572
C      -0.47436926     -6.53176023     11.64157089
H     -10.40920751      4.90084578    -10.25114573
H      -2.70686935     -7.48242534     11.89575349
H      -0.47444655     -5.32550467     11.55694344
C       3.89721060      1.03108085     -4.13234116
H       6.25170501      4.37363976     -1.60545073
C       4.36995837      3.36828488     -0.74130857
H       2.69518624      0.98102028     -3.99455977
H       4.19826248      4.36539284     -0.02127666
H       4.08764998      2.55295029      0.14633786
H       3.18906041      3.35533529     -1.10598633
H      18.04688261     -6.22284451     -9.51495277
H      19.11019345     -7.09225479    -10.33772808
H      20.02077013     -7.17157533     -7.21058084
H       8.61141906     -0.22805796     12.90698151
H      10.54388016      1.12708026     10.42555468
H      -1.34101359     -8.76088417     12.29327033
H       7.78812733     -0.74755570      9.79412517
H      -8.70206277     -4.16243576     22.46296462
H       8.19476689     13.25494444     11.16526638
H      -2.34902740     13.47705376     24.28688771
H       9.74329176      3.16188267     12.51645364
H       7.95305802      1.71249370     -1.80133642
H      -3.43247223     12.93225356     11.85136399
H      17.91259940      4.34801970     -3.56316916
H       1.15292084      1.56231764    -14.18295495
H      10.94752046     -7.87514941      5.18586282
H      21.50166899     -6.32066176     -8.00817626
H       9.41914301      3.60516239     11.00257237
C      -8.80290724     -1.30737660      6.58358269
C      -1.56653793     -7.55078350     12.36183292
C       8.17667870      0.28513937     11.86799149
C       9.58544155      0.91567327     11.14117446
C       7.19229984     -0.03005738     10.55115594
C       9.16199638     13.71896502     11.61196091
C       9.44361833      2.52368695     11.53376736
C      -2.87745000     14.02817454     11.93518498
C      -1.82967029     14.44137557     23.89377611
C       7.01310872      2.21087987     -1.16901535
C      17.93811770      4.85604711     -4.64004294
C      18.59824852      4.07879963     -5.79349159
C      20.28112866     -6.32470455     -8.06495950
C       5.75487139      3.23622548     -1.78796846
C      10.99957626     -7.13069947      6.14344982
H       7.79983625      2.64046196     -0.30931223
H      -6.28153104     -6.37361180     -5.10848264
H      -7.81488081     -1.53151321      7.15950175
H      -8.57361166     -3.49017345     22.83708176
H      -1.68609123     -7.38510669     13.57861585
H       6.04800305      0.58595741      8.44168748
H       7.31385991      0.27277115     12.75821733
H      10.05658456     14.35531328     11.99295151
H      -1.31031844     15.40570251     23.50067016
H       4.11241448     -0.04457284     -3.60412736
H       6.76502768      1.09308099     -0.70001271
H      -3.02930336     14.64680020     10.88144807
H      17.48229219      5.93084738     -4.87547336
H       1.09313001      2.33672888    -14.25445635
H      12.14169668     -7.49269306      6.30407543
H      20.57233921     -5.17795939     -7.74940889
H      -3.37273547     14.66915920     12.86251965
   94

C      -8.28499043     -5.22246634     -5.52128868
C      -7.14923632     -5.74465178     -4.51152746
H      -9.11435363     -4.84105891     -6.25860837
C     -10.14654666     -0.99646662      5.80062934
H     -18.89215510     -7.18338690     -1.80837492
H      -6.60360020     -4.80714443     -3.93664569
C      10.46342859     -3.23518507      8.87086265
H      -7.62509147     -6.48391054     -3.65468107
H      -7.31892332     -5.77379188    -16.93700450
H      -7.31120699     -6.54318504    -16.80904113
C       5.81321288      0.18087871      9.55351564
H       5.01047301      1.03518381      9.91685095
C      10.19340856     -4.18991635      7.58057988
H       5.16997058     -0.87397118      9.49579129
H      10.39827152     -3.43713446      6.67491449
H       0.47434691     -6.82708639     11.07796218
C       9.91980863     -5.78094334      7.10481148
H       8.94076000     -5.78048668      6.35747212
C       5.53921437      3.18730902     -3.52700391
H       9.53726386     -6.44255322      8.06734996
H       6.68302022      3.35366509     -3.97200175
H       4.94407746      4.25433826     -3.75295439
C       4.94472392      2.16488029     -4.80093624
H       5.90116864      3.01771722     -7.15182201
C       5.04495665      2.97290032     -6.28356554
H       5.31297553      1.19346996     -5.46548943
H       4.36760247      3.79793031     -6.86173290
H      -1.67525966     13.86445012     12.14545734
C      19.18913086     -6.52275693     -9.28848450
H     -10.53783001      0.12279264      5.65075046
H     -19.27149079     -7.16736132     -1.12701770
C      -9.30922617      4.96240386    -10.51133753
H     -10.80821012     -1.87722074      5.33718252
C      -0.55001255     -6.58240865     11.67128006
H     -10.40919133      4.90083587    -10.25112683
H      -2.78337239     -7.53291515     11.92542383
H      -0.54902394     -5.37607158     11.58708690
C       3.89137276      1.04010496     -4.14343580
H       6.26258569      4.37027621     -1.59778948
C       4.37354715      3.36625123     -0.74463836
H       2.68746389      1.00267264     -4.02238956
H       4.20398941      4.36078269     -0.02060228
H       4.08375669      2.54655663      0.13654097
H       3.19385384      3.35838804     -1.11302812
H      18.04719552     -6.20027116     -9.48999766
H      19.15800972     -7.10002069    -10.34273318
H      20.02232521     -7.14676938     -7.18647395
H       8.66420297     -0.41379681     12.79317623
H      10.67315609      0.75181426     10.23378854
H      -1.41722721     -8.81142059     12.32224715
H       7.73106337     -0.72865096      9.56601475
H      -8.70200334     -4.16239360     22.46294326
H       8.19703773     13.24172283     11.16803021
H      -2.34899504     13.47703023     24.28686112
H       9.88033699      2.85979430     12.24168951
H       7.95468126      1.70701831     -1.79588790
H      -3.43240840     12.93221959     11.85137172
H      17.91248283      4.34792942     -3.56298324
H       1.15294383      1.56230878    -14.18292400
H      10.86527595     -7.57415768      5.34731845
H      21.50230965     -6.36971388     -8.05771041
H       9.57532880      3.23044400     10.75842814
C      -8.81509555     -1.29815038      6.57632045
C      -1.64284464     -7.60131483     12.39109591
C       8.26251894      0.04528296     11.71608665
C       9.71288063      0.51909507     10.94028548
C       7.19842773     -0.09443151     10.43166868
C       9.15448877     13.73520182     11.60480600
C       9.63622433      2.15109554     11.29276483
C      -2.87738788     14.02814168     11.93519317
C      -1.82963710     14.44135159     23.89374963
C       7.01305731      2.20373956     -1.16501467
C      17.93802882      4.85596330     -4.63985413
C      18.59816643      4.07873653     -5.79331500
C      20.27907242     -6.32299524     -8.06501469
C       5.76193865      3.23565526     -1.78657241
C      10.94984246     -6.83778673      6.31012417
H       7.79197744      2.62704351     -0.29492095
H      -6.28118317     -6.37402269     -5.10944296
H      -7.82702416     -1.52227044      7.15217840
H      -8.57354255     -3.49012875     22.83705247
H      -1.76337889     -7.43602568     13.60787007
H       5.96490153      0.63524545      8.41071626
H       7.42567780      0.09712628     12.62949910
H      10.06263285     14.34524237     11.99740950
H      -1.31028446     15.40567801     23.50064353
H       4.08973045     -0.03687605     -3.61189009
H       6.76015190      1.08389084     -0.70358387
H      -3.02924510     14.64676932     10.88145773
H      17.48221532      5.93076772     -4.87529205
H       1.09315955      2.33672150    -14.25441477
H      12.07949883     -7.25329361      6.42322447
H      20.52358944     -5.16564206     -7.74092815
H      -3.37267649     14.66912840     12.86252503
   94

C      -8.28461824     -5.22286554     -5.52221810
C      -7.14885836     -5.74503153     -4.51244979
H      -9.11399060     -4.84149887     -6.25955002
C     -10.15844176     -0.98728314      5.79352975
H     -18.89211188     -7.18337770     -1.80836251
H      -6.60321164     -4.80753241     -3.93756359
C      10.36978502     -2.91352951      9.13769190
H      -7.62471123     -6.48429031     -3.65560136
H      -7.31890955     -5.77378778    -16.93697926
H      -7.31119341     -6.54318100    -16.80901624
C       5.81078808      0.15648443      9.51281436
H       5.04456328      1.02000892      9.92959542
C      10.20182312     -3.89224325      7.83311182
H       5.14925536     -0.88708400      9.45331662
H      10.40303389     -3.15078911      6.91847137
H       0.39962562     -6.87750923     11.10819092
C       9.91893402     -5.47046350      7.30153314
H       8.95183736     -5.44114044      6.53961242
C       5.55103502      3.19839360     -3.52559759
H       9.54213218     -6.15403097      8.25035127
H       6.68877332      3.40150409     -3.97309609
H       4.94859107      4.26103296     -3.75265000
C       4.96108276      2.16368357     -4.79131236
H       5.87240222      3.00947650     -7.15771906
C       5.02509898      2.95804637     -6.28171550
H       5.38556381      1.19046016     -5.41983138
H       4.32426798      3.76293781     -6.85932150
H      -1.67517430     13.86428620     12.14542605
C      19.18899937     -6.52721593     -9.29124143
H     -10.54973284      0.13198210      5.64367117
H     -19.27144921     -7.16735244     -1.12700621
C      -9.30918219      4.96238808    -10.51128600
H     -10.82012371     -1.86804835      5.33011629
C      -0.62524269     -6.63289208     11.70078186
H     -10.40914873      4.90082122    -10.25108078
H      -2.85950345     -7.58310147     11.95494184
H      -0.62308822     -5.42648117     11.61693671
C       3.88617010      1.04903663     -4.15402105
H       6.27372008      4.36652219     -1.58981225
C       4.37748711      3.36386907     -0.74724815
H       2.68087942      1.02279493     -4.04853771
H       4.21010175      4.35579853     -0.01920614
H       4.08035269      2.53991219      0.12747913
H       3.19899030      3.36103252     -1.11921483
H      18.04820214     -6.17773086     -9.46390038
H      19.20651814     -7.10719192    -10.34648701
H      20.02565796     -7.12175694     -7.16445878
H       8.74120271     -0.58006427     12.65654337
H      10.72695150      0.44595295      9.97107824
H      -1.49314460     -8.86172696     12.35110706
H       7.68539259     -0.77700684      9.38775308
H      -8.70188620     -4.16234021     22.46286522
H       8.19966178     13.23076439     11.17095080
H      -2.34899431     13.47701109     24.28684279
H      10.01290376      2.55283605     12.01170279
H       7.95639520      1.70124835     -1.79014042
H      -3.43229761     12.93203106     11.85133592
H      17.91228382      4.34774274     -3.56266037
H       1.15299434      1.56231717    -14.18282107
H      10.78713236     -7.27855474      5.50433014
H      21.50005909     -6.41981294     -8.10518717
H       9.74198831      2.91597511     10.57604229
C      -8.82691599     -1.28893411      6.56914472
C      -1.71878169     -7.65159938     12.42020254
C       8.34735437     -0.17166520     11.55617276
C       9.78877325      0.17893556     10.69597879
C       7.21849983     -0.19750247     10.32276623
C       9.14689935     13.75276526     11.59770698
C       9.79734640      1.81795215     11.07464973
C      -2.87730415     14.02796693     11.93516064
C      -1.82963976     14.44133642     23.89373654
C       7.01318113      2.19631120     -1.16061119
C      17.93788100      4.85579477     -4.63952255
C      18.59803607      4.07860552     -5.79300164
C      20.27814268     -6.32046087     -8.06577350
C       5.76917532      3.23476527     -1.78469672
C      10.90213401     -6.54916714      6.47068818
H       7.78426298      2.61331102     -0.28031855
H      -6.28080626     -6.37440684     -5.11036336
H      -7.83876741     -1.51299382      7.14490830
H      -8.57341704     -3.49007302     22.83696728
H      -1.84026980     -7.48664802     13.63696236
H       5.93345123      0.64796079      8.38118077
H       7.55363734     -0.06862783     12.50251757
H      10.06797132     14.33621954     12.00154149
H      -1.31028982     15.40566615     23.50063499
H       4.06968513     -0.02946693     -3.62085305
H       6.75558685      1.07447652     -0.70669416
H      -3.02916683     14.64659530     10.88142611
H      17.48208932      5.93060660     -4.87497339
H       1.09322066      2.33673251    -14.25429217
H      12.01575668     -7.01522265      6.53832896
H      20.47351736     -5.15388490     -7.73336792
H      -3.37260590     14.66895618     12.86248407
   94

C      -8.28409006     -5.22315561     -5.52297251
C      -7.14830358     -5.74530855     -4.51322294
H      -9.11347729     -4.84186094     -6.26032659
C     -10.16966046     -0.97813719      5.78663648
H     -18.89185999     -7.18329685     -1.80818867
H      -6.60261733     -4.80782878     -3.93834132
C      10.03992095     -2.00553877      9.45132511
H      -7.62414073     -6.48456800     -3.65636523
H      -7.31887678     -5.77374915    -16.93688833
H      -7.31116559     -6.54314314    -16.80892966
C       5.85841388      0.05581254      9.42711324
H       5.15562585      0.94783247      9.89510240
C      10.10385781     -3.26332048      8.33374916
H       5.14873159     -0.95581088      9.35793184
H      10.31976292     -2.58471122      7.37150503
H       0.32157625     -6.93123976     11.13964014
C       9.95129315     -4.84296705      7.66790651
H       9.00246627     -4.79974812      6.87926810
C       5.57013938      3.21446803     -3.52108228
H       9.59078661     -5.56116532      8.59848483
H       6.69447136      3.48298447     -3.97248460
H       4.95772607      4.27102054     -3.75009177
C       4.98195919      2.16271396     -4.77424425
H       5.82927788      2.98972476     -7.16103373
C       4.99125190      2.93126739     -6.27735752
H       5.50303564      1.19287733     -5.33440912
H       4.26287216      3.71197848     -6.85205802
H      -1.67522236     13.86417483     12.14530767
C      19.19157510     -6.52592924     -9.30291710
H     -10.56102212      0.14112010      5.63682747
H     -19.27118577     -7.16726916     -1.12682601
C      -9.30897803      4.96232714    -10.51107341
H     -10.83132775     -1.85899785      5.32336065
C      -0.70359284     -6.68628910     11.73165772
H     -10.40895073      4.90076610    -10.25089213
H      -2.93873544     -7.63582990     11.98669158
H      -0.70050210     -5.47987617     11.64755432
C       3.87474870      1.06303915     -4.17081581
H       6.29433844      4.35731162     -1.57599291
C       4.38616943      3.35777850     -0.74918108
H       2.66830530      1.05159250     -4.08928543
H       4.22219424      4.34669624     -0.01640089
H       4.07800056      2.52796157      0.11609450
H       3.20950037      3.36078800     -1.12621116
H      18.05071154     -6.13553108     -9.40510950
H      19.30049956     -7.12354069    -10.34778818
H      20.03818587     -7.07571839     -7.13215590
H       8.83424253     -0.87581403     12.45107286
H      10.71352369     -0.27115744      9.48345843
H      -1.57141489     -8.91451532     12.38153468
H       7.61234958     -1.00744564      9.16794479
H      -8.70101793     -4.16259184     22.46177845
H       8.20244717     13.22143323     11.17357981
H      -2.34916350     13.47718722     24.28698232
H      10.17295141      1.93963210     11.56605516
H       7.95967049      1.68830769     -1.77835690
H      -3.43227189     12.93183102     11.85119647
H      17.91126875      4.34685223     -3.56110614
H       1.15332685      1.56248793    -14.18199015
H      10.61363619     -6.74986848      5.82680565
H      21.48932126     -6.52028412     -8.19420654
H      10.04485267      2.26001183     10.21400670
C      -8.83791642     -1.27963225      6.56199229
C      -1.79768501     -7.70450832     12.45115164
C       8.45982107     -0.57749156     11.30929248
C       9.83286473     -0.51332689     10.28230694
C       7.26025015     -0.44517494     10.15661451
C       9.13932582     13.77129974     11.59081949
C      10.07605787      1.13384667     10.66010278
C      -2.87735699     14.02780680     11.93502706
C      -1.82981241     14.44151727     23.89388281
C       7.01522023      2.18243230     -1.15046795
C      17.93713385      4.85501091     -4.63791506
C      18.59741431      4.07801776     -5.79146531
C      20.28133959     -6.31199573     -8.07076197
C       5.78266780      3.23040847     -1.77963742
C      10.80806467     -5.99917927      6.76908601
H       7.77300952      2.59092122     -0.25430293
H      -6.28027672     -6.37469636     -5.11116190
H      -7.84951300     -1.50339758      7.13745151
H      -8.57271924     -3.49036836     22.83601772
H      -1.92037878     -7.53964623     13.66781805
H       5.98655520      0.59545381      8.31728343
H       7.76299206     -0.33775643     12.30339149
H      10.07320091     14.32829215     12.00533187
H      -1.31046131     15.40584731     23.50078330
H       4.03946864     -0.01845209     -3.63858357
H       6.75018588      1.05844460     -0.70648890
H      -3.02922606     14.64641905     10.88128340
H      17.48143339      5.92985781     -4.87339957
H       1.09358093      2.33690965    -14.25341374
H      11.86764890     -6.58379369      6.75846907
H      20.36866719     -5.13389879     -7.71557409
H      -3.37270765     14.66880232     12.86232070
