   94
energy=      0.00000000
C      -4.95045648     -0.56201026     -1.13764662
C      -3.25247398     -0.54609917     -0.89478547
H      -5.25400321      0.14265796     -2.11730375
C      -6.02127445     -0.29856386      0.18541315
H      -5.28499295     -1.55384339     -1.80860711
H      -2.88670006      0.58509219     -0.57223362
C      -1.92850608     -0.70636530     -1.81555686
H      -2.88649099     -1.46787101     -0.15661140
H      -5.99889763     -3.73200143    -11.08079869
H      -5.99118644     -4.50139543    -10.95284003
C      -0.57298870     -0.82837667     -2.69193707
H      -1.03311153     -0.04748165     -3.53254040
C       1.09648561     -0.54938650     -2.42836147
H      -0.80232932     -2.02106969     -2.92223267
H       1.52993186      0.14054483     -3.37650539
H       1.71116491     -1.46509517     -3.01878695
C       1.76897452     -0.10120597     -0.88405921
H       2.69632762      0.70811585     -1.13379805
C       1.03009788      0.38854494      0.64654901
H       2.62377123     -0.99629834     -0.71009477
H       0.74827772      1.51842883      0.20453999
H       1.88761093     -0.26998672      1.25554125
C       0.02362492      0.50244692      2.11419384
H       0.74953837      1.41339240      2.55464928
C       3.28659908      3.45951178    -10.54978496
H      -0.06275076     -0.73108907      2.23818323
H       2.64059230      4.26763931    -11.00916380
H      10.49454665     -4.35934703     -8.57361591
C      11.57919244     -4.04095221     -8.08541403
H      -5.79518182      0.81365566      0.67715288
H      -5.82603189     -1.14300575      1.07576511
C      -7.68451043     -0.21892374      0.25572415
H      -8.44159056      0.71902624      0.13587579
C      -1.30856676      0.86739204      3.25348227
H      -8.51074818     -1.07274892      0.48501402
H      -1.19114188      2.09631731      3.39515184
H      -0.93635959      0.29427582      4.29965875
C      -3.04384014      0.79377288      3.59053148
H      -3.36983865      1.77029172      2.89823906
C      -4.46345409      0.94269030      4.60649228
H      -3.18311726     -0.43100097      3.44506319
H      -4.67264417      1.93444751      5.32290385
H      -4.78125563      0.10682614      5.46903120
H      -5.64370198      0.96198705      4.20650878
H      11.54209354     -2.89427383     -7.63840292
H      12.44326046     -4.08942774     -8.96126820
H      11.83751390     -4.82048910     -7.16798887
H       7.55848669      0.42001961      9.45234348
H       4.91639354      0.58494761     11.05559432
H       7.74927171      0.07049824      6.44883431
H      10.39334819      0.21654626      7.89061403
H       4.90742322      0.26770530      8.13371230
H      10.82039432     -0.30820482      3.83914993
H       2.14366756      1.96157396     12.85832778
H      13.49435453      0.00107749      5.18007264
H      13.60271488     -0.56751480      2.18347267
H       2.22785759      0.78097036     10.23457208
H      16.24761537     -0.34478638      3.41431063
H      16.15341981     -0.79680484      0.41341252
H      -4.28152255      1.11923764     16.38534077
H      18.94200341     -0.69548827      1.55632282
H      -5.04090128      0.50751883     13.13302166
C       7.11309970      1.24245439      8.62252790
C       8.02168680      1.03797446      7.18251718
C       5.39096631      1.25443014      8.73004638
C       4.59437815      1.48701650     10.24988155
C       9.65220054      1.10486229      7.52653455
C      11.55638412      0.65365938      3.90620907
C      13.19896311      0.69529708      4.19000851
C       2.90902177      1.80356354     10.46134374
C       2.38445723      2.65778532     11.85937748
C      14.06483815      0.46000403      2.72280814
C      15.78250654      0.43102863      2.55355748
C      16.59331068      0.19123055      1.03989229
C      18.30839032      0.17176003      0.93503898
C      -4.95041157      1.07933717     14.15376607
C      -4.85120648      1.83638986     15.56778305
H      18.88002469      0.00075281     -0.14956068
H      -5.97512865      2.12668854     15.96725760
H       7.55882214      2.27210369      9.17366993
H       5.23678024      2.34702189     10.87892939
H       7.73958740      1.74574924      6.19837905
H      10.37542745      2.07413045      7.62147873
H       4.94101103      2.02082482      7.85262504
H      10.81681520      1.55487775      3.57142641
H       3.01677564      3.53238182     12.46826828
H      13.49261133      1.66137443      4.91802987
H      13.60297106      1.26943947      1.89114204
H       2.33354998      2.28150783      9.46469390
H      16.24961389      1.43304915      3.13387779
H      16.15607873      0.94055304      0.14016988
H      -4.21836374      2.88716328     15.52098478
H      18.94531037      1.18537501      1.26134371
H       1.42980309      3.43790850     11.76108428
   94
energy=      0.00000000
C      -5.02175181     -0.59623637     -1.23284595
C      -3.32004137     -0.56497103     -0.99340769
H      -5.31689877      0.08920366     -2.22806462
C      -6.12856409     -0.32754629      0.06526583
H      -5.33434054     -1.60034903     -1.89601123
H      -2.96167468      0.57184412     -0.68366112
C      -1.96999963     -0.71528216     -1.88177547
H      -2.95468811     -1.48865474     -0.25820780
H      -6.00096578     -3.73385313    -11.08085209
H      -5.99325459     -4.50324712    -10.95289342
C      -0.61924194     -0.85711108     -2.76541775
H      -1.07165724     -0.20011028     -3.71107449
C       1.01240226     -0.51597125     -2.34909458
H      -0.84189148     -2.02681001     -3.10045596
H       1.43209471      0.26911470     -3.22458367
H       1.67482649     -1.41787239     -2.90652574
C       1.67182454     -0.10506278     -0.78607135
H       2.62347348      0.67694713     -1.03489791
C       1.00819226      0.45634802      0.74937884
H       2.41350546     -1.08688973     -0.56823592
H       0.57509519      1.53701111      0.30377722
H       2.02192105      0.06091138      1.34916241
C       0.07444524      0.46933523      2.25518339
H       0.93237267      1.15409363      2.83886687
C       3.24456091      3.50273197    -10.56259727
H      -0.14760771     -0.75698099      2.24976034
H       2.59855411      4.31085947    -11.02197602
H      10.34077794     -4.52847388     -8.93286079
C      11.42934145     -4.22288313     -8.44525011
H      -5.93045127      0.77707902      0.58710827
H      -5.94664649     -1.14393699      0.98345073
C      -7.79655113     -0.26979287      0.08541807
H      -8.57010037      0.65220100     -0.05487797
C      -1.19234712      0.95073004      3.40349874
H      -8.62620057     -1.12589174      0.29613188
H      -1.05636232      2.17289026      3.62075489
H      -0.83474260      0.54207355      4.53171539
C      -2.93067329      0.78881070      3.53089622
H      -3.30223700      1.58487535      2.65269697
C      -4.22361425      0.97743219      4.67894138
H      -3.12320091     -0.40027239      3.22636118
H      -4.29976597      1.98536505      5.39645429
H      -4.43003361      0.13726399      5.56929015
H      -5.42921309      1.02631249      4.37321697
H      11.37860159     -3.07618395     -7.99957462
H      12.29817893     -4.28262618     -9.31569392
H      11.69980859     -5.00424792     -7.53287035
H       8.30291649     -1.08951313      9.42553352
H       5.25333651     -0.89517914     11.13129331
H       8.59622758     -1.42927589      6.45327569
H      11.29571754     -1.28146860      7.70809075
H       5.54127447     -1.17000529      8.19987618
H      12.53114051     -0.22328247      2.58030119
H      -0.50624532      6.51487553     14.95614780
H      15.24138583      0.01331889      3.77865364
H      15.47978836     -0.53683656      0.82536305
H      -0.27198007      5.22274772     12.27535725
H      18.12755954     -0.30340450      2.05947197
H      18.10956351     -0.76984431     -0.92621965
H      -8.75996309     -0.37642203     18.60285500
H      20.89752136     -0.66617513      0.18338923
H      -9.49191010     -0.97935256     15.32328948
C       7.88365320     -0.25819891      8.59652807
C       8.84955671     -0.45712553      7.18460911
C       6.16789139     -0.24756403      8.74787314
C       5.58852116     -0.07214344     10.30782089
C      10.50370690     -0.40649510      7.43229967
C      13.31631410      0.69985128      2.60066598
C      14.97874339      0.72228312      2.79159877
C      -0.24391448      6.40767537     12.51393444
C      -0.37867869      7.22111011     13.95343683
C      15.93079024      0.49229749      1.36652242
C      17.66057733      0.46065837      1.19089762
C      18.53217152      0.22359743     -0.29820446
C      20.25135817      0.19992911     -0.42657454
C      -9.41529573     -0.42239784     16.35328839
C      -9.31701444      0.33165647     17.76891480
H      20.82933297      0.02878445     -1.51038389
H     -10.43423099      0.61743450     18.18997048
H       8.28878891      0.78259852      9.15003369
H       5.46125002      0.91235688     11.00385213
H       8.57992629      0.25958933      6.20590078
H      11.27162358      0.52977464      7.48533085
H       5.53177598      0.52268392      8.00843066
H      12.52832519      1.58900383      2.36089305
H       0.57428231      7.92340087     14.30037036
H      15.24687637      1.69874256      3.51301100
H      15.48076990      1.30213178      0.53159977
H      -0.10306911      6.82890368     11.38942717
H      18.13100076      1.45322329      1.78220313
H      18.11279086      0.97681582     -1.20188767
H      -8.67658532      1.37553381     17.68357912
H      20.90134672      1.20865409     -0.11085911
H      -1.33791696      7.99661502     13.98020717
