   94

C       7.13610992     -6.84372872     -7.67322266
C       5.65252105     -7.60922230     -7.24847599
H       7.40631988     -6.04175641     -6.76096319
C     -10.35223719     -0.90292630      5.86262389
H     -18.89185999     -7.18329685     -1.80818867
H       4.66667289     -6.95116223     -6.87927203
C       9.84392006     -1.88931490      8.26508052
H       5.63682396     -8.42081831     -6.31075499
H      -7.56622560     -6.01512687    -16.99155064
H      -7.55851441     -6.78452087    -16.86359197
C      10.13666092      2.29285474      6.92656094
H      11.14966769      2.61840472      7.53824728
C       9.61225115     -2.85030851      6.96849393
H       7.64178064      3.80266397     -4.42874540
H      10.75987511     -2.66701879      6.57425893
H      -0.14324894     -7.37313387     12.68691924
C       8.66436962     -4.13343268      7.08099446
H       7.66301338     -4.33241503      7.77105564
C       6.12677865      5.62771356     -3.61374223
H       9.05656243     -5.27574696      7.32165345
H       6.79813272      6.57654639     -4.06025039
H       5.07244088      6.10482843     -4.05859085
C       6.54045943      4.31363724     -4.66645980
H       6.90897697      4.85702674     -7.23045655
C       6.21826884      4.49169622     -6.30347733
H       6.28675806      3.11346078     -4.50992602
H       5.20157117      4.33473571     -6.94750670
H      -3.00364170     13.84794703     10.96428889
C       8.55707945     -7.65691902     -8.22158053
H     -10.74359595      0.21633235      5.71281672
H     -19.27118577     -7.16726916     -1.12682601
C       0.53424371     -6.42643055      1.99231562
H     -11.01390178     -1.78378982      5.39934946
C      -1.16836751     -7.12813881     13.27900883
H      -0.28197753     -6.89520472      2.67657734
H      -3.40368981     -8.07765133     13.53438852
H      -1.16511451     -5.92173120     13.19490827
C      -3.76246754     -0.05256756     -7.36662863
H       6.58353295      6.88354731     -1.63577536
C       4.61083624      5.87098538     -0.93944071
H      -4.35003564      0.80321422     -7.89177108
H       4.53155512      6.66841039      0.01038224
H       4.13149786      4.88659376     -0.36222727
H       3.49884982      6.17103114     -1.38982213
H       8.85214324     -7.47622444     -9.41439840
H       8.43478903     -8.86228849     -8.48127198
H      10.61850139     -8.31455266     -6.70249909
H       7.98976281      0.05723629      9.62652475
H      11.38635313     -0.93623782      8.89467103
H      -2.03575366     -9.35619581     13.92867335
H       8.00734773      1.17863340      7.07916459
H      -8.74525928     -4.13752018     22.51987819
H       5.30719112     13.65660482     17.32018644
H       3.19716894     13.73754317     20.39422849
H      10.84840147     -1.20612162     11.87142502
H      17.27663155      4.29847217      0.29107835
H      -4.76069122     12.91560322     10.67017769
H      17.96680581      4.44684818      0.62280753
H       1.28497187      1.77933824    -18.00471786
H       7.67749077     -3.25138990      5.02790637
H       6.89421282     -5.89466015     -8.44437597
H      11.81802603      0.19288208     11.25468810
C      -9.02049327     -1.20442128      6.63797963
C      -2.26250834     -8.14629052     13.99852837
C       9.06256486      0.48169687      9.17105908
C      10.26561170     -0.71793936      9.33314833
C       9.04593546      1.30620919      7.71007183
C       5.06099461     14.16835493     18.39426950
C      10.99074423     -0.59795726     10.83574887
C      -4.20577633     14.01157900     10.75400828
C       3.98827801     13.73668777     19.51723300
C       7.15782747      4.77562335     -1.08467655
C      11.45576982      1.82272927      4.17326817
C      10.80079287      1.85740448      5.53772447
C      10.00175841     -7.52931790     -7.38748836
C       6.06485978      5.77371110     -1.87519956
C       8.70057297     -3.29983314      5.70862650
H       8.25299611      4.96763975     -0.60427346
H       5.02659086     -8.26947174     -8.09147714
H      -8.03208998     -1.42818700      7.21343874
H      -8.61696058     -3.46529670     22.89411747
H      -2.38561986     -7.98143464     15.21515161
H       9.66806370      3.39683006      6.66852668
H       8.87679287      1.38123454     10.00306441
H       6.16786904     14.14278373     17.90673724
H       4.84613165     15.28474149     18.82381884
H      -3.34387520     -1.00225913     -6.84104356
H       7.13998770      3.60464667     -0.77457897
H      -4.35764540     14.63019125      9.70026461
H       1.33999177     -5.95342915      1.29861528
H       1.22522505      2.55375970    -18.07614389
H       9.12092234     -3.18704830      4.55683254
H      10.79251498     -6.61774026     -7.27395708
H      -4.70112699     14.65257452     11.68130192
   94

C       7.13641118     -6.84440163     -7.67315231
C       5.65330388     -7.61076034     -7.24853509
H       7.40640444     -6.04197755     -6.76121911
C     -10.35230488     -0.90295347      5.86267081
H     -18.89188605     -7.18330949     -1.80818103
H       4.66684336     -6.95384603     -6.87904391
C       9.84728174     -1.89174583      8.26782562
H       5.63855674     -8.42243320     -6.31086337
H      -7.59171968     -6.04208534    -16.98418067
H      -7.58397036     -6.81147745    -16.85621327
C      10.13678788      2.29462616      6.93053713
H      11.15015149      2.62017439      7.54167699
C       9.61588391     -2.85472480      6.97295423
H       7.59278576      3.79065554     -4.28857938
H      10.76468734     -2.67587229      6.57991137
H      -0.14327155     -7.37316689     12.68696184
C       8.66610445     -4.13642967      7.08564346
H       7.66576788     -4.33507425      7.77724454
C       6.10407412      5.63339905     -3.52924521
H       9.05676132     -5.27957002      7.32479727
H       6.78320841      6.58000839     -3.96936054
H       5.05473760      6.12077874     -3.97389019
C       6.51313975      4.31905284     -4.59482627
H       7.23071282      4.95425363     -7.99650548
C       6.84060098      4.42945895     -6.99537309
H       6.22042359      3.12892635     -4.42136720
H       4.98769708      4.30581590     -6.65279545
H      -3.00372863     13.84798780     10.96430104
C       8.55675164     -7.65829108     -8.22195146
H     -10.74366410      0.21630526      5.71286514
H     -19.27121011     -7.16728043     -1.12681745
C       0.53393363     -6.42664663      1.99230329
H     -11.01396512     -1.78381601      5.39938815
C      -1.16839169     -7.12816953     13.27904719
H      -0.28201306     -6.89549314      2.67684053
H      -3.40371402     -8.07768021     13.53441983
H      -1.16513657     -5.92176183     13.19495135
C      -3.77497964     -0.05867558     -7.36658622
H       6.55939257      6.89387458     -1.54786505
C       4.58714710      5.88465773     -0.84991546
H      -4.35779015      0.80025152     -7.89192868
H       4.50788442      6.68163611      0.10044782
H       4.10533816      4.90144716     -0.27258247
H       3.47630033      6.18727717     -1.30078781
H       8.85112625     -7.47862924     -9.41508697
H       8.43458037     -8.86365572     -8.48169998
H      10.61626288     -8.31542800     -6.70035362
H       7.98993576      0.05515499      9.62563193
H      11.38857789     -0.92843248      8.89253076
H      -2.03577874     -9.35622638     13.92870605
H       8.00905237      1.17668778      7.07903343
H      -8.74526545     -4.13752331     22.51988744
H       5.28325122     13.65049904     17.31937461
H       3.19921202     13.72575119     20.39099290
H      10.84516965     -1.21555007     11.87139719
H      17.28238581      4.30148462      0.28740224
H      -4.76077836     12.91564269     10.67018808
H      17.97257808      4.44994854      0.61905315
H       1.15638355      1.75794412    -18.16976296
H       7.67604941     -3.24378248      5.03733065
H       6.89488397     -5.89442708     -8.44330108
H      11.81717647      0.18470238     11.26090125
C      -9.02056595     -1.20445238      6.63803402
C      -2.26253397     -8.14632142     13.99856239
C       9.06325580      0.48030244      9.17206502
C      10.26728076     -0.71837701      9.33401779
C       9.04639387      1.30581576      7.71168126
C       5.06239159     14.17416079     18.39396706
C      10.98993506     -0.60402769     10.83810542
C      -4.20586296     14.01161825     10.75401776
C       3.99146527     13.73651067     19.51557292
C       7.13116786      4.79205773     -0.98477348
C      11.45621721      1.81524629      4.17830858
C      10.79986749      1.85781713      5.54174904
C      10.00109684     -7.53074209     -7.38738081
C       6.04013988      5.78435377     -1.78788362
C       8.70118652     -3.30101442      5.71429680
H       8.22479407      4.98550018     -0.50098282
H       5.02785511     -8.27083406     -8.09202025
H      -8.03216665     -1.42822428      7.21349773
H      -8.61696665     -3.46529976     22.89412657
H      -2.38564596     -7.98146517     15.21518537
H       9.66909380      3.39946287      6.67441501
H       8.87727221      1.37879551     10.00512435
H       6.17826010     14.14285913     17.92565844
H       4.85327462     15.29705661     18.81132497
H      -3.35126417     -1.00601088     -6.84082027
H       7.11317307      3.62292775     -0.66746366
H      -4.35773241     14.63023139      9.70027472
H       1.34003416     -5.95384886      1.29887630
H       1.09656413      2.53235378    -18.24125711
H       9.12082591     -3.19280983      4.56176150
H      10.79253644     -6.61962102     -7.27507843
H      -4.70121364     14.65261371     11.68131139
   94

C       7.13667072     -6.84492397     -7.67283429
C       5.65400375     -7.61210316     -7.24841126
H       7.40642664     -6.04201509     -6.76124796
C     -10.35235833     -0.90297858      5.86270019
H     -18.89189834     -7.18331501     -1.80817670
H       4.66695196     -6.95629996     -6.87864450
C       9.85066963     -1.89411650      8.27038322
H       5.64018566     -8.42385024     -6.31078963
H      -7.61723761     -6.06907065    -16.97674741
H      -7.60945690     -6.83846193    -16.84877707
C      10.13692793      2.29635697      6.93410785
H      11.15066520      2.62188367      7.54468263
C       9.61950780     -2.85904101      6.97720277
H       7.55415046      3.84808233     -4.27525841
H      10.76947072     -2.68460633      6.58535987
H      -0.14328825     -7.37319715     12.68699410
C       8.66783126     -4.13932570      7.09006674
H       7.66853359     -4.33762981      7.78323403
C       6.06977740      5.65445723     -3.43550511
H       9.05696164     -5.28327820      7.32775352
H       6.75667180      6.59444143     -3.87855458
H       5.02225307      6.15552375     -3.86981838
C       6.44440328      4.34285034     -4.51779454
H       7.65751237      4.91318733     -8.62687869
C       7.15990158      4.37423189     -7.68815641
H       6.18643744      3.14745226     -4.32777342
H       4.96476643      4.29572354     -6.40911997
H      -3.00383421     13.84804226     10.96434201
C       8.55632978     -7.65957883     -8.22211620
H     -10.74371846      0.21628015      5.71289674
H     -19.27122177     -7.16728547     -1.12681279
C       0.53369522     -6.42671754      1.99220031
H     -11.01401376     -1.78383979      5.39940801
C      -1.16840928     -7.12819841     13.27907701
H      -0.28196304     -6.89566527      2.67701138
H      -3.40373262     -8.07770640     13.53444416
H      -1.16515186     -5.92179055     13.19498612
C      -3.78604949     -0.06395634     -7.36642588
H       6.53968807      6.90504601     -1.45087351
C       4.56675760      5.89695651     -0.75074089
H      -4.36415691      0.79803989     -7.89197495
H       4.48941247      6.69149789      0.20178948
H       4.08561333      4.91259757     -0.17490869
H       3.45480951      6.20194945     -1.19738370
H       8.85001098     -7.48099249     -9.41557675
H       8.43426642     -8.86494369     -8.48190077
H      10.61396262     -8.31621309     -6.69805601
H       7.99015483      0.05314633      9.62454830
H      11.39075466     -0.92061376      8.89027512
H      -2.03579838     -9.35625418     13.92873129
H       8.01081477      1.17476364      7.07864940
H      -8.74527141     -4.13752724     22.51989672
H       5.25911873     13.64454131     17.31893820
H       3.20138165     13.71393699     20.38762948
H      10.84192850     -1.22494528     11.87118396
H      17.28753355      4.30454785      0.28333792
H      -4.76088376     12.91569470     10.67022509
H      17.97774544      4.45304902      0.61493078
H       1.02733987      1.73650594    -18.33511533
H       7.67470073     -3.23603640      5.04654978
H       6.89550689     -5.89406547     -8.44200090
H      11.81632450      0.17650707     11.26691951
C      -9.02062582     -1.20448258      6.63807285
C      -2.26255371     -8.14634944     13.99858894
C       9.06398225      0.47897154      9.17285012
C      10.26895755     -0.71877222      9.33472038
C       9.04690139      1.30545619      7.71304350
C       5.06381324     14.17991690     18.39347311
C      10.98913070     -0.61010215     10.84027570
C      -4.20596790     14.01167007     10.75405333
C       3.99472029     13.73637734     19.51388817
C       7.11101369      4.80234057     -0.89889090
C      11.45613212      1.80793429      4.18266047
C      10.79883944      1.85828250      5.54526935
C      10.00035439     -7.53207238     -7.38708949
C       6.01714460      5.79771425     -1.69313787
C       8.70181156     -3.30208255      5.71974525
H       8.20346280      4.99449305     -0.41186860
H       5.02903542     -8.27199388     -8.09238494
H      -8.03223203     -1.42826266      7.21354299
H      -8.61697261     -3.46530372     22.89413589
H      -2.38566648     -7.98149329     15.21521174
H       9.67013907      3.40206143      6.67992735
H       8.87781294      1.37641859     10.00696617
H       6.18844756     14.14300843     17.94483330
H       4.86061143     15.30918326     18.79860589
H      -3.35732272     -1.00895958     -6.84048824
H       7.09363597      3.63300761     -0.58310713
H      -4.35783742     14.63028420      9.70031096
H       1.34012981     -5.95407845      1.29905421
H       0.96746223      2.51090678    -18.40665704
H       9.12067350     -3.19834980      4.56646948
H      10.79246074     -6.62140015     -7.27598153
H      -4.70131952     14.65266608     11.68134605
   94

C       7.13690305     -6.84490453     -7.67241642
C       5.65469800     -7.61297387     -7.24822279
H       7.40641574     -6.04149826     -6.76118342
C     -10.35238388     -0.90299202      5.86269713
H     -18.89189700     -7.18331362     -1.80817507
H       4.66705668     -6.95828210     -6.87818243
C       9.85405215     -1.89650747      8.27300178
H       5.64180443     -8.42481467     -6.31066674
H      -7.64270510     -6.09600839    -16.96929221
H      -7.63489788     -6.86539938    -16.84132192
C      10.13708386      2.29807722      6.93785393
H      11.15120143      2.62357566      7.54785740
C       9.62312075     -2.86337449      6.98151512
H       7.52180148      3.88508891     -4.24146784
H      10.77422475     -2.69334230      6.59088185
H      -0.14330880     -7.37322653     12.68702166
C       8.66955432     -4.14224028      7.09454926
H       7.67128790     -4.34021364      7.78926300
C       6.03751080      5.67085508     -3.33735838
H       9.05714973     -5.28700609      7.33075228
H       6.72919743      6.60593972     -3.78358263
H       4.99066659      6.17374861     -3.77142848
C       6.39060279      4.35504158     -4.41561764
H       8.02147547      4.83774289     -9.26855704
C       7.40433655      4.36582542     -8.37369700
H       6.15555241      3.15608580     -4.22556208
H       5.08404762      4.32297473     -6.23873631
H      -3.00394031     13.84809162     10.96437111
C       8.55582056     -7.66043542     -8.22218339
H     -10.74374372      0.21626693      5.71289492
H     -19.27122073     -7.16728427     -1.12681132
C       0.53347290     -6.42668576      1.99201338
H     -11.01403600     -1.78385239      5.39939873
C      -1.16843027     -7.12822622     13.27910268
H      -0.28188197     -6.89575308      2.67710396
H      -3.40375390     -8.07773155     13.53446408
H      -1.16517143     -5.92181828     13.19501631
C      -3.79598178     -0.06863352     -7.36608207
H       6.51596675      6.91710527     -1.35270153
C       4.54188207      5.90869470     -0.65360684
H      -4.36949460      0.79632357     -7.89183913
H       4.46390523      6.70168937      0.30007335
H       4.06057967      4.92346787     -0.07959054
H       3.43016989      6.21487386     -1.09984852
H       8.84881003     -7.48293880     -9.41596928
H       8.43386812     -8.86580490     -8.48200165
H      10.61161555     -8.31662115     -6.69574616
H       7.99036536      0.05110372      9.62356693
H      11.39286354     -0.91286235      8.88812709
H      -2.03582047     -9.35628088     13.92875238
H       8.01257012      1.17283483      7.07841101
H      -8.74527783     -4.13753094     22.51990468
H       5.23478689     13.63875907     17.31885405
H       3.20367434     13.70211184     20.38413380
H      10.83871125     -1.23433934     11.87099463
H      17.29241274      4.30765276      0.27906243
H      -4.76098944     12.91574116     10.67024904
H      17.98264166      4.45616301      0.61061569
H       0.89824602      1.71503354    -18.50039503
H       7.67344096     -3.22836167      5.05583913
H       6.89610842     -5.89314232     -8.44057837
H      11.81549929      0.16826688     11.27292871
C      -9.02065787     -1.20450122      6.63807859
C      -2.26257636     -8.14637648     13.99861152
C       9.06469943      0.47760646      9.17374729
C      10.27062481     -0.71920396      9.33549296
C       9.04740632      1.30508112      7.71453370
C       5.06526490     14.18560147     18.39278363
C      10.98835508     -0.61621550     10.84246877
C      -4.20607321     14.01171640     10.75407587
C       3.99803701     13.73627732     19.51217312
C       7.08788347      4.81554255     -0.80418959
C      11.45610074      1.80063232      4.18724414
C      10.79785419      1.85874875      5.54897487
C       9.99953658     -7.53299470     -7.38671537
C       5.99220680      5.81068423     -1.59553764
C       8.70243735     -3.30316218      5.72526329
H       8.18001807      5.00748339     -0.31632246
H       5.03021540     -8.27269036     -8.09268463
H      -8.03227044     -1.42828988      7.21355623
H      -8.61697907     -3.46530749     22.89414399
H      -2.38568966     -7.98152031     15.21523413
H       9.67120086      3.40465575      6.68566330
H       8.87834274      1.37400219     10.00892300
H       6.19842509     14.14324546     17.96426119
H       4.86813085     15.32110114     18.78564794
H      -3.36223542     -1.01127776     -6.83998879
H       7.07185420      3.64653620     -0.48770187
H      -4.35794188     14.63033076      9.70033357
H       1.34022052     -5.95417856      1.29914151
H       0.83831094      2.48942488    -18.57199258
H       9.12047945     -3.20390328      4.57125086
H      10.79228544     -6.62275697     -7.27676681
H      -4.70142590     14.65271316     11.68136745
   94

C       7.13710889     -6.84431987     -7.67202413
C       5.65541021     -7.61337282     -7.24805803
H       7.40638351     -6.04042135     -6.76114015
C     -10.35240272     -0.90300250      5.86269098
H     -18.89189330     -7.18331118     -1.80817396
H       4.66717097     -6.95981047     -6.87774199
C       9.85741493     -1.89884746      8.27555862
H       5.64344610     -8.42532465     -6.31057980
H      -7.66811923     -6.12290294    -16.96182657
H      -7.66029242     -6.89229407    -16.83385856
C      10.13716297      2.29983644      6.94146843
H      11.15167399      2.62529930      7.55088122
C       9.62670444     -2.86765507      6.98577102
H       7.48637575      3.90868828     -4.18306395
H      10.77893042     -2.70200707      6.59635582
H      -0.14332751     -7.37325157     12.68704369
C       8.67125929     -4.14510674      7.09897377
H       7.67402648     -4.34275459      7.79523092
C       6.00468026      5.68487184     -3.24347015
H       9.05732220     -5.29067918      7.33369983
H       6.70034591      6.61673899     -3.69054325
H       4.95852919      6.18511465     -3.68178953
C       6.34566975      4.36624880     -4.31684095
H       8.33573513      4.76354839     -9.89604805
C       7.67052651      4.36183583     -9.01064165
H       6.11458979      3.16675267     -4.13367769
H       5.24836459      4.36210374     -6.10072157
H      -3.00403917     13.84813419     10.96438910
C       8.55524166     -7.66082845     -8.22224562
H     -10.74376214      0.21625668      5.71289004
H     -19.27121750     -7.16728215     -1.12681046
C       0.53327136     -6.42660673      1.99180037
H     -11.01405202     -1.78386214      5.39938731
C      -1.16844908     -7.12824995     13.27912359
H      -0.28177558     -6.89580259      2.67716983
H      -3.40377268     -8.07775312     13.53448015
H      -1.16518903     -5.92184194     13.19504108
C      -3.80580067     -0.07328657     -7.36578254
H       6.49082209      6.92804064     -1.25880790
C       4.51643905      5.91996213     -0.56003582
H      -4.37466821      0.79463655     -7.89174107
H       4.43817541      6.71167476      0.39463053
H       4.03472634      4.93427822      0.01264100
H       3.40529517      6.22746853     -1.00634413
H       8.84754821     -7.48442007     -9.41635232
H       8.43339884     -8.86620433     -8.48210358
H      10.60920977     -8.31665714     -6.69348058
H       7.99056020      0.04911683      9.62251277
H      11.39488658     -0.90509796      8.88596085
H      -2.03583998     -9.35630382     13.92876952
H       8.01427819      1.17095325      7.07809010
H      -8.74528360     -4.13753420     22.51991166
H       5.21025787     13.63317459     17.31909936
H       3.20609370     13.69027071     20.38050284
H      10.83548277     -1.24368198     11.87070686
H      17.29712786      4.31077738      0.27468781
H      -4.76108791     12.91578144     10.67026268
H      17.98737438      4.45928213      0.60620698
H       0.76931897      1.69361994    -18.66527276
H       7.67224555     -3.22066072      5.06508669
H       6.89669927     -5.89162571     -8.43915151
H      11.81466300      0.16003288     11.27881437
C      -9.02068239     -1.20451611      6.63807999
C      -2.26259635     -8.14639971     13.99862998
C       9.06539386      0.47629258      9.17455821
C      10.27226168     -0.71958770      9.33620082
C       9.04786478      1.30474910      7.71593221
C       5.06675569     14.19119260     18.39189153
C      10.98756476     -0.62230877     10.84456454
C      -4.20617138     14.01175658     10.75408826
C       4.00141749     13.73620722     19.51042521
C       7.06321665      4.82868862     -0.71059968
C      11.45579011      1.79347628      4.19162990
C      10.79675675      1.85927725      5.55252427
C       9.99864959     -7.53350923     -7.38632679
C       5.96607090      5.82233231     -1.50211616
C       8.70304378     -3.30418582      5.73073222
H       8.15464817      5.02084851     -0.22108324
H       5.03141898     -8.27292756     -8.09300509
H      -8.03230058     -1.42831243      7.21356418
H      -8.61698489     -3.46531082     22.89415111
H      -2.38571016     -7.98154368     15.21525243
H       9.67217567      3.40728213      6.69127312
H       8.87886262      1.37163555     10.01079456
H       6.20819282     14.14357140     17.98394732
H       4.87582959     15.33279070     18.77243264
H      -3.36699349     -1.01352300     -6.83953546
H       7.04846027      3.66018891     -0.39248293
H      -4.35803887     14.63037054      9.70034560
H       1.34032500     -5.95421769      1.29920379
H       0.70933710      2.46800350    -18.73691596
H       9.12021647     -3.20936668      4.57598670
H      10.79203621     -6.62370745     -7.27751297
H      -4.70152503     14.65275426     11.68137864
   94

C       7.13730534     -6.84308121     -7.67172419
C       5.65617902     -7.61324404     -7.24796753
H       7.40634381     -6.03868938     -6.76118955
C     -10.35243133     -0.90301688      5.86269381
H     -18.89188991     -7.18330918     -1.80817342
H       4.66732550     -6.96084338     -6.87737084
C       9.86078234     -1.90117325      8.27808798
H       5.64515984     -8.42532220     -6.31057660
H      -7.69348042     -6.14975749    -16.95435114
H      -7.68564220     -6.91914919    -16.82638735
C      10.13724875      2.30158626      6.94503985
H      11.15216286      2.62699932      7.55385320
C       9.63027986     -2.87190846      6.98999531
H       7.44739600      3.93242147     -4.12155819
H      10.78360907     -2.71062674      6.60180685
H      -0.14334581     -7.37327854     12.68706828
C       8.67296479     -4.14794932      7.10336147
H       7.67676799     -4.34527676      7.80115944
C       5.97214831      5.69811078     -3.15161196
H       9.05749455     -5.29432341      7.33661543
H       6.67237155      6.62690599     -3.59852057
H       4.92727895      6.19814625     -3.59274512
C       6.29990045      4.37957783     -4.22670721
H       8.65332745      4.70377534    -10.53057641
C       7.98305335      4.34252256     -9.64110127
H       6.06963714      3.18045019     -4.04717345
H       5.36495490      4.38980241     -5.94260322
H      -3.00414321     13.84818327     10.96441599
C       8.55461483     -7.66067179     -8.22235330
H     -10.74379070      0.21624250      5.71289461
H     -19.27121465     -7.16728052     -1.12681022
C       0.53308405     -6.42652516      1.99158762
H     -11.01407673     -1.78387554      5.39938282
C      -1.16846754     -7.12827593     13.27914711
H      -0.28165598     -6.89585110      2.67723367
H      -3.40379147     -8.07777673     13.53449856
H      -1.16520597     -5.92186777     13.19506939
C      -3.81571004     -0.07802342     -7.36559431
H       6.46613668      6.93838518     -1.16604018
C       4.49191446      5.93142534     -0.46637657
H      -4.37984416      0.79289622     -7.89174694
H       4.41389847      6.72182295      0.48939278
H       4.00974229      4.94547228      0.10529917
H       3.38115961      6.24059157     -0.91208381
H       8.84625096     -7.48535122     -9.41677529
H       8.43288973     -8.86605794     -8.48225232
H      10.60675810     -8.31622087     -6.69129141
H       7.99076684      0.04714093      9.62144594
H      11.39685122     -0.89736957      8.88382278
H      -2.03585958     -9.35632891     13.92878866
H       8.01600073      1.16908760      7.07775321
H      -8.74529003     -4.13753802     22.51992029
H       5.18553499     13.62781907     17.31967060
H       3.20863977     13.67841484     20.37674879
H      10.83226948     -1.25300419     11.87037010
H      17.30165451      4.31391526      0.27015316
H      -4.76119176     12.91582836     10.67028544
H      17.99191490      4.46239961      0.60165288
H       0.64058546      1.67227638    -18.82976655
H       7.67114115     -3.21296191      5.07430948
H       6.89729646     -5.88943273     -8.43779436
H      11.81384476      0.15177202     11.28462288
C      -9.02071759     -1.20453528      6.63809189
C      -2.26261635     -8.14642508     13.99865075
C       9.06609565      0.47498631      9.17535100
C      10.27389521     -0.71997357      9.33689349
C       9.04833441      1.30442588      7.71731205
C       5.06829508     14.19667675     18.39080933
C      10.98679409     -0.62842055     10.84660889
C      -4.20627466     14.01180330     10.75410917
C       4.00486024     13.73617085     19.50865733
C       7.03871942      4.84148378     -0.61816803
C      11.45532160      1.78639908      4.19591565
C      10.79563844      1.85982935      5.55600458
C       9.99770751     -7.53352106     -7.38596348
C       5.94008461      5.83355157     -1.41013133
C       8.70365751     -3.30517795      5.73617149
H       8.12918456      5.03386166     -0.12637775
H       5.03268725     -8.27265946     -8.09339158
H      -8.03234199     -1.42834002      7.21358338
H      -8.61699137     -3.46531472     22.89415990
H      -2.38573083     -7.98156952     15.21527309
H       9.67315968      3.40990213      6.69686613
H       8.87939805      1.36927196     10.01265157
H       6.21774925     14.14399970     18.00391335
H       4.88370133     15.34424031     18.75895975
H      -3.37181464     -1.01580901     -6.83919303
H       7.02497691      3.67356334     -0.29819239
H      -4.35814058     14.63041640      9.70036583
H       1.34044452     -5.95425048      1.29926988
H       0.58057157      2.44665457    -18.90144111
H       9.11991286     -3.21476222      4.58069620
H      10.79171839     -6.62414943     -7.27825783
H      -4.70162941     14.65280237     11.68139798
   94

C       7.13751718     -6.84123343     -7.67158897
C       5.65704147     -7.61264359     -7.24800134
H       7.40632257     -6.03634709     -6.76140442
C     -10.35246938     -0.90303495      5.86270293
H     -18.89188575     -7.18330711     -1.80817385
H       4.66755421     -6.96144478     -6.87711268
C       9.86416179     -1.90350483      8.28062212
H       5.64699162     -8.42486210     -6.31070561
H      -7.71878707     -6.17657123    -16.94686835
H      -7.71094623     -6.94596383    -16.81891022
C      10.13737255      2.30330842      6.94864924
H      11.15269921      2.62865824      7.55685493
C       9.63385578     -2.87615566      6.99422044
H       7.40681204      3.95702686     -4.05829766
H      10.78826931     -2.71922210      6.60726612
H      -0.14336510     -7.37330960     12.68709760
C       8.67467792     -4.15078754      7.10774539
H       7.67951684     -4.34780080      7.80707719
C       5.94016799      5.71158779     -3.05850703
H       9.05767086     -5.29796049      7.33952488
H       6.64539823      6.63680828     -3.50554993
H       4.89686986      6.21367916     -3.50071079
C       6.25318479      4.39332393     -4.13720295
H       8.99008758      4.65437527    -11.18775246
C       8.32426475      4.30866292    -10.29880173
H       6.02448961      3.19467398     -3.95792277
H       5.43095724      4.40764310     -5.75565318
H      -3.00425678     13.84824216     10.96445650
C       8.55398361     -7.65997837     -8.22257718
H     -10.74382896      0.21622458      5.71290586
H     -19.27121119     -7.16727892     -1.12681102
C       0.53290505     -6.42644672      1.99137457
H     -11.01410966     -1.78389248      5.39938254
C      -1.16848712     -7.12830616     13.27917515
H      -0.28152896     -6.89590317      2.67729568
H      -3.40381181     -8.07780405     13.53452065
H      -1.16522384     -5.92189779     13.19510354
C      -3.82563834     -0.08279413     -7.36548497
H       6.44187372      6.94906588     -1.07184271
C       4.46759254      5.94326696     -0.37122516
H      -4.38497176      0.79113571     -7.89182725
H       4.38987009      6.73233606      0.58566007
H       3.98492052      4.95704653      0.19944626
H       3.35713534      6.25418201     -0.81610126
H       8.84496029     -7.48573312     -9.41730733
H       8.43239709     -8.86537882     -8.48252119
H      10.60429766     -8.31528661     -6.68922967
H       7.99099061      0.04515233      9.62041364
H      11.39876748     -0.88969899      8.88174553
H      -2.03588070     -9.35635790     13.92881118
H       8.01775343      1.16721829      7.07746373
H      -8.74529757     -4.13754267     22.51993107
H       5.16062107     13.62272099     17.32055910
H       3.21131259     13.66654535     20.37287950
H      10.82908162     -1.26231812     11.87001641
H      17.30602405      4.31706377      0.26544440
H      -4.76130536     12.91588478     10.67032133
H      17.99629237      4.46551554      0.59694272
H       0.51209628      1.65100248    -18.99393055
H       7.67013528     -3.20529661      5.08353944
H       6.89792268     -5.88661095     -8.43658221
H      11.81305592      0.14347318     11.29038465
C      -9.02076356     -1.20455903      6.63811215
C      -2.26263800     -8.14645444     13.99867540
C       9.06681218      0.47366421      9.17617921
C      10.27553476     -0.72038443      9.33760580
C       9.04883282      1.30409300      7.71873212
C       5.06989232     14.20203715     18.38954498
C      10.98605598     -0.63456442     10.84863359
C      -4.20638729     14.01185938     10.75414240
C       4.00836188     13.73616780     19.50687609
C       7.01439155      4.85453376     -0.52432608
C      11.45477706      1.77936553      4.20020717
C      10.79454456      1.86038259      5.55950493
C       9.99675093     -7.53301882     -7.38569590
C       5.91441319      5.84516139     -1.31667790
C       8.70428742     -3.30616022      5.74161385
H       8.10406896      5.04699552     -0.03062340
H       5.03405488     -8.27194703     -8.09388862
H      -8.03239523     -1.42837336      7.21361232
H      -8.61699900     -3.46531945     22.89417086
H      -2.38575321     -7.98159954     15.21529762
H       9.67418809      3.41250208      6.70253924
H       8.87995242      1.36688855     10.01454629
H       6.22709073     14.14454401     18.02417186
H       4.89173909     15.35543434     18.74522578
H      -3.37663566     -1.01809059     -6.83893172
H       7.00162618      3.68719115     -0.20252657
H      -4.35825126     14.63047134      9.70039817
H       1.34057331     -5.95428457      1.29933814
H       0.45206819      2.42537779    -19.06562377
H       9.11957934     -3.22012136      4.58541200
H      10.79136410     -6.62406244     -7.27908472
H      -4.70174330     14.65286027     11.68142923
   94

C       7.13776334     -6.83896532     -7.67165884
C       5.65800802     -7.61173091     -7.24818168
H       7.40634113     -6.03358946     -6.76182130
C     -10.35251177     -0.90305472      5.86271452
H     -18.89188029     -7.18330464     -1.80817523
H       4.66787003     -6.96177262     -6.87698409
C       9.86754754     -1.90583517      8.28315663
H       5.64895591     -8.42409885     -6.31098586
H      -7.74403983     -6.20334499    -16.93938421
H      -7.73620547     -6.97273869    -16.81143234
C      10.13751536      2.30501295      6.95228232
H      11.15326488      2.63028713      7.55986973
C       9.63742722     -2.88039236      6.99844427
H       7.36560855      3.98151236     -3.99298408
H      10.79290618     -2.72778868      6.61273095
H      -0.14338510     -7.37334331     12.68712963
C       8.67639437     -4.15361754      7.11212459
H       7.68226880     -4.35032293      7.81298330
C       5.90848027      5.72542878     -2.96420320
H       9.05784763     -5.30158611      7.34242766
H       6.61881522      6.64676501     -3.41172225
H       4.86682718      6.23014122     -3.40705513
C       6.20671109      4.40708272     -4.04603949
H       9.33717879      4.60864834    -11.85842623
C       8.67598809      4.26683577    -10.97494762
H       5.97939673      3.20890745     -3.86661867
H       5.47394252      4.42164253     -5.55322364
H      -3.00437751     13.84830787     10.96450642
C       8.55339378     -7.65887556     -8.22297510
H     -10.74387171      0.21620495      5.71291979
H     -19.27120657     -7.16727704     -1.12681286
C       0.53273472     -6.42636134      1.99115712
H     -11.01414626     -1.78391104      5.39938365
C      -1.16850747     -7.12833916     13.27920584
H      -0.28139311     -6.89595043      2.67735189
H      -3.40383317     -8.07783378     13.53454483
H      -1.16524243     -5.92193053     13.19514123
C      -3.83558191     -0.08758346     -7.36541500
H       6.41775243      6.96004317     -0.97655053
C       4.44318890      5.95527806     -0.27523560
H      -4.39006400      0.78935717     -7.89194475
H       4.36568665      6.74302319      0.68274225
H       3.95998791      4.96876505      0.29436444
H       3.33303457      6.26794258     -0.71931045
H       8.84371594     -7.48567578     -9.41800538
H       8.43197076     -8.86429160     -8.48297472
H      10.60186496     -8.31394416     -6.68732900
H       7.99122481      0.04315897      9.61940544
H      11.40063051     -0.88207699      8.87972209
H      -2.03590281     -9.35638941     13.92883559
H       8.01952231      1.16535037      7.07720912
H      -8.74530594     -4.13754791     22.51994331
H       5.13551976     13.61790568     17.32175108
H       3.21411316     13.65466259     20.36889879
H      10.82591365     -1.27161731     11.86963882
H      17.31029916      4.32021835      0.26061125
H      -4.76142622     12.91594771     10.67036612
H      18.00057161      4.46863090      0.59211923
H       0.38393070      1.62980075    -19.15781247
H       7.66921958     -3.19766033      5.09277639
H       6.89859113     -5.88335618     -8.43556169
H      11.81228986      0.13514420     11.29609319
C      -9.02081468     -1.20458500      6.63813606
C      -2.26266076     -8.14648637     13.99870229
C       9.06753626      0.47233422      9.17703103
C      10.27717439     -0.72081050      9.33833031
C       9.04934634      1.30375611      7.72017949
C       5.07155687     14.20725412     18.38810135
C      10.98534224     -0.64073138     10.85063246
C      -4.20650693     14.01192187     10.75418393
C       4.01191833     13.73619376     19.50508208
C       6.99007152      4.86777893     -0.42930422
C      11.45412649      1.77239399      4.20448609
C      10.79345286      1.86094455      5.56301097
C       9.99582504     -7.53210993     -7.38558519
C       5.88888735      5.85706764     -1.22205184
C       8.70492670     -3.30712861      5.74705876
H       8.07908254      5.06024233      0.06605726
H       5.03552750     -8.27094484     -8.09451744
H      -8.03245430     -1.42840971      7.21364581
H      -8.61700747     -3.46532478     22.89418331
H      -2.38577671     -7.98163226     15.21532441
H       9.67523937      3.41508965      6.70827383
H       8.88051907      1.36449380     10.01646638
H       6.23621257     14.14521747     18.04472694
H       4.89993623     15.36635346     18.73122422
H      -3.38145385     -1.02035356     -6.83871419
H       6.97830025      3.70098800     -0.10577949
H      -4.35836857     14.63053241      9.70043861
H       1.34071043     -5.95430794      1.29940431
H       0.32390941      2.40417575    -19.22951384
H       9.11920967     -3.22544084      4.59013369
H      10.79102257     -6.62355473     -7.28007546
H      -4.70186434     14.65292495     11.68146844
   94

C       7.13805305     -6.83649417     -7.67192012
C       5.65906569     -7.61067609     -7.24849446
H       7.40640822     -6.03063690     -6.76242447
C     -10.35255506     -0.90307484      5.86272658
H     -18.89187354     -7.18330173     -1.80817744
H       4.66826640     -6.96198739     -6.87696937
C       9.87093409     -1.90815539      8.28568187
H       5.65103735     -8.42319692     -6.31140025
H      -7.76924141     -6.23008089    -16.93190532
H      -7.76142256     -6.99947574    -16.80395936
C      10.13765794      2.30671009      6.95591336
H      11.15384150      2.63189624      7.56287001
C       9.64098857     -2.88461086      7.00265832
H       7.32418899      4.00572842     -3.92673253
H      10.79751419     -2.73631872      6.61819259
H      -0.14340533     -7.37337825     12.68716261
C       8.67810946     -4.15643235      7.11649124
H       7.68502008     -4.35283608      7.81887132
C       5.87703107      5.73952388     -2.86932753
H       9.05802165     -5.30519247      7.34531802
H       6.59236316      6.65683776     -3.31761038
H       4.83700500      6.24652867     -3.31313595
C       6.16102260      4.42103742     -3.95348353
H       9.68741332      4.56391319    -12.53345100
C       9.03031633      4.22158047    -11.65774373
H       5.93422874      3.22330377     -3.77547744
H       5.50881809      4.43430829     -5.34399111
H      -3.00450300     13.84837781     10.96456212
C       8.55287161     -7.65752857     -8.22356228
H     -10.74391541      0.21618497      5.71293427
H     -19.27120077     -7.16727480     -1.12681559
C       0.53257454     -6.42626040      1.99093367
H     -11.01418349     -1.78392994      5.39938480
C      -1.16852802     -7.12837352     13.27923756
H      -0.28124635     -6.89598589      2.67740035
H      -3.40385488     -8.07786465     13.53456982
H      -1.16526125     -5.92196462     13.19518044
C      -3.84556249     -0.09239302     -7.36535439
H       6.39369248      6.97113505     -0.88082402
C       4.41873534      5.96730370     -0.17902306
H      -4.39515451      0.78755065     -7.89206980
H       4.34137211      6.75372731      0.78002960
H       3.93498024      4.98048457      0.38945616
H       3.30891957      6.28170337     -0.62238880
H       8.84253748     -7.48533509     -9.41888545
H       8.43163372     -8.86295847     -8.48363297
H      10.59948108     -8.31233466     -6.68558964
H       7.99146391      0.04117051      9.61840515
H      11.40243551     -0.87449318      8.87774131
H      -2.03592524     -9.35642211     13.92886064
H       8.02129478      1.16349119      7.07696791
H      -8.74531483     -4.13755353     22.51995644
H       5.11023620     13.61339776     17.32323319
H       3.21704282     13.64276774     20.36481083
H      10.82276003     -1.28089493     11.86922686
H      17.31452814      4.32337562      0.25571341
H      -4.76155185     12.91601463     10.67041625
H      18.00480448      4.47174644      0.58723267
H       0.25612319      1.60866050    -19.32149850
H       7.66838574     -3.19004291      5.10201309
H       6.89930175     -5.87989572     -8.43472734
H      11.81153984      0.12679299     11.30173861
C      -9.02086702     -1.20461156      6.63816090
C      -2.26268391     -8.14651954     13.99873004
C       9.06826154      0.47100610      9.17788796
C      10.27880819     -0.72124094      9.33905543
C       9.04986211      1.30342243      7.72163366
C       5.07329842     14.21230795     18.38648146
C      10.98464472     -0.64691237     10.85259553
C      -4.20663122     14.01198833     10.75423042
C       4.01552474     13.73624280     19.50327468
C       6.96574185      4.88105615     -0.33378649
C      11.45332964      1.76550628      4.20871638
C      10.79233757      1.86152528      5.56649448
C       9.99495822     -7.53094866     -7.38565263
C       5.86345174      5.86908056     -1.12695613
C       8.70556842     -3.30807543      5.75249871
H       8.05409064      5.07348220      0.16322807
H       5.03708794     -8.26981344     -8.09526669
H      -8.03251491     -1.42844700      7.21368062
H      -8.61701646     -3.46533051     22.89419668
H      -2.38580062     -7.98166633     15.21535207
H       9.67629204      3.41767276      6.71403850
H       8.88109273      1.36209760     10.01839341
H       6.24510948     14.14603515     18.06557985
H       4.90828630     15.37697765     18.71695080
H      -3.38629248     -1.02260078     -6.83851223
H       6.95496563      3.71478647     -0.00864920
H      -4.35849013     14.63059715      9.70048378
H       1.34085650     -5.95430985      1.29946719
H       0.19612990      2.38303735    -19.39320186
H       9.11879721     -3.23071076      4.59485380
H      10.79073190     -6.62278711     -7.28126627
H      -4.70199021     14.65299389     11.68151229
   94

C       7.13875900     -6.83572456     -7.67257819
C       5.66098620     -7.61206650     -7.24923431
H       7.40663108     -6.02893101     -6.76374143
C     -10.35223719     -0.90292630      5.86262389
H     -18.89185999     -7.18329685     -1.80818867
H       4.66892271     -6.96570656     -6.87723420
C       9.87465546     -1.90962228      8.28691485
H       5.65483288     -8.42466593     -6.31217384
H      -7.79459229     -6.25680611    -16.92497689
H      -7.78688110     -7.02620011    -16.79701822
C      10.13382571      2.31254736      6.95448142
H      11.15083169      2.63822027      7.55986436
C       9.64528507     -2.88866069      7.00618160
H       7.26495422      4.03979606     -3.88178218
H      10.80403476     -2.74870397      6.62476520
H      -0.14325058     -7.37313422     12.68691672
C       8.67978606     -4.15855526      7.11991533
H       7.68840506     -4.35463949      7.82473979
C       5.83964449      5.75446153     -2.76522937
H       9.05745907     -5.30836781      7.34705255
H       6.56426232      6.66320589     -3.21656565
H       4.80270609      6.26335765     -3.21349571
C       6.09653690      4.43538337     -3.84938903
H      10.06135663      4.52405364    -13.26815452
C       9.40869299      4.17304527    -12.41426904
H       5.86762328      3.23830024     -3.68393742
H       5.59441392      4.44215161     -5.00024740
H      -3.00407118     13.84794178     10.96390706
C       8.55242461     -7.65813001     -8.22490546
H     -10.74359595      0.21633235      5.71281672
H     -19.27118577     -7.16726916     -1.12682601
C       0.53237992     -6.42567805      1.99063443
H     -11.01390178     -1.78378982      5.39934946
C      -1.16836746     -7.12813897     13.27900916
H      -0.28105909     -6.89558879      2.67742775
H      -3.40368927     -8.07765248     13.53438752
H      -1.16511283     -5.92173117     13.19491134
C      -3.85857337     -0.09853118     -7.36510218
H       6.37240523      6.97771976     -0.77600276
C       4.39492410      5.97734854     -0.07516082
H      -4.40267786      0.78488785     -7.89190956
H       4.31724302      6.76259607      0.88474654
H       3.90985461      4.99064269      0.49210334
H       3.28602558      6.29459840     -0.51820800
H       8.84076306     -7.48779017     -9.42080166
H       8.43160101     -8.86355089     -8.48517797
H      10.59625439     -8.31219004     -6.68351306
H       7.99011279      0.04153388      9.61132449
H      11.40320064     -0.85638831      8.86920188
H      -2.03575257     -9.35619587     13.92867540
H       8.02129455      1.16276735      7.07017684
H      -8.74525986     -4.13751985     22.51987896
H       5.05957906     13.60585690     17.32595385
H       3.22307639     13.62442962     20.35621151
H      10.81660314     -1.29190537     11.86457108
H      17.32066155      4.32686045      0.25060614
H      -4.76112071     12.91559797     10.66979586
H      18.01083541      4.47523631      0.58233550
H       0.12703865      1.58825898    -19.49091687
H       7.66606808     -3.17408448      5.11369568
H       6.90080786     -5.87726035     -8.43331648
H      11.80954075      0.11654533     11.30588055
C      -9.02049327     -1.20442128      6.63797963
C      -2.26250827     -8.14629068     13.99852871
C       9.06765142      0.47228970      9.17352000
C      10.27958146     -0.71853289      9.33614783
C       9.04774939      1.30550568      7.71767703
C       5.07774554     14.22009589     18.38303177
C      10.98206380     -0.65333410     10.85151148
C      -4.20620582     14.01157376     10.75362645
C       4.02266644     13.73106728     19.49789549
C       6.94239891      4.89139049     -0.22784640
C      11.44681867      1.75797541      4.20820476
C      10.78575592      1.86416572      5.56497208
C       9.99381234     -7.53140662     -7.38602067
C       5.83907566      5.87760515     -1.02290780
C       8.70549973     -3.30685444      5.75780426
H       8.02824943      5.08350182      0.27524923
H       5.03998349     -8.27101395     -8.09686094
H      -8.03208998     -1.42818700      7.21343874
H      -8.61696116     -3.46529637     22.89411823
H      -2.38562123     -7.98143390     15.21515168
H       9.67387121      3.42473361      6.71510545
H       8.88068121      1.36189904     10.01558224
H       6.26255016     14.15033863     18.10587993
H       4.92416322     15.39495382     18.68941011
H      -3.39355426     -1.02590263     -6.83808763
H       6.93258977      3.72653944      0.10208608
H      -4.35807489     14.63018600      9.69988278
H       1.34093780     -5.95379719      1.29944214
H       0.06729184      2.36268043    -19.56234290
H       9.11759497     -3.23731393      4.59913605
H      10.79048242     -6.62382063     -7.28371532
H      -4.70155648     14.65256928     11.68092009
