   94

C       6.82827325     -7.27208290    -13.29937751
C      -3.33980010    -13.05152339    -10.13445385
H       7.50826115     -6.54494797    -12.63093354
C      -0.99689332     -0.86581190      8.13168838
H      -5.84045824      8.56540056     -3.01227928
H       3.14144239     -3.20029186      8.84004624
C       0.28596624     -1.18486384      9.14418671
H       6.49366403     -8.34118029    -12.87160009
H      -9.00629938     -6.97077983    -19.18209263
H      -8.99858819     -7.74017383    -19.05413396
C       7.32836999     -0.23313185     -2.75144413
H      17.20161071      4.50679596     15.04636720
C       8.63724056    -10.46749977      5.10479739
H       8.07698778     10.66976401     -2.79841622
H       8.90295582     -9.70372246      4.26278339
H       2.50425844    -10.90118632     17.33758517
C       7.26023822    -10.94282351      7.57894795
H       6.14352543    -10.59738185      7.18779798
C       7.32334499     10.90195298     -0.58868049
H       6.88175644    -11.68447096      8.48458248
H      16.60176734     13.63080180      6.33870644
H       6.75423682     11.50726370      0.23997820
C       8.09942872     10.07309163     -1.72575227
H      17.25995515     -3.78373109     -6.74261536
C      17.15246684     -4.97199474     -6.76867549
H      -4.58258065     -0.02757876     -4.84088517
H       7.58617180      8.97088536     -1.89557238
H      -3.05886751     10.15666907     10.32819100
C      17.08415908     -6.57366294     -6.98062223
H      -2.10776882     -0.60482064      8.56021353
H      -5.89516520      8.56501242     -1.07906830
C       6.26488301     -3.14453379     -2.32399505
H      -0.04063156     -2.27717216      9.61902167
C       1.47819573    -10.71751696     17.93036419
H       6.11170753     -3.22995092     -1.11015915
H     -10.96213609    -12.27297242     15.66815272
H       1.07348491     -9.60107587     18.09678088
C      -4.82713590     -0.92035779     -5.59738688
H      -2.90598649      8.82353476     -1.76013170
C      -3.44011663     11.24387676     -2.20279258
H      -5.97755592     -1.13815136     -5.83431985
H      -3.63830313     11.92096359     -1.19069026
H      -2.29255166     11.53896941     -2.54142717
H      -4.05083491     11.83184315     -3.09744943
H      17.57246005     -6.55820122     -8.06370869
H      16.95111808     -9.25993597     -7.34105846
H      17.41550999     -9.00890437     -6.04969978
H       2.89729436      0.56184696      6.85333401
H       0.20959523     -0.41997776     10.11055991
H       0.85684386    -11.65028868     18.35672652
H       7.46718244      0.33605244     -3.78782802
H      -9.42675544     -2.95204824     23.99740376
H       4.34725349     15.16486322     22.65560141
H      16.27257844     12.97831467      6.61127793
H       3.33723644     -1.88522676     10.54591266
H      27.34947999      7.72515486     -1.91711422
H      -4.91429134      9.28371614     10.64182163
H      28.03965355      7.87353058     -1.58538466
H      -1.23215979     -1.79217146      5.78495251
H       8.69516994    -12.48468594      6.09360361
H       6.48289458     -6.93012042    -14.39559889
H       4.41120286     -2.00655358      9.21516692
C      -1.11452573     -0.84052920      6.51268131
C     -10.36016020    -12.21606716     16.66242232
C       2.42745983     -0.14732555      7.65559611
C       1.91026396     -1.18091391      8.74728976
C       8.04291679      0.30302156     -1.46617469
C       6.66385011     18.45791938     11.45798041
C       3.19019845     -2.07237529      9.33640392
C      -4.02686818      9.59487651      9.89786545
C       7.61217321     17.63174876     10.62867818
C      -5.22663064      8.88599294     -2.02740010
C      -3.73467718     -1.78649857     -6.31951196
C       6.57643536     -1.60577191     -2.64262606
C      16.79755036     -8.21484593     -6.73851549
C      -3.78430039      9.63315547     -1.98864120
C       8.20358283    -11.40234838      6.30371597
H       9.27551866      9.89420298     -1.42253206
H      -3.11177660    -13.81826260    -10.93541594
H      15.70649021     -8.75968350     -6.69783724
H      -9.29845674     -2.27982476     24.37164303
H      -9.75818431    -12.15916191     17.65669192
H      17.02577631      5.26024907     14.94741978
H       8.61512681      0.57390384     -0.48908126
H       5.04347154     15.37147222     22.94019436
H       5.93746432     19.09111029     12.09387375
H      -3.03731144     -2.42592573     -6.99995992
H      -4.10721125      9.34509752      8.72769266
H      -7.60795419     21.24264930      9.77839801
H       5.27537615     -3.73708998     -2.73444077
H      -1.09667129      0.14263706      5.81714960
H       7.85921375    -10.12246901      8.27756676
H       7.18434037     -3.75326959     -2.85970113
H      -7.74116572     21.25126849     10.54689030
   94

C       6.75095036     -7.27352632    -13.37912678
C      -3.36523525    -13.07286702    -10.12682205
H       7.43091819     -6.54640068    -12.71064858
C      -1.00545391     -0.86592186      8.15775279
H      -5.84304883      8.57397930     -3.00954656
H       3.13323515     -3.20590466      8.86804468
C       0.27836919     -1.18505134      9.16886138
H       6.41635616     -8.34263501    -12.95135950
H      -9.00717513     -6.97156511    -19.18404716
H      -8.99943086     -7.74094548    -19.05600702
C       7.29356365     -0.20294808     -2.72443133
H      17.20180515      4.50599063     15.04736439
C       8.63789857    -10.46866894      5.10530324
H       8.08072017     10.69900259     -2.79787268
H       8.90521560     -9.70657222      4.26232304
H       2.50428495    -10.90137077     17.33785540
C       7.26020256    -10.94286477      7.57984028
H       6.14362596    -10.59349051      7.19181032
C       7.32691992     10.93119266     -0.58803232
H       6.88610808    -11.69131638      8.48179057
H      16.60717274     13.63357041      6.34281915
H       6.75754341     11.53614581      0.24070903
C       8.10325664     10.10255305     -1.72508978
H      16.96174108     -3.77036586     -6.72715270
C      16.83115105     -4.95657650     -6.73665645
H      -2.42755441      0.13929660     -4.35675840
H       7.59033547      9.00020248     -1.89496782
H      -3.06063158     10.16104440     10.32962665
C      16.92985560     -6.55386062     -6.97212472
H      -2.11620623     -0.60414673      8.58596575
H      -5.89909905      8.57657426     -1.07637143
C       6.23406116     -3.11846905     -2.29472968
H      -0.04891636     -2.27689440      9.64413025
C       1.47821421    -10.71770164     17.93062003
H       6.08211354     -3.20729559     -1.08094189
H     -10.96218891    -12.27303780     15.66823395
H       1.07351356     -9.60126390     18.09708184
C      -4.78531791     -1.09973330     -5.77608076
H      -2.90869104      8.83599115     -1.75435504
C      -3.44134141     11.25353029     -2.20159559
H      -5.97670016     -1.07160939     -5.78142923
H      -3.63933638     11.93060099     -1.18950706
H      -2.29353990     11.54785312     -2.53999194
H      -4.05192462     11.84068393     -3.09677654
H      17.46348203     -6.48691653     -8.03210676
H      17.01815039     -9.23342725     -7.36557122
H      17.45937611     -8.95554293     -6.05986313
H       2.88689916      0.56510073      6.88103484
H       0.20296287     -0.41896626     10.13434310
H       0.85683656    -11.65047596     18.35693829
H       7.42477918      0.36833438     -3.76063954
H      -9.42679785     -2.95206134     23.99749616
H       4.34727023     15.16491623     22.65569083
H      16.27799606     12.98108637      6.61541276
H       3.33036630     -1.89631633     10.56952496
H      27.34956980      7.72519295     -1.91710270
H      -4.91627476      9.28794196     10.64324454
H      28.03974311      7.87356085     -1.58536924
H      -1.24081273     -1.79566730      5.81282140
H       8.69493646    -12.48483358      6.09423248
H       6.40548225     -6.93151262    -14.47530646
H       4.40220977     -2.00121098      9.22945562
C      -1.12374570     -0.84290402      6.53902342
C     -10.36021178    -12.21613176     16.66250285
C       2.41858237     -0.14672042      7.68182606
C       1.90252244     -1.18274029      8.77170597
C       8.00043787      0.34103485     -1.43829736
C       6.66394197     18.45812240     11.45817183
C       3.18242256     -2.07562050      9.35890750
C      -4.02874321      9.59929194      9.89949456
C       7.61229094     17.63197268     10.62887960
C      -5.23011541      8.89662883     -2.02473621
C      -4.06711342     -2.13006621     -6.72431385
C       6.55220192     -1.58100528     -2.61295781
C      16.77613806     -8.21369714     -6.74685399
C      -3.78780081      9.64362060     -1.98640808
C       8.20345954    -11.40249566      6.30461203
H       9.27931729      9.92375167     -1.42171240
H      -3.13692509    -13.83888067    -10.92837837
H      15.72197100     -8.82671512     -6.69562707
H      -9.29849755     -2.27983669     24.37173279
H      -9.75823380    -12.15922473     17.65677117
H      17.02597291      5.25944464     14.94841986
H       8.56729092      0.61715748     -0.45960198
H       5.04349123     15.37152225     22.94027871
H       5.93751679     19.09129591     12.09403711
H      -3.32769485     -2.75761308     -7.36987797
H      -4.10914284      9.34968571      8.72929947
H      -7.60800366     21.24279373      9.77849226
H       5.24181349     -3.70296618     -2.71047753
H      -1.10710582      0.13998206      5.84320254
H       7.85505764    -10.11962729      8.27858324
H       7.15286304     -3.73212867     -2.82610869
H      -7.74121265     21.25139890     10.54698513
   94

C       6.67506279     -7.27716863    -13.46157009
C      -3.39143475    -13.09080038    -10.11850601
H       7.35616254     -6.55059537    -12.79363776
C      -1.01484738     -0.86536074      8.17581395
H      -5.84099924      8.56602923     -3.01046174
H       3.12325460     -3.21060986      8.89450068
C       0.26831495     -1.18439424      9.18796479
H       6.34005293     -8.34604220    -13.03353564
H      -9.00758363     -6.97189420    -19.18477213
H      -8.99981180     -7.74126463    -19.05667331
C       7.32892497     -0.18425372     -2.67137266
H      17.20198801      4.50522878     15.04844281
C       8.63905076    -10.47105102      5.10717631
H       8.08348648     10.72873563     -2.79703215
H       8.90873206     -9.71080553      4.26337285
H       2.50425364    -10.90145545     17.33803701
C       7.26004177    -10.94338058      7.58161778
H       6.14367521    -10.59007842      7.19655839
C       7.32918286     10.96058972     -0.58712315
H       6.89019977    -11.69848092      8.47986371
H      16.61253204     13.63640989      6.34696007
H       6.75914242     11.56474349      0.24173760
C       8.10613870     10.13251393     -1.72413425
H      16.66182818     -3.78032461     -6.70672943
C      16.49016227     -4.96206428     -6.71737858
H      -0.53472669     -0.38721655     -5.06520263
H       7.59356867      9.03001205     -1.89402424
H      -3.06234494     10.16465488     10.32967246
C      16.77416582     -6.53803007     -6.96269732
H      -2.12546945     -0.60259351      8.60377586
H      -5.89874674      8.57275454     -1.07726769
C       6.31189501     -3.12015667     -2.21412060
H      -0.05981677     -2.27569465      9.66374794
C       1.47817078    -10.71778420     17.93077935
H       6.15820509     -3.19914763     -0.99946416
H     -10.96220751    -12.27305102     15.66825519
H       1.07347306     -9.60134732     18.09725200
C      -4.98445033     -1.03677687     -5.73375254
H      -2.90871722      8.83118361     -1.75758433
C      -3.44187296     11.24996004     -2.20140475
H      -6.17254973     -1.00045843     -5.73015468
H      -3.63983948     11.92661684     -1.18900996
H      -2.29410754     11.54506636     -2.53932599
H      -4.05260447     11.83770569     -3.09613498
H      17.35481797     -6.41107801     -7.99268718
H      17.09291839     -9.19104332     -7.39197941
H      17.50818016     -8.88877120     -6.07149084
H       2.87366612      0.56890580      6.90475246
H       0.19337296     -0.41729967     10.15270956
H       0.85678131    -11.65056203     18.35707196
H       7.46013490      0.38872283     -3.70669057
H      -9.42681448     -2.95205929     23.99751085
H       4.34725936     15.16493086     22.65570619
H      16.28336288     12.98393573      6.61958630
H       3.32068788     -1.90606971     10.59113278
H      27.34973620      7.72526133     -1.91709838
H      -4.91814801      9.29145971     10.64332285
H      28.03990655      7.87362162     -1.58535552
H      -1.25156506     -1.79719120      5.83187867
H       8.69464754    -12.48604716      6.09606299
H       6.32875373     -6.93472710    -14.55735348
H       4.39101315     -1.99485752      9.24254293
C      -1.13406866     -0.84366914      6.55703442
C     -10.36023113    -12.21614497     16.66252448
C       2.40781381     -0.14594690      7.70424808
C       1.89286267     -1.18403275      8.79260019
C       7.99597476      0.39517281     -1.37959011
C       6.66391776     18.45818441     11.45823780
C       3.17245572     -2.07775564      9.37940598
C      -4.03051206      9.60285809      9.89970964
C       7.61227475     17.63204616     10.62894623
C      -5.22935317      8.89143933     -2.02578924
C      -4.25820424     -2.05500893     -6.68195059
C       6.63136621     -1.58410081     -2.54353943
C      16.76137952     -8.20658298     -6.75584114
C      -3.78762678      9.63964636     -1.98757651
C       8.20333312    -11.40369408      6.30672794
H       9.28217206      9.95394704     -1.42054214
H      -3.16278931    -13.85659448    -10.92017311
H      15.75120688     -8.88953182     -6.69506991
H      -9.29851339     -2.27983419     24.37174642
H      -9.75825394    -12.15923804     17.65679324
H      17.02615222      5.25868138     14.94949367
H       8.54966348      0.67787127     -0.39549898
H       5.04348017     15.37153667     22.94029468
H       5.93746820     19.09134923     12.09408302
H      -3.83590530     -2.78865954     -7.48193719
H      -4.11087536      9.35317160      8.72953555
H      -7.60799852     21.24275355      9.77846227
H       5.33362017     -3.73492780     -2.62091870
H      -1.11979949      0.13818978      5.85966888
H       7.85077664    -10.11728336      8.28047502
H       7.23743523     -3.72852060     -2.74107517
H      -7.74120779     21.25136376     10.54695504
   94

C       6.60805590     -7.28952868    -13.55406975
C      -3.41933720    -13.11082170    -10.11039209
H       7.29306322     -6.56481196    -12.88805007
C      -1.02386578     -0.86510902      8.18969750
H      -5.83924689      8.56171880     -3.01040302
H       3.11279560     -3.21485765      8.91937033
C       0.25785042     -1.18350115      9.20415933
H       6.27120772     -8.35735417    -13.12478577
H      -9.00827942     -6.97213408    -19.18516673
H      -9.00046818     -7.74149893    -19.05703658
C       7.33034738     -0.14823947     -2.58045490
H      17.20214876      4.50448701     15.04952643
C       8.64011201    -10.47392827      5.10958319
H       8.08375155     10.75578088     -2.79688099
H       8.91248171     -9.71558872      4.26504302
H       2.50419646    -10.90149267     17.33816752
C       7.25955407    -10.94401919      7.58372490
H       6.14344480    -10.58678959      7.20156052
C       7.32930054     10.98757414     -0.58694526
H       6.89388840    -11.70565809      8.47824200
H      16.61778072     13.63919946      6.35102096
H       6.75927714     11.59145323      0.24211151
C       8.10635596     10.15962383     -1.72395097
H      16.34995341     -3.81247987     -6.67999033
C      16.14882390     -4.99052964     -6.70978032
H       0.77584615     -1.17559594     -6.61625320
H       7.59365620      9.05718647     -1.89384952
H      -3.06393742     10.16821719     10.32970099
C      16.61482345     -6.52689693     -6.95441940
H      -2.13436799     -0.60110279      8.61725093
H      -5.89814609      8.57242942     -1.07718384
C       6.38527917     -3.10341197     -2.05817811
H      -0.07118548     -2.27416489      9.68064336
C       1.47810230    -10.71781913     17.93088895
H       6.24587840     -3.15163290     -0.83950519
H     -10.96221516    -12.27305130     15.66825729
H       1.07340471     -9.60138209     18.09735918
C      -5.11487073     -0.94451383     -5.65225466
H      -2.90744100      8.82667522     -1.76105535
C      -3.44108117     11.24707618     -2.20128298
H      -6.29885881     -0.96500965     -5.71425905
H      -3.63882101     11.92355683     -1.18869804
H      -2.29327753     11.54236951     -2.53893680
H      -4.05187503     11.83550267     -3.09557512
H      17.24359654     -6.33144848     -7.94557272
H      17.17004877     -9.13107998     -7.41888582
H      17.55716805     -8.80700689     -6.08339694
H       2.85915139      0.57174817      6.92396108
H       0.18307885     -0.41532494     10.16809137
H       0.85670937    -11.65060134     18.35716632
H       7.47800101      0.41868632     -3.61688921
H      -9.42682550     -2.95205632     23.99751622
H       4.34724625     15.16493871     22.65570797
H      16.28861053     12.98673731      6.62367449
H       3.31013298     -1.91520222     10.61098501
H      27.34983359      7.72530374     -1.91710946
H      -4.91991687      9.29496798     10.64339935
H      28.04000147      7.87366028     -1.58535984
H      -1.26017207     -1.79885845      5.84603547
H       8.69411177    -12.48766710      6.09840369
H       6.25873719     -6.94552797    -14.64844067
H       4.37908234     -1.98803705      9.25424886
C      -1.14348191     -0.84475875      6.57066622
C     -10.36024084    -12.21614571     16.66252779
C       2.39677561     -0.14544119      7.72338061
C       1.88290858     -1.18481323      8.81100128
C       7.97059125      0.47359088     -1.29457160
C       6.66387750     18.45818995     11.45824580
C       3.16182559     -2.07939520      9.39818135
C      -4.03217107      9.60638725      9.89991794
C       7.61222350     17.63205261     10.62894269
C      -5.22795755      8.88855577     -2.02599434
C      -4.24734854     -1.93754189     -6.49446966
C       6.67899495     -1.56766685     -2.42099573
C      16.75004945     -8.19193452     -6.76460823
C      -3.78594935      9.63634274     -1.98848440
C       8.20293734    -11.40530828      6.30933440
H       9.28238383      9.98136657     -1.42017012
H      -3.18977453    -13.87604949    -10.91233380
H      15.79097636     -8.94481000     -6.69497519
H      -9.29852397     -2.27983107     24.37175137
H      -9.75826579    -12.15923944     17.65679783
H      17.02630644      5.25793689     14.95056796
H       8.52641838      0.75925589     -0.31279935
H       5.04346648     15.37154482     22.94029768
H       5.93741508     19.09135251     12.09407805
H      -4.01705601     -2.72390081     -7.32392969
H      -4.11248306      9.35661552      8.72976480
H      -7.60798758     21.24272381      9.77843942
H       5.42234709     -3.76879759     -2.42176751
H      -1.13055323      0.13576027      5.87124837
H       7.84618975    -10.11511167      8.28270232
H       7.32086388     -3.70168600     -2.58064279
H      -7.74119788     21.25133796     10.54693197
   94

C       6.57234014     -7.33884272    -13.68909285
C      -3.44971223    -13.13332531    -10.10176381
H       7.27643133     -6.62310519    -13.03300985
C      -1.03372521     -0.86487876      8.20724368
H      -5.83777417      8.55796888     -3.01058010
H       3.10213347     -3.21922943      8.94664642
C       0.24703192     -1.18280664      9.22320328
H       6.22586802     -8.40093498    -13.25295569
H      -9.00985000     -6.97246729    -19.18582866
H      -9.00197437     -7.74182806    -19.05767734
C       7.24773920     -0.09290812     -2.48029186
H      17.20236894      4.50375824     15.05064227
C       8.64101946    -10.47666229      5.11169899
H       8.08377189     10.78224567     -2.79733156
H       8.91593813     -9.72031094      4.26628014
H       2.50413024    -10.90161064     17.33843798
C       7.25914883    -10.94489836      7.58584661
H       6.14326050    -10.58379216      7.20668833
C       7.32947055     11.01433963     -0.58729359
H       6.89769950    -11.71302895      8.47661891
H      16.62306096     13.64198550      6.35505041
H       6.75977429     11.61820801      0.24199488
C       8.10632294     10.18622407     -1.72432417
H      16.02042411     -3.86356049     -6.64936740
C      15.81656551     -5.04150238     -6.70682227
H       1.94144025     -2.08050273     -8.02051837
H       7.59343641      9.08388685     -1.89432709
H      -3.06570294     10.17206964     10.33006974
C      16.45092879     -6.52178860     -6.94810139
H      -2.14417246     -0.59967317      8.63419577
H      -5.89820438      8.57305273     -1.07736002
C       6.32460832     -3.03660327     -1.88135819
H      -0.08285368     -2.27292630      9.70018444
C       1.47802033    -10.71793571     17.93113108
H       6.23416689     -3.06034242     -0.65715306
H     -10.96225840    -12.27307115     15.66827506
H       1.07332395     -9.60150131     18.09761983
C      -5.12264598     -0.91916505     -5.64131472
H      -2.90664318      8.82434671     -1.76382553
C      -3.44054652     11.24546898     -2.20140091
H      -6.29212821     -1.01399404     -5.77384950
H      -3.63811141     11.92172314     -1.18862318
H      -2.29268501     11.54083933     -2.53879795
H      -4.05140994     11.83426685     -3.09541763
H      17.12635154     -6.24770262     -7.88974457
H      17.24385768     -9.05324735     -7.44533280
H      17.60121679     -8.71033215     -6.09469512
H       2.84441555      0.57600069      6.94770088
H       0.17243125     -0.41350900     10.18627364
H       0.85661274    -11.65072456     18.35737171
H       7.39039943      0.46385612     -3.52278427
H      -9.42686866     -2.95205776     23.99756902
H       4.34723736     15.16498027     22.65575699
H      16.29389418     12.98953444      6.62773444
H       3.29949553     -1.92441749     10.63316305
H      27.34980121      7.72527115     -1.91713797
H      -4.92186390      9.29872463     10.64380402
H      28.03996818      7.87363214     -1.58538838
H      -1.27008909     -1.80081371      5.86442029
H       8.69353469    -12.48922294      6.10053107
H       6.20960150     -6.98775246    -14.77696936
H       4.36686664     -1.98144815      9.26835802
C      -1.15381796     -0.84596695      6.58814947
C     -10.36028947    -12.21616918     16.66254919
C       2.38533312     -0.14434297      7.74615524
C       1.87256380     -1.18578205      8.83222997
C       7.91570775      0.54702012     -1.21636608
C       6.66386243     18.45827918     11.45830199
C       3.15100299     -2.08120184      9.41935994
C      -4.03401451      9.61022307      9.90047274
C       7.61220772     17.63215187     10.62898957
C      -5.22722995      8.88685637     -2.02639113
C      -4.03356741     -1.78571025     -6.33745833
C       6.59731920     -1.50943040     -2.29302597
C      16.73875037     -8.16916284     -6.77257302
C      -3.78513381      9.63453791     -1.98945730
C       8.20253853    -11.40683682      6.31173498
H       9.28234470     10.00815088     -1.42040878
H      -3.21876113    -13.89765958    -10.90415966
H      15.83737693     -8.99006898     -6.69451039
H      -9.29856567     -2.27983208     24.37180290
H      -9.75831834    -12.15926549     17.65682191
H      17.02652167      5.25720610     14.95167706
H       8.48893009      0.83954066     -0.24655493
H       5.04345882     15.37158461     22.94034498
H       5.93737957     19.09143287     12.09411927
H      -3.67334447     -2.58320811     -7.10402449
H      -4.11431546      9.36043485      8.73032978
H      -7.60800157     21.24273309      9.77843018
H       5.34288188     -3.69925023     -2.19573448
H      -1.14252721      0.13358374      5.88729823
H       7.84168614    -10.11322360      8.28496448
H       7.24860430     -3.65219259     -2.40454138
H      -7.74121188     21.25134967     10.54692271
   94

C       6.56190513     -7.51563837    -13.99524292
C      -3.47622172    -13.14604417    -10.09169037
H       7.38639230     -6.86393544    -13.41646903
C      -1.04525950     -0.86429615      8.22929552
H      -5.83690994      8.55443669     -3.01115837
H       3.09065566     -3.22363487      8.97710111
C       0.23503461     -1.18218670      9.24593755
H       6.17931243     -8.54950155    -13.52263525
H      -9.00955327     -6.97179814    -19.18449963
H      -9.00176564     -7.74117870    -19.05646236
C       7.11465261     -0.00747957     -2.34043634
H      17.20259568      4.50299496     15.05170946
C       8.64111234    -10.47768189      5.11219552
H       8.08460366     10.81041184     -2.79760737
H       8.91740898     -9.72307872      4.26569009
H       2.50406418    -10.90181711     17.33881506
C       7.25886006    -10.94529915      7.58704821
H       6.14302822    -10.58048517      7.21126512
C       7.33035129     11.04283068     -0.58737689
H       6.90192108    -11.72006280      8.47399944
H      16.62838132     13.64475488      6.35908061
H       6.76073460     11.64639588      0.24218527
C       8.10713642     10.21470060     -1.72443186
H      15.68008845     -3.93264301     -6.61777951
C      15.49767108     -5.11370520     -6.70295816
H       3.79811998     -2.64773872     -8.62542582
H       7.59395564      9.11251063     -1.89446527
H      -3.06776303     10.17627270     10.33080011
C      16.28650201     -6.52319649     -6.94253507
H      -2.15559608     -0.59801659      8.65585916
H      -5.89916770      8.57412577     -1.07796089
C       6.11446884     -2.91278382     -1.67837063
H      -0.09550741     -2.27193329      9.72312073
C       1.47794069    -10.71814598     17.93148509
H       6.01405677     -2.92478868     -0.45516129
H     -10.96235961    -12.27313517     15.66833918
H       1.07324572     -9.60171931     18.09802647
C      -5.06146719     -0.99127600     -5.72087206
H      -2.90693179      8.82342831     -1.76620094
C      -3.44075154     11.24487931     -2.20173558
H      -6.23065034     -1.05502628     -5.82375731
H      -3.63816176     11.92090763     -1.18877703
H      -2.29281800     11.54034450     -2.53882120
H      -4.05163522     11.83390792     -3.09558859
H      17.00108800     -6.16065037     -7.82464841
H      17.31062303     -8.95872501     -7.47114144
H      17.63721318     -8.60094078     -6.10507625
H       2.82798273      0.58313354      6.97817085
H       0.16082295     -0.41191514     10.20827697
H       0.85651030    -11.65094577     18.35766735
H       7.20860809      0.58167808     -3.37013128
H      -9.42695518     -2.95206592     23.99769033
H       4.34723137     15.16505948     22.65586094
H      16.29922355     12.99231292      6.63179709
H       3.28844449     -1.93373809     10.65843075
H      27.34963978      7.72516105     -1.91715728
H      -4.92409446      9.30278964     10.64457080
H      28.03980853      7.87353380     -1.58541651
H      -1.28385855     -1.80211540      5.88775836
H       8.69299553    -12.48926831      6.10101930
H       6.13143060     -7.12819391    -15.04564011
H       4.35381711     -1.97503398      9.28551123
C      -1.16658469     -0.84650876      6.61028887
C     -10.36039504    -12.21623666     16.66261650
C       2.37230814     -0.14208173      7.77408632
C       1.86104994     -1.18700502      8.85731000
C       7.86409568      0.60821562     -1.11135918
C       6.66386820     18.45848576     11.45843951
C       3.13944547     -2.08308423      9.44371355
C      -4.03616419      9.61442991      9.90138903
C       7.61222946     17.63238113     10.62912565
C      -5.22747317      8.88592013     -2.02715144
C      -3.91125443     -1.78299204     -6.38716564
C       6.43225117     -1.40143628     -2.11186528
C      16.72622243     -8.13857006     -6.77966810
C      -3.78549777      9.63387212     -1.99058893
C       8.20205078    -11.40693659      6.31266170
H       9.28310727     10.03649451     -1.42041438
H      -3.24618104    -13.91140163    -10.89338998
H      15.88784519     -9.02357489     -6.69378629
H      -9.29864915     -2.27983910     24.37192114
H      -9.75842550    -12.15933449     17.65689061
H      17.02675048      5.25644392     14.95274863
H       8.45963485      0.90672017     -0.15775274
H       5.04345653     15.37165917     22.94044326
H       5.93735354     19.09162200     12.09423694
H      -3.24475453     -2.45209280     -7.06092397
H      -4.11651385      9.36470247      8.73124386
H      -7.60805668     21.24280676      9.77844595
H       5.09952045     -3.51635922     -2.00527669
H      -1.15787690      0.13234135      5.90842538
H       7.83727702    -10.11092501      8.28637936
H       7.02467472     -3.58015017     -2.15951867
H      -7.74126496     21.25142264     10.54693885
   94

C       6.21674079     -7.50330008    -14.17450494
C      -3.49592935    -13.15250938    -10.08136353
H       7.10007999     -6.85390629    -13.69188352
C      -1.05540070     -0.86388589      8.24999179
H      -5.83712729      8.55282912     -3.01126134
H       3.08106229     -3.22834228      9.00187680
C       0.22525365     -1.18175979      9.26625921
H       5.89673660     -8.54334657    -13.67402456
H      -9.00767661     -6.97084507    -19.18258028
H      -9.00001485     -7.74024248    -19.05463811
C       6.86428795      0.09397908     -2.31629440
H      17.20246409      4.50203022     15.05227058
C       8.63966387    -10.47516649      5.11011977
H       8.08535924     10.83709775     -2.79810087
H       8.91525820     -9.72096298      4.26298404
H       2.50408679    -10.90183844     17.33876911
C       7.25800900    -10.94330351      7.58607440
H       6.14221260    -10.57484158      7.21373449
C       7.33123660     11.06974059     -0.58771698
H       6.90579332    -11.72474204      8.46916448
H      16.63340800     13.64712531      6.36295945
H       6.76194716     11.67335156      0.24203499
C       8.10777466     10.24150750     -1.72485753
H      15.44703874     -4.01649860     -6.56887852
C      15.28125132     -5.19961529     -6.67342751
H       8.34395895     -3.81477119     -8.12580232
H       7.59422671      9.13952116     -1.89506989
H      -3.06963596     10.18033146     10.33151310
C      16.17590130     -6.54259260     -6.93762184
H      -2.16545346     -0.59665667      8.67667343
H      -5.90097731      8.57678911     -1.07806912
C       5.75249528     -2.78359826     -1.70331554
H      -0.10582330     -2.27103563      9.74398168
C       1.47797662    -10.71818093     17.93146677
H       5.51527005     -2.79243344     -0.49954773
H     -10.96241872    -12.27318928     15.66840322
H       1.07327998     -9.60175984     18.09804231
C      -5.08703254     -1.02854425     -5.76944631
H      -2.90813547      8.82392566     -1.76794893
C      -3.44139215     11.24559295     -2.20190797
H      -6.25692227     -1.04404604     -5.82852936
H      -3.63854365     11.92144031     -1.18878221
H      -2.29334970     11.54094066     -2.53872960
H      -4.05222877     11.83483525     -3.09564676
H      16.91647741     -6.09313379     -7.75736245
H      17.39335933     -8.86990911     -7.49507943
H      17.68988847     -8.50255290     -6.11276780
H       2.81410775      0.58692028      7.00194338
H       0.15200933     -0.41044805     10.22784983
H       0.85654985    -11.65098424     18.35764681
H       6.87041632      0.72781950     -3.32396442
H      -9.42698865     -2.95207316     23.99775864
H       4.34723955     15.16506657     22.65587299
H      16.30423635     12.99467484      6.63563901
H       3.28010894     -1.94378727     10.67847937
H      27.34968396      7.72527470     -1.91702865
H      -4.92616724      9.30676502     10.64534942
H      28.03986039      7.87363129     -1.58529680
H      -1.29681679     -1.80385002      5.90991119
H       8.69216064    -12.48618764      6.09930375
H       5.79573766     -7.13037574    -15.23256799
H       4.34264928     -1.96920536      9.29682299
C      -1.17860955     -0.84742314      6.63115511
C     -10.36044722    -12.21628709     16.66267627
C       2.36101344     -0.14115413      7.79668019
C       1.85138163     -1.18838420      8.87834040
C       7.72222397      0.63011932     -1.12162582
C       6.66389176     18.45851081     11.45847175
C       3.12996778     -2.08554880      9.46295832
C      -4.03815325      9.61852192      9.90231089
C       7.61223779     17.63239865     10.62914741
C      -5.22865305      8.88666018     -2.02745037
C      -3.91562475     -1.79275118     -6.42454836
C       6.13696108     -1.28147195     -2.10893992
C      16.74045420     -8.11852423     -6.78515509
C      -3.78667967      9.63462962     -1.99140171
C       8.20098341    -11.40398725      6.31111987
H       9.28364201     10.06295990     -1.42065173
H      -3.26810704    -13.91939790    -10.88224604
H      15.96476176     -9.05857679     -6.69194075
H      -9.29868081     -2.27984523     24.37198687
H      -9.75847030    -12.15938073     17.65694578
H      17.02662912      5.25548326     14.95332286
H       8.33360720      0.92067443     -0.17557011
H       5.04346661     15.37166401     22.94045228
H       5.93736384     19.09164719     12.09425403
H      -3.19413702     -2.43187798     -7.07015049
H      -4.11857565      9.36887229      8.73216218
H      -7.60809760     21.24288841      9.77848007
H       4.77190320     -3.34606715     -2.17481306
H      -1.17255267      0.13078411      5.92838606
H       7.83226857    -10.10619593      8.28557458
H       6.70237101     -3.49346782     -2.01626428
H      -7.74130344     21.25149969     10.54697345
   94

C       6.18246233     -7.34906091    -14.01485711
C      -3.51973675    -13.16755319    -10.07271230
H       6.88715364     -6.60688987    -13.39293904
C      -1.06194423     -0.86413242      8.26404752
H      -5.83664622      8.55093602     -3.01086751
H       3.07382467     -3.23316378      9.02025212
C       0.21864256     -1.18139446      9.28073769
H       5.86307994     -8.40931327    -13.55783868
H      -9.00716783     -6.97083958    -19.18246322
H      -8.99948066     -7.74023456    -19.05450835
C       6.80148478      0.09789960     -2.44327662
H      17.20223829      4.50104104     15.05273215
C       8.63857339    -10.47342359      5.10812747
H       8.08634566     10.86086639     -2.79862770
H       8.91397166     -9.71994921      4.26026770
H       2.50415279    -10.90168264     17.33840131
C       7.25704585    -10.94108113      7.58485132
H       6.14145565    -10.56882970      7.21565646
C       7.33230976     11.09359893     -0.58832960
H       6.90931251    -11.72893895      8.46411431
H      16.63831741     13.64933590      6.36673161
H       6.76353548     11.69782333      0.24133910
C       8.10862665     10.26510629     -1.72546679
H      15.36438666     -4.07842884     -6.52032129
C      15.19325791     -5.26208091     -6.62111196
H       9.71332541     -4.61203070     -7.53709777
H       7.59520769      9.16308195     -1.89588562
H      -3.07096978     10.18375562     10.33164124
C      16.12063693     -6.56998005     -6.95096075
H      -2.17176592     -0.59588374      8.69065561
H      -5.90181562      8.57875255     -1.07771592
C       5.65135437     -2.77875831     -1.91515441
H      -0.11327208     -2.26989779      9.75955332
C       1.47806335    -10.71803354     17.93113830
H       5.45816931     -2.84518898     -0.70566665
H     -10.96235655    -12.27315269     15.66835294
H       1.07336598     -9.60160957     18.09769563
C      -5.13814976     -1.05084852     -5.80272036
H      -2.90836656      8.82385419     -1.76914525
C      -3.44142059     11.24577019     -2.20165565
H      -6.30524576     -1.02428270     -5.82443758
H      -3.63833322     11.92139185     -1.18833354
H      -2.29329490     11.54111550     -2.53820069
H      -4.05229003     11.83528376     -3.09519521
H      16.87928048     -6.05127403     -7.71270004
H      17.48332109     -8.79619673     -7.52027552
H      17.75229196     -8.42167718     -6.12226857
H       2.80483882      0.58480183      7.01349161
H       0.14621807     -0.40883195     10.24139890
H       0.85665858    -11.65083044     18.35736570
H       6.84711323      0.69731285     -3.47090813
H      -9.42693539     -2.95206977     23.99768512
H       4.34724969     15.16499369     22.65577413
H      16.30912159     12.99687103      6.63934785
H       3.27377769     -1.95400783     10.69244310
H      27.34976069      7.72545538     -1.91695797
H      -4.92771908      9.31017252     10.64552577
H      28.03994192      7.87378966     -1.58522614
H      -1.30232224     -1.80695803      5.92472459
H       8.69130089    -12.48363904      6.09797610
H       5.82898046     -7.00225564    -15.10603089
H       4.33363200     -1.96369669      9.30221291
C      -1.18571283     -0.84970410      6.64514925
C     -10.36038137    -12.21624874     16.66262346
C       2.35348768     -0.14260853      7.80990043
C       1.84468408     -1.18950114      8.89247591
C       7.60424533      0.63032573     -1.20917364
C       6.66390715     18.45830739     11.45835835
C       3.12274254     -2.08828156      9.47613394
C      -4.03957887      9.62194457      9.90263834
C       7.61220869     17.63216203     10.62901222
C      -5.22890274      8.88678163     -2.02728670
C      -3.94939236     -1.79213092     -6.44270701
C       6.05757191     -1.27398592     -2.28013458
C      16.77650010     -8.10865548     -6.79551049
C      -3.78692330      9.63477189     -1.99173546
C       8.19996348    -11.40149410      6.30972403
H       9.28446302     10.08656789     -1.42110697
H      -3.29182275    -13.93438179    -10.87362364
H      16.05418681     -9.08968465     -6.69388812
H      -9.29862893     -2.27984236     24.37191472
H      -9.75840228    -12.15934141     17.65689142
H      17.02640648      5.25449483     14.95378503
H       8.19997859      0.91758210     -0.25145130
H       5.04347420     15.37159420     22.94035741
H       5.93738519     19.09146046     12.09413200
H      -3.22483935     -2.43162451     -7.08294673
H      -4.11997119      9.37224835      8.73250547
H      -7.60806853     21.24285224      9.77846983
H       4.65077512     -3.29575993     -2.39571428
H      -1.18055179      0.12743939      5.94084804
H       7.82720451    -10.10124945      8.28444656
H       6.57697223     -3.48667082     -2.29591492
H      -7.74127487     21.25146363     10.54696312
   94

C       6.15904760     -7.29724729    -13.98618639
C      -3.54431307    -13.18343089    -10.06397237
H       6.83919687     -6.56066185    -13.32939778
C      -1.06905793     -0.86433257      8.27886725
H      -5.83563819      8.54845599     -3.01054814
H       3.06586077     -3.23786537      9.04122485
C       0.21110129     -1.18098900      9.29643584
H       5.82950288     -8.36411389    -13.55022549
H      -9.00697993     -6.97085527    -19.18243731
H      -8.99928083     -7.74024896    -19.05447565
C       6.79227924      0.09790572     -2.50256978
H      17.20217669      4.50012856     15.05339752
C       8.63831194    -10.47305480      5.10684502
H       8.08751455     10.88519482     -2.79906146
H       8.91454544     -9.72114400      4.25789953
H       2.50419224    -10.90160983     17.33819173
C       7.25653422    -10.93979094      7.58417075
H       6.14115181    -10.56378922      7.21813996
C       7.33351481     11.11805510     -0.58882083
H       6.91322596    -11.73399771      8.45956171
H      16.64336542     13.65170816      6.37056414
H       6.76512227     11.72275105      0.24077035
C       8.10974594     10.28939708     -1.72591464
H      15.21882026     -4.12946574     -6.52273528
C      15.04555450     -5.31433218     -6.61891856
H      10.53523379     -5.00297494     -7.00193971
H       7.59649237      9.18730509     -1.89643144
H      -3.07236276     10.18723006     10.33177413
C      16.02422631     -6.58292960     -6.98192597
H      -2.17871725     -0.59501035      8.70519215
H      -5.90219223      8.58020344     -1.07745081
C       5.66737906     -2.79754157     -2.03187063
H      -0.12167519     -2.26877766      9.77617179
C       1.47811428    -10.71796440     17.93095009
H       5.51966951     -2.90804925     -0.81940017
H     -10.96230527    -12.27312101     15.66830145
H       1.07341764     -9.60153886     18.09750006
C      -5.18755512     -1.07547623     -5.83694409
H      -2.90809597      8.82326087     -1.77046286
C      -3.44115140     11.24547314     -2.20143274
H      -6.34896224     -1.00390070     -5.81892674
H      -3.63787424     11.92087749     -1.18792741
H      -2.29295430     11.54087322     -2.53769264
H      -4.05207393     11.83525137     -3.09476691
H      16.79844616     -6.00106833     -7.68184272
H      17.53331702     -8.70610309     -7.54613095
H      17.77395474     -8.32120080     -6.13470690
H       2.79445902      0.58437158      7.02851730
H       0.13926969     -0.40721762     10.25618335
H       0.85672069    -11.65075791     18.35720183
H       6.85852306      0.68414219     -3.53662097
H      -9.42690257     -2.95206739     23.99763375
H       4.34725474     15.16495073     22.65571324
H      16.31415718     12.99923501      6.64314571
H       3.26640533     -1.96390698     10.70875795
H      27.34974776      7.72550648     -1.91696308
H      -4.92931746      9.31360774     10.64569234
H      28.03993003      7.87383510     -1.58523081
H      -1.30826231     -1.80989298      5.94023665
H       8.69078224    -12.48227497      6.09710645
H       5.81405543     -6.95423698    -15.08182583
H       4.32374555     -1.95811451      9.31039452
C      -1.19317257     -0.85184627      6.65987833
C     -10.36033121    -12.21621804     16.66257259
C       2.34519891     -0.14340623      7.82582027
C       1.83722183     -1.19061623      8.90860093
C       7.54724523      0.64036186     -1.24319860
C       6.66391785     18.45817576     11.45828504
C       3.11468268     -2.09083075      9.49169513
C      -4.04105080      9.62540328      9.90295952
C       7.61218808     17.63201022     10.62892121
C      -5.22864695      8.88633017     -2.02719472
C      -3.97889368     -1.79115882     -6.45861497
C       6.05843367     -1.28136836     -2.36267254
C      16.78023821     -8.07676755     -6.81247435
C      -3.78668598      9.63439150     -1.99212185
C       8.19939450    -11.40017265      6.30897717
H       9.28557416     10.11103465     -1.42140046
H      -3.31633828    -13.95022367    -10.86489912
H      16.10649824     -9.09120705     -6.69936345
H      -9.29859711     -2.27984043     24.37186452
H      -9.75835390    -12.15931200     17.65684160
H      17.02634458      5.25358206     14.95444897
H       8.12319645      0.93421745     -0.27522957
H       5.04347741     15.37155335     22.94029950
H       5.93739405     19.09133804     12.09404802
H      -3.25174047     -2.43152805     -7.09349225
H      -4.12139890      9.37564928      8.73284361
H      -7.60804015     21.24280801      9.77844957
H       4.64882265     -3.29036659     -2.50011914
H      -1.18890948      0.12421439      5.95401660
H       7.82261406    -10.09731438      8.28390554
H       6.57683100     -3.48523881     -2.48185360
H      -7.74124759     21.25142155     10.54694263
   94

C       6.11623863     -7.27675812    -14.01009863
C      -3.56858173    -13.19936374    -10.05527369
H       6.79622653     -6.54962319    -13.34165467
C      -1.07586144     -0.86419611      8.29386435
H      -5.83398111      8.54469481     -3.01023782
H       3.05845557     -3.24578639      9.07023995
C       0.20370607     -1.18000057      9.31269028
H       5.78162941     -8.34585551    -13.58232122
H      -9.00629938     -6.97077983    -19.18209263
H      -8.99858819     -7.74017383    -19.05413396
C       6.79638864      0.09125250     -2.53717336
H      17.20219850      4.49918250     15.05404277
C       8.63972655    -10.47364140      5.10331450
H       8.08916480     10.90965459     -2.79981877
H       8.91764410     -9.72458736      4.25241995
H       2.50425844    -10.90118632     17.33758517
C       7.25688303    -10.93831072      7.58219403
H       6.14205034    -10.55478346      7.22224717
C       7.33530992     11.14278002     -0.58957032
H       6.92194637    -11.74446357      8.45010734
H      16.64855012     13.65407322      6.37431069
H       6.76737684     11.74806627      0.23991177
C       8.11140475     10.31391522     -1.72663185
H      14.44711266     -4.37780461     -6.56034811
C      14.40488092     -5.57311890     -6.69251676
H      13.21199046     -5.37639078     -6.63961730
H       7.59844255      9.21170391     -1.89730825
H      -3.07358194     10.19064936     10.33173393
C      15.69715363     -6.58048185     -6.91537765
H      -2.18538401     -0.59378502      8.71980829
H      -5.90240332      8.58208666     -1.07722355
C       5.72980147     -2.83251797     -2.11328374
H      -0.13039287     -2.26684272      9.79343042
C       1.47819573    -10.71751696     17.93036419
H       5.58643131     -2.95807774     -0.90167252
H     -10.96213609    -12.27297242     15.66815272
H       1.07348491     -9.60107587     18.09678088
C      -5.24717734     -1.11765127     -5.88913936
H      -2.90747795      8.82227735     -1.77260072
C      -3.44044701     11.24492791     -2.20123570
H      -6.39130319     -0.97144750     -5.80251391
H      -3.63687298     11.92010410     -1.18751917
H      -2.29207245     11.54031972     -2.53691277
H      -4.05138000     11.83508548     -3.09432394
H      16.42912219     -5.83720324     -7.50119855
H      17.47417563     -8.45463877     -7.59338091
H      17.68342493     -8.08516926     -6.15118270
H       2.78206019      0.58486385      7.04544137
H       0.13264596     -0.40433940     10.27100524
H       0.85684386    -11.65028868     18.35672652
H       6.86550718      0.67022696     -3.57492290
H      -9.42675544     -2.95204824     23.99740376
H       4.34725348     15.16486320     22.65560149
H      16.31936122     13.00158610      6.64688218
H       3.25941377     -1.98119541     10.72768483
H      27.34947999      7.72515486     -1.91711422
H      -4.93089105      9.31681407     10.64570919
H      28.03965355      7.87353058     -1.58538466
H      -1.31420418     -1.81288781      5.95616109
H       8.69090285    -12.48058848      6.09475333
H       5.77085995     -6.93479564    -15.10632002
H       4.31212120     -1.94573504      9.31408167
C      -1.20099169     -0.85385811      6.67481032
C     -10.36016020    -12.21606716     16.66242232
C       2.33623384     -0.14348988      7.84420064
C       1.83018818     -1.19204957      8.92666093
C       7.51245911      0.64709570     -1.26159484
C       6.66392978     18.45793159     11.45805926
C       3.10681590     -2.09427134      9.50925586
C      -4.04241431      9.62877642      9.90328527
C       7.61213867     17.63174347     10.62864389
C      -5.22798374      8.88543705     -2.02725322
C      -4.00204172     -1.78778817     -6.47272944
C       6.09060398     -1.30326056     -2.41919415
C      16.65800437     -7.96286778     -6.81919344
C      -3.78611546      9.63373208     -1.99284246
C       8.19958520    -11.39845523      6.30670134
H       9.28723473     10.13595643     -1.42186046
H      -3.34055824    -13.96610294    -10.85623579
H      16.08146568     -9.03584514     -6.69286406
H      -9.29845674     -2.27982476     24.37164303
H      -9.75818431    -12.15916191     17.65669192
H      17.02636410      5.25263561     14.95509535
H       8.06876856      0.95260692     -0.28568605
H       5.04347153     15.37147220     22.94019443
H       5.93741921     19.09110341     12.09382905
H      -3.27443336     -2.43010276     -7.10229010
H      -4.12272602      9.37902553      8.73318169
H      -7.60795419     21.24264930      9.77839801
H       4.69759587     -3.29411439     -2.58469665
H      -1.19858797      0.12077184      5.96688797
H       7.81494489    -10.09057218      8.28205779
H       6.63712414     -3.50036363     -2.59749302
H      -7.74116572     21.25126849     10.54689030
