   94
energy=      0.00000000
C     -11.52769958     -2.35018627     -4.56958546
C     -10.03388869     -2.71538051     -3.79801668
H     -11.32963428     -1.70794338     -5.62133533
C     -12.84467702     -1.67633590     -3.69110500
H     -11.91237473     -3.31900030     -5.25581046
H      -9.35333980     -1.79224398     -3.32618404
C       7.98833795      2.20747235      6.01078407
H     -10.01518395     -3.48994888     -2.83024837
H      -6.77018387     -4.92871189    -16.15995449
H      -6.76247268     -5.69810588    -16.03199582
C       0.26445250    -10.60581774     -4.91107738
H      -0.16651381     -9.57179278     -5.22611009
C       7.89403303      1.41299560      4.49029997
H       0.69488272    -11.64029337     -4.59679218
H       8.56216119      2.21897700      3.83509192
H       6.70999046      1.68997049      4.31862549
C       8.05021282     -0.12717872      3.66125784
H       7.41765652     -1.18086320      3.76853798
C       7.44547461      0.20916274      1.18384083
H       7.62593459     -0.81902554      4.59353909
H       7.32327869      0.54624516      0.00210065
H       7.74543422      1.37904305      0.89447372
C       5.74234333     -0.15343858      1.37448163
H       5.10755954      0.19769440      2.36801790
C       5.46761137      8.13045934    -14.67258779
H       5.48377466     -1.36102515      1.30107365
H       4.82160468      8.93858636    -15.13196615
H      -0.82621874     12.15848128     11.22307637
C      11.40297649     -5.30925746    -10.95548074
H     -12.71398822     -0.56795948     -3.15043293
H     -13.33138271     -2.30631323     -2.74048677
C      -0.85884590      0.99614332     -7.56058367
H     -13.92755891     -1.42598747     -4.24022639
C      -1.91761129     -5.40222009     12.17039878
H      -2.01939808      0.93146780     -7.28619674
H      -0.54409922     -5.54228707     10.27231509
H      -2.89442015     -5.02793333     12.70210714
C       4.30271669      0.32650043      0.78605000
H      -2.72592986      2.90708788      2.86630816
C      -3.52654360      2.90473098      3.80179272
H       3.15944830      0.54292051      0.55723161
H      -3.42599482      3.95889042      4.43009097
H      -3.28294125      1.95701674      4.54919954
H      -4.67130674      2.79593172      3.36156462
H      10.97346841     -4.22855827    -10.66302034
H      11.92559206     -5.47834968    -12.02141286
H      11.30981436     -6.22079590    -10.18195298
H       8.79407656      3.08899268     11.43964605
H       7.22910913      1.54182720      9.13995376
H      -0.51751219     -7.14147044     11.44669392
H      10.85924375      0.54769439     11.71787794
H      -8.70101793     -4.16259184     22.46177845
H       5.94947063      3.82915566      6.31992318
H      -2.36526977     13.36872087     23.21938894
H       9.89193854      2.58379126      7.28887509
H       9.85967458     -0.66239071     -0.37293380
H      -2.58299252     11.22639759     10.93014482
H      12.62124297     -0.60558132      1.65070061
H       0.27527834      0.95768797     -7.81754479
H      10.01200031     -2.64239119      3.29114060
H      25.95114173     -1.25922372     -0.91414506
H       9.40707782      0.88495415      7.40949156
C      17.30322965     -4.04092092     16.91429424
C      -0.58072915     -5.91545858     11.44130258
C       8.91837709      2.06208496     10.74749149
C       8.28892407      2.19528474      9.12917607
C      10.43602559      1.59263466     11.27288788
C       7.10750802      3.61098501      6.03723699
C       8.83134965      1.97386188      7.48526040
C      -2.02838724     12.32257756     11.01335203
C      -1.84595021     14.33304144     22.82622452
C      10.05731056     -0.79643704      0.84191566
C      11.74355697     -0.37585216      0.81723018
C      12.81612961     -1.04086718     -0.14497204
C      25.65424051     -0.29178792     -1.55745192
C       8.82515889     -0.48201771      2.10367301
C       9.84400363     -1.44371342      3.08617627
H      25.20112132     -0.42093169     -2.66014452
H      -9.10774302     -3.26875380     -4.40879636
H      16.35524261     -3.75935044     17.46515405
H      -8.57271924     -3.49036836     22.83601772
H       0.42324427     -5.48652075     12.00271200
H      11.47044769      2.19935568     11.44711641
H       8.19898205      1.37828859     11.49591369
H       7.45563504      4.73143230      5.74271660
H      -1.32656758     15.29738095     22.43318992
H       7.87962322      3.36412617      9.18544016
H       9.92530800     -1.93660237      0.35099148
H      -2.17998519     12.94178623      9.95991970
H      12.05909053      0.81056898      0.70609515
H       0.25955454      1.16029139     -7.83621937
H      10.67815947     -1.23721102      3.96272705
H      25.81045847      0.80479166     -1.09806617
H      -2.52435252     12.96364515     11.94026723
   94
energy=      0.00000000
C     -11.54857404     -2.35765332     -4.56118463
C     -10.05371980     -2.72202012     -3.79127065
H     -11.34962563     -1.71403757     -5.61199474
C     -12.86614881     -1.68212273     -3.68497999
H     -11.93438579     -3.32924417     -5.24294650
H      -9.37583744     -1.79742849     -3.31847840
C       8.15113992      1.30377259      4.35041435
H     -10.03372440     -3.50118770     -2.82707169
H      -6.77018387     -4.92871189    -16.15995449
H      -6.76247268     -5.69810588    -16.03199582
C       0.26669223    -10.63946557     -4.90342777
H      -0.16403267     -9.60523751     -5.21812383
C       7.87969604      0.89905085      2.85021507
H       0.69736396    -11.67373833     -4.58880585
H       8.64961956      1.77150869      2.45338283
H       6.80070171      1.50118007      2.90178967
C       7.97268777     -0.69562188      2.21191605
H       7.18971514     -1.60529584      2.51530504
C       7.35826975     -0.41881298     -0.29529996
H       7.77726168     -1.28136997      3.28307581
H       7.32641390     -0.19338071     -1.51002509
H       7.54205838      0.79349457     -0.50819087
C       5.66972591     -0.82323122     -0.20624304
H       5.01463015     -0.55503446      0.80091287
C       5.52115439      8.20098761    -14.74065046
H       5.47350180     -2.03017686     -0.40235773
H       4.87514769      9.00911463    -15.20002882
H      -0.82079653     12.19147155     11.23277705
C      11.40296355     -5.30924142    -10.95546765
H     -12.73261387     -0.57363495     -3.14544169
H     -13.35508123     -2.31255203     -2.73577153
C      -0.65226042      1.00356501     -7.64223803
H     -13.94849838     -1.42796147     -4.23359421
C      -1.91216003     -5.42118406     12.18749092
H      -1.82391698      0.93822438     -7.36521488
H      -0.53833051     -5.56162619     10.28930023
H      -2.88858214     -5.04656179     12.71967309
C       4.31638340     -0.24028560     -0.89559086
H      -2.74890434      2.90061541      2.85980457
C      -3.54964146      2.89853801      3.79518510
H       3.24490084      0.11722946     -1.24787721
H      -3.44940864      3.95274860      4.42344814
H      -3.30577751      1.95075534      4.54241962
H      -4.69447527      2.79003277      3.35506785
H      10.97346546     -4.22853013    -10.66302918
H      11.92558759     -5.47837082    -12.02138777
H      11.30983471     -6.22081894    -10.18198232
H       8.89600210      4.01815237     14.13693595
H       7.31401286      2.48789721     11.78481743
H      -0.51178067     -7.16041949     11.46340346
H      10.97258878      1.44881816     14.05920980
H      -8.70101793     -4.16259184     22.46177845
H       6.54651831      4.29744829      8.91045989
H      -2.36482260     13.37378539     23.24938334
H       9.89404685      3.69774741      9.90150817
H       9.74972051     -1.18568066     -1.83312136
H      -2.57777226     11.25919741     10.93898214
H      12.50481815     -0.98653387      0.12470937
H       0.21517841      0.19413576     -7.75293557
H       9.87643666     -3.28298775      1.78027263
H      25.95114173     -1.25922372     -0.91414506
H       9.02110320      2.30939780      9.65160494
C      17.30322965     -4.04092092     16.91429424
C      -0.57527510     -5.93442030     11.45839827
C       8.97906874      3.03755751     13.37868773
C       8.25216698      3.30824658     11.83376045
C      10.53121189      2.52336733     13.71542102
C       7.73219495      4.30674187      9.16803939
C       8.72406154      3.39620336     10.17613813
C      -2.02294030     12.35522795     11.02264559
C      -1.84547463     14.33811450     22.85627740
C       9.93569802     -1.33237057     -0.61938828
C      11.58970492     -0.82338674     -0.68181591
C      12.61046618     -1.48771001     -1.69793341
C      25.65424051     -0.29178792     -1.55745192
C       8.71809674     -1.08115303      0.65666759
C       9.73282743     -2.08032626      1.60079154
H      25.20112132     -0.42093169     -2.66014452
H      -9.12494277     -3.26953442     -4.40335836
H      16.35524263     -3.75935046     17.46515407
H      -8.57271924     -3.49036836     22.83601772
H       0.42818280     -5.50505102     12.02039918
H      11.57800771      3.12602809     13.79649414
H       8.29876063      2.29650517     14.10948157
H       7.89502686      5.29259098      8.48518006
H      -1.32612041     15.30244548     22.46318432
H       7.74604450      4.42574345     12.01976712
H       9.79457894     -2.47429964     -1.10373138
H      -2.17473664     12.97400009      9.96898533
H      11.84064409      0.37897337     -0.79190663
H       0.08268058      1.90235792     -7.91040338
H      10.61727212     -1.89857406      2.43368158
H      25.81045847      0.80479166     -1.09806617
H      -2.51845576     12.99624276     11.94983784
