   94

C      -8.28137556     -4.49016434     -4.59913089
C      -7.14542030     -5.01224105     -3.58952977
H      -9.10420195     -4.10448300     -5.34154021
C     -19.89073938      4.49945095     -4.15171551
H     -18.83561723     -7.16969893     -1.82045098
H      -6.60446424     -4.07155234     -3.01542473
C       9.71082414     -4.93780316      7.32796318
H      -7.61075870     -5.75273996     -2.72798537
H      -7.28389008     -5.67953955    -16.88575898
H      -7.27617889     -6.44893354    -16.75780031
C       6.70166191      0.75812486      9.57193791
H       5.63023661      0.40764196      9.10746862
C       9.29810409     -5.49491507      5.91076132
H       6.31736334     -0.40489705      9.62236863
H      10.02676653     -4.79215305      5.21045756
H       8.29246590     -4.81330174      5.70976107
C       9.26954591     -7.18946099      5.77875376
H       8.31334328     -7.59720347      5.10330194
C       5.51001630      0.74821460     -3.64441904
H       8.86743288     -7.78113242      6.79244291
H       5.11229022      0.99242523     -4.79000116
H       5.98388675      1.87198038     -3.57232042
C       4.52343429      0.38491605     -2.28958236
H       3.69820564     -0.48363807     -2.13345536
C       6.77725769      9.35277083    -15.75254447
H       3.97362524     -0.54424861     -2.81401289
H       6.13125099     10.16089785    -16.21192283
H      -0.76700915     12.55321506     11.39220641
C      12.37234461     -6.91729667    -13.67192055
H     -18.96717283      4.90466984     -3.57119905
H     -19.21494301     -7.15367124     -1.13908832
C      -3.17971963      3.80564759    -11.36533380
H     -20.81991843      4.11249704     -4.73572736
C      -2.53539749     -5.57810561     12.53393322
H      -4.34495877      3.74067866    -11.08979251
H      -1.16141875     -5.71872082     10.63569383
H      -3.51163793     -5.20332572     13.06633767
C       4.22415868      1.12770443     -0.80522146
H      -2.75369301      3.07646117      3.29807848
C      -3.55447451      3.07448551      4.23342114
H       3.17201290      1.70427239     -0.70348715
H      -3.45435672      4.12871540      4.86167012
H      -3.31051441      2.12667747      4.98059208
H      -4.69933367      2.96608814      3.79334328
H      11.94284700     -5.83658463    -13.37948360
H      12.89496904     -7.08642857    -14.73783995
H      12.27921780     -7.82887681    -12.89843808
H       8.50718258      2.40859160     12.75803526
H       6.46661294      4.56181659     13.39147481
H      -1.13488622     -7.31733340     11.80966933
H       8.40411395      0.95463020     10.92798622
H      -8.70101793     -4.16259184     22.46177845
H       6.48475842      7.33061022     11.53337837
H      -2.36221157     13.40525670     23.45616231
H       8.97480651      6.09221599     13.50043020
H       8.48849113     -0.98772963     -5.82566053
H      -2.52405845     11.62087147     11.09809620
H      17.22121206      0.28702596     -4.28314203
H      -2.51714852      2.80710060    -11.40810581
H      10.82831533     -8.89866116      4.51673500
H      28.53750198     -1.46704732     -0.02459358
H       9.38470558      5.50161898     11.93025508
C      17.30322965     -4.04092092     16.91429424
C      -1.19851065     -6.09134021     11.80484294
C       7.43413618      2.65644302     12.21102939
C       7.40021781      4.30262334     12.64207714
C       7.37832846      1.59525509     10.87912058
C       7.60346458      7.10410439     11.92479665
C       8.32102057      5.71779747     12.51307341
C      -1.96914381     12.71684742     11.18192627
C      -1.84286047     14.36958675     23.06306280
C       7.88125219     -1.07660183     -4.79630038
C      17.25409391      0.80153088     -5.35673916
C      17.91911196      0.02992096     -6.51118159
C      28.24060075     -0.49961151     -0.66790044
C       6.66088849     -0.23242092     -4.23988169
C      10.65224436     -7.97442688      5.27708070
H      27.78748157     -0.62875528     -1.77059304
H      -6.28166733     -5.64267975     -4.19252002
H      16.35524265     -3.75935048     17.46515407
H      -8.57271924     -3.49036836     22.83601772
H      -0.19529301     -5.66177006     12.36711913
H       7.30131762      1.04247824      8.52446813
H       6.63951784      2.07471313     12.95293157
H       7.97469766      8.24266194     11.73933096
H      -1.32350938     15.33391679     22.66996328
H       4.46862237      1.34839687      0.37417939
H       8.37491325     -1.93203420     -4.12853719
H      -2.12101265     13.33546016     10.12818286
H      16.80196447      1.87874143     -5.58827967
H      -2.67704899      4.86916366    -11.59810369
H      11.81891109     -7.81322612      5.55233589
H      28.39681871      0.59696806     -0.20851469
H      -2.46449498     13.35784300     12.10921959
   94

C      -8.28113868     -4.49006817     -4.59922124
C      -7.14520710     -5.01215918     -3.58960093
H      -9.10439365     -4.10466918     -5.34130171
C     -19.89089236      4.49998811     -4.15181972
H     -18.83560120     -7.16969530     -1.82045291
H      -6.60398985     -4.07165071     -3.01544647
C       9.72138261     -4.96084419      7.35721504
H      -7.61114120     -5.75258708     -2.72831762
H      -7.28386406     -5.67952954    -16.88573240
H      -7.27615394     -6.44892369    -16.75777461
C       6.70322057      0.76481009      9.57959185
H       5.61480554      0.45504634      9.12364367
C       9.30710814     -5.51886606      5.94083260
H       6.33493069     -0.40415718      9.63695525
H      10.03459808     -4.81659761      5.23879997
H       8.30085257     -4.83746634      5.74212464
C       9.27902228     -7.21343110      5.80893083
H       8.32298701     -7.62108714      5.13318881
C       5.61866482      0.73264579     -3.63214812
H       8.87702224     -7.80502783      6.82269925
H       5.23634093      0.94737657     -4.78726448
H       6.05445463      1.87120952     -3.56074156
C       4.56916426      0.37839140     -2.31955355
H       3.75753256     -0.50119681     -2.14945880
C       6.77716582      9.35288344    -15.75269807
H       3.98764560     -0.52381173     -2.86079537
H       6.13114905     10.16101506    -16.21205289
H      -0.76695181     12.55370234     11.39227397
C      12.37206606     -6.91789434    -13.67277564
H     -18.96707068      4.90439795     -3.57114504
H     -19.21492819     -7.15366801     -1.13909092
C      -3.17959652      3.80558646    -11.36525599
H     -20.81982868      4.11222190     -4.73567895
C      -2.53547079     -5.57811903     12.53396501
H      -4.34483770      3.74060814    -11.08972531
H      -1.16148760     -5.71874628     10.63573480
H      -3.51170572     -5.20332632     13.06636939
C       4.22707750      1.13776334     -0.85306770
H      -2.75392879      3.07597797      3.29775201
C      -3.55469439      3.07398433      4.23310689
H       3.17495034      1.71679404     -0.74802446
H      -3.45457349      4.12821463      4.86135344
H      -3.31072101      2.12617134      4.98026601
H      -4.69954533      2.96557644      3.79301194
H      11.94250732     -5.83717899    -13.38044579
H      12.89477029     -7.08699915    -14.73865926
H      12.27893415     -7.82945489    -12.89927237
H       8.50404462      2.39938716     12.77584799
H       6.45812438      4.55707432     13.37684589
H      -1.13496549     -7.31735764     11.80971219
H       8.42894442      0.96165106     10.92196856
H      -8.70102716     -4.16259226     22.46178467
H       6.48458905      7.32816971     11.52664404
H      -2.36221336     13.40533518     23.45670143
H       8.96598156      6.07661698     13.50030590
H       8.68821615     -0.93269791     -5.76004593
H      -2.52400065     11.62135742     11.09816133
H      17.30492544      0.30242515     -4.34619889
H      -2.51700579      2.80705112    -11.40799663
H      10.83805129     -8.92061366      4.54451352
H      28.63226106     -1.47790142      0.01771564
H       9.37913819      5.49821193     11.91717859
C      17.30316813     -4.04097623     16.91465988
C      -1.19858468     -6.09136446     11.80488379
C       7.43773456      2.64892247     12.21603052
C       7.39786389      4.29654753     12.63607943
C       7.39534654      1.59166686     10.88278339
C       7.60232181      7.09936522     11.91987785
C       8.31786899      5.71117084     12.50596844
C      -1.96908626     12.71733343     11.18199184
C      -1.84286236     14.36966534     23.06360205
C       8.09928004     -1.00561960     -4.71660268
C      17.34340711      0.81805314     -5.41909044
C      18.00422078      0.04491997     -6.57504230
C      28.32399853     -0.48450008     -0.57410605
C       6.83303945     -0.20774923     -4.17797059
C      10.66167806     -7.99879041      5.30773312
H      25.82518731     -0.60869168     -2.08175097
H      -6.28121580     -5.64254488     -4.19230576
H      16.35516888     -3.75938469     17.46548732
H      -8.57272836     -3.49036878     22.83602392
H      -0.19537324     -5.66179613     12.36717184
H       7.29059740      1.05334685      8.52694756
H       6.63034745      2.07103903     12.94705626
H       7.97684066      8.23757006     11.73926506
H      -1.32351135     15.33399551     22.67050272
H       4.46200175      1.35266344      0.32751803
H       8.56165354     -1.90478716     -4.08122844
H      -2.12095428     13.33594646     10.12824852
H      16.89868108      1.89883817     -5.64840316
H      -2.67694770      4.86910815    -11.59804772
H      11.82786195     -7.84047278      5.58670343
H      28.53800034      0.60897864     -0.13718351
H      -2.46443770     13.35832859     12.10928528
   94

C      -8.28092727     -4.48997820     -4.59930551
C      -7.14501996     -5.01208370     -3.58966538
H      -9.10460815     -4.10486120     -5.34105947
C     -19.89104926      4.50052598     -4.15192337
H     -18.83558890     -7.16969267     -1.82045405
H      -6.60354109     -4.07175569     -3.01546173
C       9.73175537     -4.98395545      7.38657413
H      -7.61154780     -5.75244002     -2.72864210
H      -7.28385316     -5.67952513    -16.88571503
H      -7.27614340     -6.44891936    -16.75775771
C       6.70433251      0.77141058      9.58727377
H       5.60031845      0.50292659      9.14044263
C       9.31591736     -5.54288558      5.97101593
H       6.35257507     -0.40338853      9.65135322
H      10.04223324     -4.84111872      5.26725280
H       8.30905716     -4.86168777      5.77460092
C       9.28831646     -7.23746716      5.83919770
H       8.33245722     -7.64502705      5.16314793
C       5.72805622      0.71471250     -3.61831728
H       8.88641458     -7.82898972      6.85303920
H       5.36181371      0.89767877     -4.78257758
H       6.12496772      1.86734465     -3.55171173
C       4.61768760      0.37199335     -2.35014854
H       3.82205448     -0.52081133     -2.16941362
C       6.77700178      9.35303955    -15.75291230
H       3.99990786     -0.49821330     -2.90730138
H       6.13098152     10.16118384    -16.21223765
H      -0.76689467     12.55418662     11.39233966
C      12.37157705     -6.91869191    -13.67382787
H     -18.96697300      4.90412642     -3.57109050
H     -19.21491682     -7.15366567     -1.13909257
C      -3.17952405      3.80553942    -11.36519710
H     -20.81974213      4.11194727     -4.73562986
C      -2.53554155     -5.57812725     12.53398995
H      -4.34476645      3.74055292    -11.08967371
H      -1.16155306     -5.71876438     10.63576844
H      -3.51177101     -5.20332437     13.06639610
C       4.23000045      1.14654653     -0.90341312
H      -2.75408201      3.07546180      3.29737667
C      -3.55483662      3.07345876      4.23273994
H       3.17770652      1.72765469     -0.79532155
H      -3.45471459      4.12768969      4.86098441
H      -3.31085400      2.12564260      4.97989123
H      -4.69968261      2.96504421      3.79263484
H      11.94181850     -5.83801141    -13.38166751
H      12.89445169     -7.08773751    -14.73963625
H      12.27846414     -7.83021852    -12.90028386
H       8.50067016      2.39020075     12.79316107
H       6.44972889      4.55221133     13.36215185
H      -1.13504226     -7.31737529     11.80974775
H       8.45327240      0.96897460     10.91587565
H      -8.70103617     -4.16259262     22.46179072
H       6.48442142      7.32569200     11.51996567
H      -2.36221443     13.40541332     23.45724017
H       8.95712181      6.06093452     13.50008954
H       8.87741370     -0.87720460     -5.69255048
H      -2.52394302     11.62184047     11.09822435
H      17.29718437      0.32154385     -4.45308207
H      -2.51691922      2.80701246    -11.40791335
H      10.84760301     -8.94267331      4.57242521
H      28.66506611     -1.50241511      0.02209053
H       9.37353920      5.49474787     11.90415968
C      17.30312539     -4.04103818     16.91507170
C      -1.19865599     -6.09138210     11.80491706
C       7.44108754      2.64140203     12.22090850
C       7.39553281      4.29038968     12.63006378
C       7.41191330      1.58804697     10.88639715
C       7.60117578      7.09457373     11.91499797
C       8.31472035      5.70449211     12.49889438
C      -1.96902893     12.71781654     11.18205568
C      -1.84286349     14.36974356     23.06414091
C       8.32083221     -0.92573456     -4.62714089
C      17.37296947      0.84702937     -5.51927249
C      18.02948322      0.07158505     -6.67640560
C      28.38945338     -0.49770210     -0.55737650
C       7.00252783     -0.18322370     -4.11206139
C      10.67091338     -8.02325075      5.33848427
H      24.33037407     -0.58740230     -2.04101815
H      -6.28079220     -5.64241839     -4.19208517
H      16.35510831     -3.75942331     17.46585594
H      -8.57273726     -3.49036914     22.83602993
H      -0.19545086     -5.66181549     12.36721711
H       7.27987599      1.06404152      8.52981808
H       6.62130900      2.06732738     12.94106051
H       7.97897351      8.23239951     11.73924353
H      -1.32351252     15.33407383     22.67104176
H       4.45524684      1.35620885      0.27822005
H       8.74104468     -1.87769378     -4.03620123
H      -2.12089618     13.33643001     10.12831254
H      16.96141014      1.94285710     -5.73921319
H      -2.67689355      4.86906591    -11.59800641
H      11.83658415     -7.86789948      5.62125664
H      28.54920962      0.61316352     -0.15499281
H      -2.46438052     13.35881128     12.10934929
   94

C      -8.28075555     -4.48989865     -4.59937991
C      -7.14487336     -5.01201898     -3.58971914
H      -9.10485849     -4.10506252     -5.34081062
C     -19.89121319      4.50106485     -4.15202566
H     -18.83558224     -7.16969168     -1.82045356
H      -6.60313292     -4.07187149     -3.01546632
C       9.74199642     -5.00710307      7.41596918
H      -7.61199217     -5.75230329     -2.72895452
H      -7.28387501     -5.67953202    -16.88571359
H      -7.27616397     -6.44892617    -16.75775589
C       6.70500728      0.77794013      9.59494131
H       5.58684850      0.55123656      9.15774340
C       9.32460178     -5.56693448      6.00123333
H       6.37038322     -0.40258935      9.66553669
H      10.04974150     -4.86567980      5.29573429
H       8.31715151     -4.88592471      5.80711094
C       9.29747653     -7.26153096      5.86949676
H       8.34180357     -7.66898311      5.19311893
C       5.83757989      0.69469060     -3.60240811
H       8.89565456     -7.85297957      6.88340420
H       5.48737803      0.84344858     -4.77499692
H       6.19513956      1.86043846     -3.54497212
C       4.66856763      0.36539317     -2.38079540
H       3.88677285     -0.53918211     -2.19460650
C       6.77665236      9.35333400    -15.75329682
H       4.01391517     -0.47061334     -2.95175855
H       6.13063931     10.16150869    -16.21257442
H      -0.76682903     12.55466434     11.39240025
C      12.37084509     -6.91996815    -13.67527097
H     -18.96688305      4.90385563     -3.57103444
H     -19.21491062     -7.15366477     -1.13909233
C      -3.17956798      3.80551668    -11.36517210
H     -20.81966174      4.11167333     -4.73557943
C      -2.53559890     -5.57812762     12.53400307
H      -4.34480890      3.74052295    -11.08964497
H      -1.16160370     -5.71877168     10.63578919
H      -3.51182347     -5.20331872     13.06641297
C       4.23304432      1.15393322     -0.95588476
H      -2.75416052      3.07491933      3.29696738
C      -3.55490834      3.07291324      4.23233577
H       3.18097695      1.73779095     -0.84470612
H      -3.45478598      4.12714499      4.86057831
H      -3.31091843      2.12509530      4.97948199
H      -4.69975242      2.96449529      3.79222716
H      11.94057445     -5.83940078    -13.38345297
H      12.89404359     -7.08891081    -14.74093492
H      12.27783524     -7.83140087    -12.90160663
H       8.49711214      2.38103841     12.80993700
H       6.44146414      4.54723235     13.34737208
H      -1.13510528     -7.31738277     11.80977045
H       8.47711285      0.97659827     10.90967572
H      -8.70104296     -4.16259252     22.46179479
H       6.48428733      7.32317386     11.51330735
H      -2.36221256     13.40548979     23.45777567
H       8.94826490      6.04517260     13.49973972
H       9.05581318     -0.81970686     -5.62181540
H      -2.52387715     11.62231751     11.09828295
H      17.12182703      0.35166360     -4.67704489
H      -2.51695822      2.80699274    -11.40787660
H      10.85701045     -8.96480441      4.60039674
H      28.71144241     -1.52000848      0.03084007
H       9.36794146      5.49122840     11.89115209
C      17.30307049     -4.04111260     16.91557717
C      -1.19871347     -6.09138952     11.80493727
C       7.44423229      2.63388445     12.22562704
C       7.39325479      4.28415486     12.62399968
C       7.42805530      1.58439970     10.88991907
C       7.60006024      7.08972748     11.91011540
C       8.31161052      5.69776132     12.49181143
C      -1.96896321     12.71829355     11.18211537
C      -1.84286153     14.36981998     23.06467641
C       8.53729238     -0.84541661     -4.53289632
C      17.32373425      0.91022783     -5.70957796
C      18.00434767      0.13104692     -6.85023846
C      28.45261533     -0.50276373     -0.52631456
C       7.16916883     -0.15735959     -4.04273416
C      10.67998785     -8.04777692      5.36926550
H      23.15467887     -0.70737303     -1.67894243
H      -6.28041119     -5.64230483     -4.19185434
H      16.35502570     -3.75946535     17.46629607
H      -8.57274394     -3.49036904     22.83603396
H      -0.19551432     -5.66182438     12.36724863
H       7.26921647      1.07454059      8.53303187
H       6.61244228      2.06357708     12.93492855
H       7.98113027      8.22714682     11.73922002
H      -1.32351049     15.33415025     22.67157735
H       4.44890516      1.35868543      0.22662042
H       8.91350008     -1.84788525     -3.99150985
H      -2.12083019     13.33690776     10.12837264
H      16.99696820      2.03826425     -5.90820040
H      -2.67695401      4.86904734    -11.59799729
H      11.84510933     -7.89549290      5.65594942
H      28.57762235      0.61974630     -0.15667155
H      -2.46431479     13.35928780     12.10940931
   94

C      -8.28056555     -4.48981346     -4.59944752
C      -7.14470475     -5.01194551     -3.58976824
H      -9.10509482     -4.10526342     -5.34055262
C     -19.89137445      4.50160441     -4.15212719
H     -18.83557133     -7.16968960     -1.82045295
H      -6.60269987     -4.07197911     -3.01546808
C       9.75128614     -5.03061127      7.44574280
H      -7.61241357     -5.75215715     -2.72926160
H      -7.28390826     -5.67954377    -16.88571504
H      -7.27619462     -6.44893774    -16.75775641
C       6.70503174      0.78446436      9.60266559
H       5.57424406      0.59999248      9.17551390
C       9.33238622     -5.59132876      6.03181255
H       6.38821032     -0.40169928      9.67957043
H      10.05638073     -4.89064585      5.32456606
H       8.32442010     -4.91042544      5.83989601
C       9.30572102     -7.28592518      5.90011197
H       8.35028395     -7.69320249      5.22330182
C       5.94830329      0.67308605     -3.58392703
H       8.90389650     -7.87728602      6.91405954
H       5.61405983      0.78515062     -4.76383256
H       6.26643256      1.85073972     -3.54004342
C       4.72225664      0.35830663     -2.41156584
H       3.94961431     -0.55470837     -2.22493239
C       6.77609100      9.35376851    -15.75384505
H       4.03314630     -0.44335169     -2.99475026
H       6.13009936     10.16199364    -16.21305806
H      -0.76675182     12.55513362     11.39244253
C      12.37008208     -6.92155199    -13.67683727
H     -18.96679011      4.90358341     -3.57097776
H     -19.21490027     -7.15366278     -1.13909203
C      -3.17965255      3.80549965    -11.36514670
H     -20.81957795      4.11139887     -4.73552751
C      -2.53566708     -5.57811560     12.53399814
H      -4.34489124      3.74049943    -11.08961258
H      -1.16166417     -5.71876454     10.63579128
H      -3.51188441     -5.20330296     13.06641724
C       4.23741876      1.16028972     -1.01069839
H      -2.75408653      3.07434069      3.29647679
C      -3.55483749      3.07234020      4.23184249
H       3.18607186      1.74775857     -0.89612886
H      -3.45472203      4.12657207      4.86008607
H      -3.31084790      2.12452265      4.97898946
H      -4.69968337      2.96392209      3.79173834
H      11.93905468     -5.84115621    -13.38550866
H      12.89364495     -7.09041994    -14.74233204
H      12.27729740     -7.83280090    -12.90293302
H       8.49321606      2.37194606     12.82628584
H       6.43319644      4.54221395     13.33256831
H      -1.13518234     -7.31737775     11.80977521
H       8.50022321      0.98453799     10.90349770
H      -8.70105204     -4.16259143     22.46179713
H       6.48410764      7.32066475     11.50665788
H      -2.36221188     13.40556727     23.45830944
H       8.93928002      6.02939912     13.49933443
H       9.22929954     -0.75808823     -5.54721920
H      -2.52379928     11.62278570     11.09832287
H      16.89389385      0.41149350     -5.06996889
H      -2.51703934      2.80697796    -11.40784328
H      10.86536595     -8.98758142      4.62879907
H      28.73759788     -1.53618424      0.02942243
H       9.36222276      5.48770273     11.87824161
C      17.30290558     -4.04129025     16.91672387
C      -1.19878308     -6.09138441     11.80493806
C       7.44701240      2.62642380     12.23027800
C       7.39089860      4.27790586     12.61795745
C       7.44356256      1.58078486     10.89342955
C       7.59888077      7.08488333     11.90526460
C       8.30841434      5.69103760     12.48479594
C      -1.96888601     12.71876193     11.18215713
C      -1.84286062     14.36989726     23.06520997
C       8.74494753     -0.76951482     -4.43840773
C      17.33606758      1.01859532     -5.99446173
C      18.10520440      0.22972621     -7.06996709
C      28.48443120     -0.50569631     -0.49722532
C       7.33435316     -0.12865027     -3.96999219
C      10.68798201     -8.07290670      5.40039869
H      21.84103695     -0.98214608     -0.91128166
H      -6.28000910     -5.64218345     -4.19161916
H      16.35478436     -3.75956366     17.46726803
H      -8.57275294     -3.49036798     22.83603634
H      -0.19559241     -5.66182071     12.36726499
H       7.25844624      1.08490119      8.53665351
H       6.60358048      2.05984919     12.92876659
H       7.98322775      8.22186275     11.73921373
H      -1.32350933     15.33422735     22.67211079
H       4.44410420      1.35990335      0.17263562
H       9.08445271     -1.81300341     -3.94467722
H      -2.12075181     13.33737632     10.12841435
H      17.11910309      2.17726257     -6.16369464
H      -2.67705539      4.86903455    -11.59798771
H      11.85242632     -7.92418851      5.69162775
H      28.58880872      0.62612334     -0.16346591
H      -2.46423783     13.35975555     12.10945137
   94

C      -8.28019264     -4.48966179     -4.59954380
C      -7.14434174     -5.01179587     -3.58985299
H      -9.10517573     -4.10542102     -5.34030436
C     -19.89150506      4.50214639     -4.15223437
H     -18.83553814     -7.16967870     -1.82046073
H      -6.60206134     -4.07201295     -3.01551172
C       9.75165087     -5.05926384      7.48199264
H      -7.61265075     -5.75193291     -2.72960841
H      -7.28383943     -5.67952217    -16.88566563
H      -7.27612708     -6.44891640    -16.75770854
C       6.70244418      0.79137301      9.61210443
H       5.56059419      0.64954319      9.19530121
C       9.33105204     -5.62086039      6.06895635
H       6.40414935     -0.40032495      9.69508771
H      10.05391017     -4.92090743      5.35993770
H       8.32292166     -4.93966201      5.87870269
C       9.30609079     -7.31525528      5.93564992
H       8.35135004     -7.72185841      5.25748793
C       6.06773937      0.64851647     -3.56300996
H       8.90364841     -7.90661126      6.94933141
H       5.74989503      0.72176890     -4.74923300
H       6.34571899      1.83697006     -3.53680168
C       4.78373279      0.35056171     -2.44428618
H       4.01472684     -0.56708850     -2.26173847
C       6.77573532      9.35396810    -15.75407854
H       4.06399725     -0.41715681     -3.03970366
H       6.12976925     10.16222610    -16.21326693
H      -0.76673002     12.55565093     11.39247363
C      12.36981970     -6.92215632    -13.67741510
H     -18.96666262      4.90330432     -3.57092761
H     -19.21486971     -7.15365275     -1.13910125
C      -3.17932473      3.80540198    -11.36497411
H     -20.81946252      4.11112065     -4.73547760
C      -2.53610940     -5.57812444     12.53413470
H      -4.34457294      3.74039460    -11.08948099
H      -1.16212184     -5.71880423     10.63595260
H      -3.51229461     -5.20325759     13.06656581
C       4.24678142      1.16620625     -1.07033726
H      -2.75374934      3.07370449      3.29573773
C      -3.55453667      3.07173678      4.23107430
H       3.19591540      1.75699360     -0.95238400
H      -3.45445819      4.12596608      4.85932997
H      -3.31059117      2.12392572      4.97824556
H      -4.69938739      2.96332437      3.79097873
H      11.93855905     -5.84180577    -13.38626243
H      12.89334446     -7.09114147    -14.74291043
H      12.27725656     -7.83323798    -12.90328783
H       8.48789671      2.36333889     12.84357307
H       6.42405882      4.53787083     13.31862097
H      -1.13566924     -7.31743015     11.80994509
H       8.52078424      0.99280582     10.89899800
H      -8.70110876     -4.16259074     22.46183227
H       6.48339457      7.31860030     11.50046401
H      -2.36223846     13.40567138     23.45887313
H       8.92944320      6.01413830     13.49978073
H       9.42124347     -0.68233520     -5.46612873
H      -2.52377499     11.62329648     11.09834395
H      17.00041952      0.49561279     -5.59267535
H      -2.51667793      2.80690015    -11.40761878
H      10.86532969     -9.01728036      4.66319983
H      28.72097546     -1.55786721      0.03091488
H       9.35566337      5.48451240     11.86642147
C      17.30289653     -4.04171619     16.91970221
C      -1.19924342     -6.09143725     11.80509315
C       7.44832908      2.61948121     12.23625404
C       7.38764926      4.27218191     12.61295665
C       7.45681604      1.57755935     10.89841217
C       7.59706858      7.08049440     11.90112741
C       8.30440128      5.68479221     12.47877476
C      -1.96886356     12.71927334     11.18218071
C      -1.84288634     14.37000056     23.06577266
C       8.95572002     -0.69245703     -4.34525629
C      17.67064285      1.16029561     -6.32037680
C      18.54789684      0.36571571     -7.30603868
C      28.48102177     -0.51074385     -0.45902546
C       7.50664454     -0.09619967     -3.89646188
C      10.68727903     -8.10461972      5.43704821
H      19.41686265     -1.31746230     -0.00889682
H      -6.27941083     -5.64198444     -4.19141876
H      16.35458469     -3.75985214     17.46984568
H      -8.57280858     -3.49036719     22.83607092
H      -0.19608654     -5.66187442     12.36747705
H       7.24548834      1.09560009      8.54228139
H       6.59360056      2.05676408     12.92408810
H       7.98478018      8.21695507     11.73978581
H      -1.32353386     15.33432958     22.67267230
H       4.44289921      1.35946948      0.11427277
H       9.26928861     -1.76777378     -3.89607349
H      -2.12071944     13.33788256     10.12843357
H      17.46289635      2.32437353     -6.46252017
H      -2.67674456      4.86894282    -11.59782555
H      11.85015193     -7.96318330      5.73776034
H      28.56961671      0.62909620     -0.16409112
H      -2.46421712     13.36026746     12.10947358
   94

C      -8.28053361     -4.48967220     -4.59973669
C      -7.14476271     -5.01186348     -3.58999237
H      -9.10584654     -4.10563262     -5.34023112
C     -19.89171252      4.50268666     -4.15234980
H     -18.83561930     -7.16969197     -1.82047055
H      -6.60225339     -4.07225317     -3.01558677
C       9.74509487     -5.10099045      7.54026477
H      -7.61367390     -5.75192693     -2.73001420
H      -7.28381081     -5.67951021    -16.88571169
H      -7.27610453     -6.44890485    -16.75775662
C       6.69675284      0.79804721      9.62647714
H       5.54532728      0.69908254      9.22059892
C       9.31925499     -5.66375743      6.12942096
H       6.41793527     -0.39907574      9.71555382
H      10.04123287     -4.96285609      5.42097853
H       8.31076930     -4.98267606      5.94044298
C       9.30415823     -7.35700481      5.98396054
H       8.35077036     -7.76225126      5.30308235
C       6.15827875      0.63395680     -3.54761274
H       8.90111787     -7.95025403      6.99619353
H       5.85108621      0.67092945     -4.73710287
H       6.40021891      1.83062810     -3.53986572
C       4.82586849      0.34676012     -2.47807428
H       4.05917449     -0.57426760     -2.29884254
C       6.77671217      9.35334902    -15.75332937
H       4.07955508     -0.39067347     -3.08269324
H       6.13068209     10.16151857    -16.21259348
H      -0.76687284     12.55633097     11.39269171
C      12.37133210     -6.92021863    -13.67649063
H     -18.96662701      4.90305883     -3.57088757
H     -19.21494830     -7.15366543     -1.13910965
C      -3.17929337      3.80550957    -11.36523242
H     -20.81942735      4.11086402     -4.73544474
C      -2.53713702     -5.57831630     12.53487179
H      -4.34453684      3.74050773    -11.08971595
H      -1.16323833     -5.71910518     10.63676896
H      -3.51328299     -5.20326655     13.06722576
C       4.24299474      1.17369902     -1.12928166
H      -2.75494427      3.07346940      3.29567707
C      -3.55569823      3.07149396      4.23103956
H       3.19412549      1.77014661     -1.00572155
H      -3.45557699      4.12572951      4.85927522
H      -3.31177588      2.12367695      4.97820834
H      -4.70053214      2.96307914      3.79090425
H      11.94117120     -5.83961764    -13.38463617
H      12.89444509     -7.08930263    -14.74217513
H      12.27829305     -7.83167849    -12.90286347
H       8.48294606      2.35560077     12.86268912
H       6.41545786      4.53446364     13.30646203
H      -1.13677656     -7.31774566     11.81077391
H       8.53992425      1.00087338     10.89778424
H      -8.70121220     -4.16259897     22.46194746
H       6.48290862      7.31700695     11.49576502
H      -2.36226870     13.40579600     23.45946464
H       8.92031199      5.99954651     13.50120292
H       9.56852203     -0.60110075     -5.42088758
H      -2.52392527     11.62397474     11.09855610
H      18.95331986      0.94460757     -5.29883550
H      -2.51666618      2.80699678    -11.40794190
H      10.86637543     -9.05563430      4.71065559
H      28.74788306     -1.58041478      0.04056039
H       9.34954018      5.48169567     11.85580488
C      17.30387279     -4.04135299     16.91804095
C      -1.20030745     -6.09175490     11.80590126
C       7.44961980      2.61320041     12.24493205
C       7.38479051      4.26719513     12.60977661
C       7.46899005      1.57428664     10.90681647
C       7.59559282      7.07655342     11.89816883
C       8.30093465      5.67912213     12.47400317
C      -1.96900431     12.71994717     11.18238396
C      -1.84291491     14.37012361     23.06636223
C       9.10988392     -0.63092363     -4.29368575
C      18.29910993      1.12650120     -6.27865964
C      18.62622809      0.18453215     -7.45234129
C      28.53093184     -0.51305713     -0.40491943
C       7.64316372     -0.05002031     -3.84211257
C      10.68666160     -8.14590504      5.48778058
H      15.67655760     -1.09917234     -0.76633041
H      -6.27960190     -5.64200608     -4.19127429
H      16.35577167     -3.75970254     17.46866547
H      -8.57290779     -3.49037422     22.83618252
H      -0.19721064     -5.66218147     12.36837427
H       7.22937987      1.10615360      8.55294381
H       6.58415317      2.05459836     12.92267483
H       7.98664716      8.21244010     11.74128641
H      -1.32356032     15.33445052     22.67325921
H       4.43058165      1.35959511      0.05635573
H       9.36236054     -1.75323742     -3.91651082
H      -2.12084995     13.33854949     10.12863163
H      17.66745202      2.12128991     -6.45259144
H      -2.67667587      4.86904247    -11.59804241
H      11.84828931     -8.00941262      5.79582172
H      28.59819170      0.63515496     -0.15616318
H      -2.46435400     13.36094584     12.10967546
   94

C      -8.28098019     -4.48979283     -4.59979570
C      -7.14529622     -5.01205017     -3.58999343
H      -9.10662126     -4.10595362     -5.34002627
C     -19.89194586      4.50324196     -4.15245091
H     -18.83567496     -7.16971221     -1.82045730
H      -6.60257084     -4.07261097     -3.01551421
C       9.77377579     -5.11312106      7.55485163
H      -7.61477291     -5.75204148     -2.73026327
H      -7.28397183     -5.67957117    -16.88584906
H      -7.27626016     -6.44896483    -16.75788831
C       6.69900650      0.80328465      9.63173203
H       5.53965957      0.74773481      9.23693922
C       9.34788378     -5.67668274      6.14426625
H       6.44040907     -0.39915555      9.72641522
H      10.06913037     -4.97657737      5.43401438
H       8.33835674     -4.99627023      5.95867612
C       9.32870421     -7.37045267      6.00370081
H       8.37434110     -7.77643771      5.32459723
C       6.21811090      0.63247942     -3.53142708
H       8.92691621     -7.96303050      7.01683937
H       5.91661656      0.63492893     -4.72148285
H       6.42995555      1.83451865     -3.54282635
C       4.84905520      0.34410561     -2.50592483
H       4.08486335     -0.57986545     -2.32781151
C       6.77706762      9.35335401    -15.75339581
H       4.07893484     -0.36657804     -3.11629623
H       6.13097523     10.16149067    -16.21263362
H      -0.76672019     12.55675591     11.39278574
C      12.37244528     -6.92022597    -13.67696367
H     -18.96661088      4.90280075     -3.57082559
H     -19.21499901     -7.15368379     -1.13909369
C      -3.18014657      3.80582507    -11.36582676
H     -20.81940802      4.11059576     -4.73539439
C      -2.53649090     -5.57828614     12.53462454
H      -4.34535441      3.74082634    -11.09016130
H      -1.16253099     -5.71902719     10.63649850
H      -3.51268136     -5.20333435     13.06697936
C       4.23100327      1.18049209     -1.17945005
H      -2.75563912      3.07309052      3.29584741
C      -3.55631459      3.07104502      4.23127101
H       3.18728254      1.78711837     -1.04724793
H      -3.45611041      4.12529180      4.85946957
H      -3.31228814      2.12321082      4.97837969
H      -4.70113692      2.96261836      3.79111546
H      11.94232771     -5.83958179    -13.38522141
H      12.89571380     -7.08923696    -14.74258022
H      12.27914827     -7.83179972    -12.90350705
H       8.48074173      2.34576272     12.87542514
H       6.40909144      4.52772084     13.29003826
H      -1.13606229     -7.31764998     11.81048896
H       8.56503084      1.00952122     10.88872371
H      -8.70114586     -4.16260062     22.46190305
H       6.48366245      7.31357069     11.48868737
H      -2.36222446     13.40583420     23.45996880
H       8.91263317      5.98256129     13.49905845
H       9.60918871     -0.57618155     -5.42596471
H      -2.52377732     11.62440985     11.09866030
H      18.86010302      0.67322540     -4.98834545
H      -2.51761405      2.80725827    -11.40872820
H      10.89121742     -9.06403624      4.72529842
H      28.78342336     -1.60235728      0.04499238
H       9.34508950      5.47738345     11.84141613
C      17.30383434     -4.04107141     16.91612064
C      -1.19962685     -6.09165819     11.80563871
C       7.45394707      2.60479442     12.24693505
C       7.38408045      4.25966243     12.60206832
C       7.48637341      1.56975196     10.90770948
C       7.59547761      7.07070507     11.89241811
C       8.29913934      5.67135277     12.46558884
C      -1.96885210     12.72038038     11.18248613
C      -1.84287133     14.37016248     23.06686734
C       9.17878124     -0.63311708     -4.28513019
C      18.49075827      1.03866581     -6.06018681
C      18.87657599      0.12909188     -7.24007055
C      28.58904688     -0.51354787     -0.34505065
C       7.74098626      0.00288029     -3.78348188
C      10.71189010     -8.15740088      5.50608235
H      14.25005938     -0.53304861     -1.66771677
H      -6.27991228     -5.64215518     -4.19099226
H      16.35582708     -3.75948975     17.46694185
H      -8.57284326     -3.49037610     22.83613915
H      -0.19648755     -5.66208870     12.36804499
H       7.22278571      1.11462679      8.55513024
H       6.57794416      2.04945995     12.91381085
H       7.98963601      8.20615969     11.74062320
H      -1.32351784     15.33449051     22.67376574
H       4.41703881      1.36093257      0.00555468
H       9.34139466     -1.80176384     -3.99760882
H      -2.12070979     13.33899206     10.12874091
H      17.96444217      2.08638719     -6.26735411
H      -2.67748521      4.86934434    -11.59860224
H      11.87447351     -8.01779955      5.80932504
H      28.63175768      0.64285206     -0.15437477
H      -2.46419877     13.36137727     12.10978054
   94

C      -8.28093502     -4.48977353     -4.59981334
C      -7.14528392     -5.01205046     -3.58998343
H      -9.10697439     -4.10620121     -5.33973812
C     -19.89211745      4.50378286     -4.15254810
H     -18.83566813     -7.16971490     -1.82044835
H      -6.60230104     -4.07279313     -3.01544967
C       9.79367675     -5.12657048      7.56917427
H      -7.61533977     -5.75196990     -2.73050794
H      -7.28403266     -5.67959844    -16.88588644
H      -7.27631775     -6.44899164    -16.75792312
C       6.69998001      0.80895066      9.63618829
H       5.53441043      0.79714916      9.25251301
C       9.36768968     -5.69081425      6.15882499
H       6.46237324     -0.39864861      9.73629543
H      10.08708298     -4.99160596      5.44550945
H       8.35720737     -5.01096208      5.97634152
C       9.34523353     -7.38519461      6.02412580
H       8.39054543     -7.79189282      5.34589426
C       6.31308973      0.61067022     -3.50198473
H       8.94404418     -7.97697879      7.03801306
H       6.02141268      0.57831625     -4.69293687
H       6.49728441      1.81683078     -3.53596172
C       4.89542731      0.33666431     -2.53297936
H       4.12747726     -0.58597091     -2.36014421
C       6.77709703      9.35335936    -15.75343363
H       4.10369695     -0.34510274     -3.15236471
H       6.13099892     10.16149656    -16.21266316
H      -0.76652425     12.55711487     11.39278027
C      12.37297921     -6.92002240    -13.67609677
H     -18.96653100      4.90252967     -3.57076466
H     -19.21499114     -7.15368591     -1.13908419
C      -3.18043412      3.80591068    -11.36596444
H     -20.81933202      4.11032322     -4.73533801
C      -2.53594234     -5.57818063     12.53427057
H      -4.34563204      3.74092153    -11.09025565
H      -1.16192520     -5.71886398     10.63611086
H      -3.51215850     -5.20333308     13.06666235
C       4.23633314      1.18612989     -1.23441151
H      -2.75530490      3.07245825      3.29545930
C      -3.55598129      3.07040537      4.23088212
H       3.19585727      1.79975379     -1.09420503
H      -3.45577622      4.12465322      4.85907910
H      -3.31191798      2.12257109      4.97797908
H      -4.70081169      2.96198124      3.79074668
H      11.94295014     -5.83934362    -13.38435652
H      12.89609975     -7.08905397    -14.74178140
H      12.27974413     -7.83154754    -12.90257663
H       8.47763752      2.33605845     12.88740806
H       6.40242090      4.52113805     13.27363689
H      -1.13547031     -7.31747855     11.81009545
H       8.58833726      1.01859389     10.87935195
H      -8.70108840     -4.16259713     22.46184866
H       6.48416881      7.31024057     11.48137683
H      -2.36218760     13.40587332     23.46045963
H       8.90449668      5.96570508     13.49682945
H       9.68346827     -0.60336495     -5.39746824
H      -2.52358077     11.62477471     11.09865934
H      18.58951157      0.49545285     -4.83753705
H      -2.51793392      2.80732525    -11.40892535
H      10.90739754     -9.07646298      4.74251766
H      28.81415358     -1.62355327      0.04401147
H       9.34019694      5.47314381     11.82709593
C      17.30373141     -4.04095471     16.91537217
C      -1.19905434     -6.09148543     11.80525541
C       7.45731726      2.59662206     12.24854934
C       7.38288799      4.25228781     12.59428171
C       7.50222453      1.56564063     10.90803581
C       7.59505976      7.06497667     11.88657024
C       8.29694466      5.66371245     12.45720788
C      -1.96865694     12.72074583     11.18248904
C      -1.84283490     14.37020202     23.06735881
C       9.29431349     -0.64418223     -4.23763643
C      18.44231572      0.95945084     -5.92436235
C      18.95363531      0.10802211     -7.09982377
C      28.64610747     -0.51292457     -0.27941045
C       7.86923741      0.02500257     -3.70776876
C      10.72818187     -8.17228355      5.52611642
H      13.33275682      0.07231545     -2.41401709
H      -6.27967058     -5.64211333     -4.19069687
H      16.35574299     -3.75938793     17.46623273
H      -8.57278759     -3.49037306     22.83608618
H      -0.19588492     -5.66192003     12.36761637
H       7.21562753      1.12327367      8.55680418
H       6.57114423      2.04453280     12.90468581
H       7.99235693      8.19994584     11.73979524
H      -1.32348224     15.33453090     22.67425840
H       4.41761787      1.35950307     -0.04916003
H       9.44756178     -1.82033895     -3.96360324
H      -2.12052236     13.33936349     10.12874824
H      17.98346427      2.03484154     -6.14946668
H      -2.67775536      4.86942387    -11.59872865
H      11.89062993     -8.03397611      5.83044492
H      28.66006715      0.64958895     -0.15810854
H      -2.46400337     13.36174086     12.10978502
   94

C      -8.28054093     -4.48964101     -4.59978215
C      -7.14470493     -5.01176916     -3.59007499
H      -9.10702612     -4.10637858     -5.33937194
C     -19.89223758      4.50432659     -4.15264857
H     -18.83561724     -7.16969893     -1.82045097
H      -6.60118678     -4.07283267     -3.01551816
C       9.81100742     -5.14488550      7.58832476
H      -7.61580804     -5.75158447     -2.73108266
H      -7.28389008     -5.67953955    -16.88575898
H      -7.27617889     -6.44893354    -16.75780031
C       6.69517950      0.81794558      9.64722815
H       5.52331283      0.89228701      9.28232089
C       9.38318281     -5.70997007      6.17883202
H       6.50316764     -0.39945261      9.75957448
H      10.10015331     -5.01167814      5.46198498
H       8.37161407     -5.03046793      6.00096917
C       9.35920919     -7.40473242      6.04790882
H       8.40445960     -7.81160183      5.36987215
C       6.53954857      0.54047152     -3.44037016
H       8.95867418     -7.99601364      7.06237187
H       6.26753248      0.44010833     -4.63013514
H       6.67156541      1.75235290     -3.51780854
C       5.02703859      0.31735797     -2.58429743
H       4.24705560     -0.59900446     -2.42199065
C       6.77725769      9.35277083    -15.75254447
H       4.19695674     -0.30804348     -3.22057022
H       6.13125099     10.16089785    -16.21192283
H      -0.76627556     12.55746285     11.39267685
C      12.37234461     -6.91729667    -13.67192055
H     -18.96639001      4.90224645     -3.57071133
H     -19.21494301     -7.15367124     -1.13908832
C      -3.17971907      3.80564762    -11.36533393
H     -20.81920306      4.11004480     -4.73528203
C      -2.53539763     -5.57810573     12.53393305
H      -4.34495816      3.74067870    -11.08979265
H      -1.16141834     -5.71872158     10.63569348
H      -3.51163739     -5.20332526     13.06633832
C       4.28700512      1.19216635     -1.34170434
H      -2.75445743      3.07181379      3.29473015
C      -3.55523895      3.06983820      4.23007288
H       3.24561489      1.80497657     -1.17339542
H      -3.45512138      4.12406802      4.85832201
H      -3.31127854      2.12203009      4.97724364
H      -4.70009826      2.96144095      3.78999537
H      11.94284700     -5.83658463    -13.37948360
H      12.89496904     -7.08642857    -14.73783995
H      12.27921780     -7.82887681    -12.89843808
H       8.47016691      2.32099797     12.90680132
H       6.39337840      4.51068536     13.24902795
H      -1.13488587     -7.31733349     11.80966850
H       8.62505297      1.03426829     10.86537910
H      -8.70101793     -4.16259184     22.46177845
H       6.48413788      7.30600777     11.47244359
H      -2.36216074     13.40592311     23.46095947
H       8.88939222      5.93599518     13.49502366
H      10.14696624     -0.37719087     -5.13878118
H      -2.52332500     11.62511913     11.09856604
H      18.25857063      0.40680321     -4.74601118
H      -2.51714905      2.80709987    -11.40810561
H      10.92089223     -9.09365074      4.76301418
H      28.83986289     -1.64411901      0.03101233
H       9.33117283      5.46820564     11.80165427
C      17.30322965     -4.04092092     16.91429424
C      -1.19851078     -6.09134032     11.80484278
C       7.46100462      2.58471508     12.25035385
C       7.38044887      4.24150301     12.58027935
C       7.52668284      1.55968146     10.90865934
C       7.59427696      7.05652695     11.87793235
C       8.29357233      5.65199453     12.44376410
C      -1.96841020     12.72109499     11.18239642
C      -1.84280964     14.37025315     23.06785996
C       9.72201826     -0.41147385     -3.98474236
C      18.28430147      0.91497973     -5.82271336
C      18.94529646      0.13570185     -6.97436917
C      28.71282568     -0.50950727     -0.19092342
C       8.15419323      0.05864846     -3.60470419
C      10.74181078     -8.19268266      5.55033385
H      10.85294318     -0.04746832     -3.63965269
H      -6.27862128     -5.64165456     -4.19030110
H      16.35524265     -3.75935048     17.46515407
H      -8.57271924     -3.49036836     22.83601772
H      -0.19529403     -5.66176943     12.36711998
H       7.19890678      1.13593746      8.56357217
H       6.55687250      2.03906595     12.88746450
H       7.99726981      8.19034048     11.73884159
H      -1.32345855     15.33458320     22.67476045
H       4.45929887      1.34189994     -0.15435540
H       9.98426131     -1.57090299     -3.69808241
H      -2.12027918     13.33970743     10.12865286
H      17.82770560      1.99019245     -6.05492053
H      -2.67704963      4.86916433    -11.59810362
H      11.90371133     -8.05788016      5.85830509
H      28.68340864      0.65306431     -0.17361152
H      -2.46376107     13.36209053     12.10968994
