   94

C      10.83137502     -8.23501779     -9.00323688
C      -0.18161430    -11.29358944    -10.07451831
H      10.94136101     -7.31332995     -8.18458836
C      -0.23145847     -0.86890614      8.33303276
H      -5.13933323      7.53145952     -2.45749103
H      -0.41543830    -10.50548830     -9.25086295
C       0.90446384     -0.69356395      9.54231601
H      10.03556687     -8.93978898     -8.36642379
H      -8.82389101     -7.11496087    -18.93572149
H      -8.81617982     -7.88435486    -18.80776282
C       4.76300345     -0.68612216     -4.33251630
H      16.26525229      6.32974144     13.57266113
C       8.30629707     -9.94107598      5.45125321
H       8.56671304     12.65359943      2.14429891
H       8.46795029     -9.29280713      4.48601329
H       2.50425844    -10.90118632     17.33758517
C       6.59145210    -10.69603856      7.45691483
H       5.49409825    -10.76545339      6.95703955
C       8.18496480     12.76807324      4.58040285
H       6.27875348    -10.50215027      8.60736186
H       9.99391875     13.61118483      5.97097702
H       7.08148711     13.28581424      4.49919567
C       8.65857741     11.99024230      3.18066299
H      16.85665692      2.91566089     -5.08201493
C      15.75282822      2.69569544     -4.97145247
H       2.86211024      0.24577505     -3.61890984
H       8.07455588     10.91768953      2.99675404
H      -2.53866815     10.59090038     11.83149567
C      12.21436013     -8.98820373     -9.67222791
H      -1.32854958     -0.60537700      8.79838357
H      -4.98711061      7.49414587     -0.64500872
C       1.65820519     -2.79306342     -3.41152804
H       0.94367918     -1.89412880      9.85619495
C       1.47819573    -10.71751696     17.93036419
H       1.19457813     -2.74504070     -2.29678679
H     -10.96213609    -12.27297242     15.66815272
H       1.07348491     -9.60107587     18.09678088
C       0.43503654     -0.97067809     -5.19297435
H      -1.89884331      7.80278247     -1.20409542
C      -2.51111140     10.04713827     -1.73287184
H      -0.56281182     -0.63932470     -5.73720332
H      -2.70293785     10.73932914     -0.72804049
H      -1.35093691     10.31211896     -2.06247655
H      -3.06834164     10.70433887     -2.61366143
H      12.48877929     -8.65102899    -10.83480857
H      12.04685289    -10.15429538    -10.06510379
H      14.01329994     -9.65467507     -7.87901507
H       3.48466183      1.31351208      7.77285100
H       0.75566744      0.37175602     10.13104064
H       0.85684386    -11.65028868     18.35672652
H       5.62055621     -0.84314648     -5.15161031
H      -9.42675544     -2.95204824     23.99740376
H       6.31473543     15.06791887     16.37398524
H       9.27597952     11.92104592      6.59058576
H       3.05230731     -0.48943795     12.34838680
H      26.59648769      7.39426669     -2.17327341
H      -4.57246620      9.51177598     11.49105931
H      27.28666125      7.54264242     -1.84154386
H       0.58422016     -2.02050089      6.23864677
H       8.36920065    -12.00217896      6.47611941
H      10.03949904     -7.63875398     -9.74583297
H       4.42895684     -0.68757789     11.04723877
C      -0.25403534     -1.24342908      6.70159163
C     -10.36016020    -12.21606716     16.66242232
C       2.97024692      0.81443085      8.68700513
C       2.37742903     -0.05331889      9.86647142
C       5.91241679     -0.29859770     -3.32041387
C       8.18367301     13.80474674      7.20311523
C       3.28391659     -0.37677646     11.17069052
C      -3.55556718     10.05133818     11.66127749
C       8.94243940     12.97689447      6.04874085
C      -4.23734898      7.44188950     -1.62403900
C       1.78437022     -1.66638729     -4.61677651
C       3.12857347     -0.73571437     -4.26542133
C      13.62233029     -8.94509939     -8.77849244
C      -2.89148852      8.43155984     -1.53276841
C       8.08717612    -10.84018631      6.76752128
H       9.82782577     11.63670696      3.01568457
H       0.05220737    -12.08169066    -10.89817425
H      -1.24720581     -1.80489704      6.22889338
H      -9.29845674     -2.27982476     24.37164303
H      -9.75818431    -12.15916191     17.65669192
H      16.08941789      7.08319455     13.47371370
H       6.68690959      0.05203705     -2.51685745
H       7.01095348     15.27452786     16.65857820
H       7.66172054     14.56457685      7.93206049
H       1.70233914     -2.31453908     -5.65194632
H      -3.94414409      6.26771069     -1.86652913
H      -7.60020280     21.22156798      9.78123602
H       2.07873331     -3.92605577     -3.41884702
H      -0.13187023     -0.25751209      5.97115941
H       9.03581011    -10.55126412      7.49516848
H      14.56054053     -8.18056614     -8.81193048
H      -7.73341433     21.23018717     10.54972831
   94

C      10.51520764     -8.13244457     -9.20848069
C      -0.48375363    -11.45443471    -10.09119733
H      10.60495169     -7.19717339     -8.40980867
C      -0.23566772     -0.86457339      8.33292229
H      -5.18045146      7.62824794     -2.44714825
H      -0.71732768    -10.66615106     -9.26763727
C       0.89909757     -0.69088632      9.54378589
H       9.71319708     -8.85630965     -8.61118922
H      -8.84159429     -7.10155875    -18.95913766
H      -8.83393350     -7.87096105    -18.83122599
C       4.67444875     -0.62052109     -4.22338346
H      16.26527264      6.32977456     13.57271410
C       8.30611663     -9.94115230      5.45222163
H       8.56629923     12.65348969      2.14354486
H       8.46632271     -9.29199197      4.48735406
H       2.50425125    -10.90120358     17.33764941
C       6.59152687    -10.69605240      7.45699948
H       5.49433506    -10.76641158      6.95688754
C       8.18631661     12.76846756      4.57985768
H       6.27852804    -10.50022388      8.60702508
H       9.99740834     13.60936704      5.97026436
H       7.08175800     13.28388267      4.49948985
C       8.65880449     11.99017426      3.17991253
H      16.85700637      2.91753818     -5.08134316
C      15.75314989      2.69775241     -4.97069323
H       2.77244522      0.32556224     -3.51631266
H       8.07446439     10.91783406      2.99571682
H      -2.53870481     10.59099021     11.83170777
C      12.87198348     -9.27830556     -9.80927736
H      -1.33841546     -0.60717256      8.78930113
H      -5.03143634      7.57881946     -0.62592355
C       1.57471514     -2.73077105     -3.30270734
H       0.93769623     -1.88815060      9.86695782
C       1.47818568    -10.71753409     17.93042331
H       1.10347493     -2.67814536     -2.19142129
H     -10.96215677    -12.27298459     15.66818549
H       1.07347564     -9.60109320     18.09684289
C       0.35772973     -0.91188728     -5.07834055
H      -1.94432418      7.88431697     -1.18473677
C      -2.56193301     10.12987912     -1.71693022
H      -0.64076094     -0.56800658     -5.61197196
H      -2.75548715     10.82197652     -0.71237196
H      -1.40347803     10.39966323     -2.04827808
H      -3.12311038     10.78261060     -2.59859828
H      13.17009063     -8.94949421    -10.96468958
H      12.69819595    -10.45048870    -10.16811269
H      14.59267910     -9.89807340     -7.93481180
H       3.49056751      1.32085080      7.77682770
H       0.71570448      0.36193048     10.14613536
H       0.85683079    -11.65030682     18.35677889
H       5.51123067     -0.78693673     -5.06220584
H      -9.42676510     -2.95204974     23.99742686
H       6.31474451     15.06794887     16.37403751
H       9.27234945     11.92417663      6.59345672
H       3.06158519     -0.47643824     12.34090210
H      26.59658259      7.39441473     -2.17321210
H      -4.57251257      9.51187277     11.49130343
H      27.28676002      7.54277216     -1.84148251
H       0.58818623     -2.01893791      6.24556736
H       8.36950294    -12.00280358      6.47682273
H       9.78832711     -7.57701507    -10.03625101
H       4.44033868     -0.69310522     11.04936356
C      -0.25248181     -1.24095310      6.70232523
C     -10.36017829    -12.21607848     16.66245348
C       2.98176199      0.80794112      8.68701858
C       2.38067219     -0.06253693      9.86031602
C       5.81856276     -0.23606122     -3.20494809
C       8.18482632     13.81002577      7.20102093
C       3.29408550     -0.38008735     11.16194891
C      -3.55560961     10.05143240     11.66150826
C       8.94319780     12.97955376      6.04822136
C      -4.28505535      7.52779604     -1.60768120
C       1.70940158     -1.60561822     -4.50814422
C       3.04179898     -0.66269492     -4.15187396
C      14.21792901     -9.18364609     -8.83664340
C      -2.93662864      8.51338753     -1.51452276
C       8.08743983    -10.84080963      6.76817075
H       9.82765285     11.63550850      3.01458639
H      -0.25010939    -12.24265184    -10.91479978
H      -1.24350585     -1.80618600      6.22965156
H      -9.29846601     -2.27982603     24.37166560
H      -9.75819994    -12.15917233     17.65672154
H      16.08943791      7.08322729     13.47376437
H       6.59686785      0.11284836     -2.40457934
H       7.01096485     15.27455598     16.65862623
H       7.65951906     14.56004600      7.93767637
H       1.65343858     -2.24636255     -5.55035825
H      -4.00255142      6.35097060     -1.84966255
H      -7.60023534     21.22165572      9.78130784
H       1.99072802     -3.86530112     -3.30272225
H      -0.12968367     -0.25558485      5.97111397
H       9.03629391    -10.55266735      7.49583914
H      15.15779912     -8.42179732     -8.86778669
H      -7.73344440     21.23026331     10.54980067
   94

C      10.19756631     -8.04559305     -9.48915591
C      -0.78617204    -11.61537487    -10.10780023
H      10.32015901     -7.11874267     -8.69060479
C      -0.23981013     -0.86007167      8.33283334
H      -5.22138363      7.72486459     -2.43675013
H      -1.01948005    -10.82692481     -9.28431565
C       0.89370809     -0.68798142      9.54545089
H       9.42367504     -8.79766910     -8.89762999
H      -8.85928058     -7.08815321    -18.98253594
H      -8.85166920     -7.85756420    -18.85467372
C       4.58656399     -0.55550838     -4.11493973
H      16.26528491      6.32979423     13.57274451
C       8.30596255     -9.94115751      5.45280119
H       8.56586833     12.65332423      2.14276461
H       8.46473230     -9.29120456      4.48823935
H       2.50425044    -10.90121707     17.33768534
C       6.59166547    -10.69598053      7.45680579
H       5.49462721    -10.76729749      6.95647928
C       8.18765168     12.76881571      4.57928577
H       6.27838257    -10.49826584      8.60642130
H      10.00088208     13.60748786      5.96952121
H       7.08201791     13.28190406      4.49975335
C       8.65901387     11.99005333      3.17913773
H      16.85691554      2.91864639     -5.08090652
C      15.75306431      2.69883294     -4.97024799
H       2.68352320      0.40485173     -3.41419562
H       8.07435504     10.91792577      2.99465484
H      -2.53873455     10.59106928     11.83189968
C      13.51321971     -9.54212131     -9.87121644
H      -1.34814351     -0.60896884      8.78019135
H      -5.07569091      7.66343382     -0.60686144
C       1.49169880     -2.66872308     -3.19406138
H       0.93185261     -1.88201805      9.87752849
C       1.47818398    -10.71754785     17.93045772
H       1.01280105     -2.61154677     -2.08632956
H     -10.96217139    -12.27299522     15.66821138
H       1.07347479     -9.60110727     18.09688118
C       0.28088350     -0.85332940     -4.96384086
H      -1.98976306      7.96579695     -1.16540780
C      -2.61270564     10.21256098     -1.70098145
H      -0.71817325     -0.49674512     -5.48641360
H      -2.80798762     10.90455015     -0.69668830
H      -1.45598970     10.48713979     -2.03406291
H      -3.17779860     10.86082046     -2.58351034
H      13.77549932     -9.19234769    -11.02502541
H      13.29460174    -10.70578919    -10.21908610
H      15.21332264    -10.15626873     -7.99044640
H       3.49644606      1.32820269      7.78093115
H       0.67589417      0.35118541     10.16100514
H       0.85682704    -11.65032116     18.35680897
H       5.40202712     -0.73198199     -4.97285646
H      -9.42677235     -2.95205169     23.99744618
H       6.31475391     15.06797246     16.37408106
H       9.26868218     11.92731655      6.59630372
H       3.07070842     -0.46318203     12.33309059
H      26.59664398      7.39454366     -2.17315922
H      -4.57255200      9.51195935     11.49152603
H      27.28682521      7.54288598     -1.84143081
H       0.59216320     -2.01735815      6.25255095
H       8.36983906    -12.00332979      6.47719838
H       9.48772257     -7.50295432    -10.33405545
H       4.45160064     -0.69857249     11.05161153
C      -0.25088217     -1.23847164      6.70311600
C     -10.36019058    -12.21608832     16.66247790
C       2.99334547      0.80133210      8.68688314
C       2.38404416     -0.07197226      9.85390706
C       5.72515557     -0.17436442     -3.08983136
C       8.18598309     13.81536928      7.19886399
C       3.30418943     -0.38341660     11.15309871
C      -3.55564498     10.05151598     11.66171791
C       8.94393787     12.98219726      6.04767314
C      -4.33270881      7.61364851     -1.59134310
C       1.63492508     -1.54504367     -4.39962847
C       2.95564572     -0.59016267     -4.03861330
C      14.85374004     -9.44690702     -8.90093070
C      -2.98172340      8.59516835     -1.49630509
C       8.08773911    -10.84132591      6.76846649
H       9.82746088     11.63425590      3.01346529
H      -0.55269609    -12.40369275    -10.93136148
H      -1.23976082     -1.80747471      6.23050883
H      -9.29847300     -2.27982780     24.37168451
H      -9.75821006    -12.15918136     17.65674460
H      16.08945033      7.08324684     13.47379362
H       6.50736813      0.17288320     -2.29280500
H       7.01097631     15.27457791     16.65866594
H       7.65734614     14.55536365      7.94324886
H       1.60485075     -2.17817648     -5.44827067
H      -4.06095241      6.43426728     -1.83281984
H      -7.60026659     21.22174247      9.78138008
H       1.90318685     -3.80473128     -3.18686881
H      -0.12746355     -0.25367183      5.97109420
H       9.03681385    -10.55396247      7.49615552
H      15.78128409     -8.67166754     -8.92763278
H      -7.73347322     21.23033819     10.54987345
   94

C       9.88597643     -7.96431930     -9.77725035
C      -1.08855117    -11.77631586    -10.12440737
H      10.06317778     -7.05286408     -8.97683044
C      -0.24390271     -0.85539034      8.33280463
H      -5.26214225      7.82131713     -2.42629671
H      -1.32162334    -10.98772567     -9.30098343
C       0.88826775     -0.68482488      9.54736232
H       9.14673475     -8.74329458     -9.18401375
H      -8.87692582     -7.07475298    -19.00589790
H      -8.86936028     -7.84417264    -18.87808531
C       4.49905399     -0.49070726     -4.00704438
H      16.26529252      6.32980365     13.57275766
C       8.30583269     -9.94112491      5.45314973
H       8.56541963     12.65311969      2.14196518
H       8.46317897     -9.29043119      4.48886146
H       2.50425392    -10.90122841     17.33770267
C       6.59184941    -10.69586286      7.45643933
H       5.49495898    -10.76814098      6.95591280
C       8.18896899     12.76913160      4.57869484
H       6.27829314    -10.49629157      8.60565018
H      10.00433711     13.60555995      5.96875678
H       7.08226553     13.27989166      4.49999407
C       8.65920511     11.98989581      3.17834528
H      16.85656547      2.91903865     -5.08071253
C      15.75273596      2.69909356     -4.97008879
H       2.59497355      0.48381305     -3.31248441
H       8.07422710     10.91798116      2.99357480
H      -2.53876093     10.59114232     11.83207509
C      14.14560490     -9.80124085     -9.92311066
H      -1.35774691     -0.61075445      8.77109614
H      -5.11988429      7.74799613     -0.58782020
C       1.40891881     -2.60677154     -3.08556834
H       0.92615508     -1.87572415      9.88791955
C       1.47818790    -10.71755978     17.93047596
H       0.92232985     -2.54508508     -1.98148547
H     -10.96218223    -12.27300508     15.66823255
H       1.07347958     -9.60111961     18.09690417
C       0.20433551     -0.79492646     -4.84955006
H      -2.03517209      8.04723374     -1.14610439
C      -2.66343840     10.29519361     -1.68502504
H      -0.79518886     -0.42549760     -5.36062739
H      -2.86044828     10.98706002     -0.68098923
H      -1.50848084     10.57455834     -2.01983030
H      -3.23241514     10.93897761     -2.56839809
H      14.35091241     -9.41619326    -11.07283129
H      13.87543304    -10.95099748    -10.26650017
H      15.83716687    -10.41669668     -8.05017380
H       3.50228666      1.33556487      7.78519374
H       0.63622530      0.33956908     10.17564630
H       0.85682956    -11.65033346     18.35682430
H       5.29265019     -0.67757411     -4.88346700
H      -9.42677838     -2.95205393     23.99746348
H       6.31476345     15.06799216     16.37411844
H       9.26498008     11.93047561      6.59913146
H       3.07966133     -0.44968171     12.32496903
H      26.59666939      7.39464064     -2.17311979
H      -4.57258801      9.51204041     11.49173056
H      27.28685380      7.54297250     -1.84139335
H       0.59612305     -2.01574615      6.25963217
H       8.37020441    -12.00380404      6.47736794
H       9.18171957     -7.42478819    -10.62360118
H       4.46272094     -0.70396883     11.05400564
C      -0.24926329     -1.23596982      6.70400183
C     -10.36019932    -12.21609748     16.66249774
C       3.00498659      0.79461117      8.68662591
C       2.38752099     -0.08161517      9.84727126
C       5.63180503     -0.11295527     -2.97488574
C       8.18713923     13.82077805      7.19665780
C       3.31421292     -0.38675461     11.14416901
C      -3.55567685     10.05159365     11.66191005
C       8.94465855     12.98483542      6.04710428
C      -4.38032035      7.69945633     -1.57502321
C       1.56075877     -1.48457035     -4.29124824
C       2.86982969     -0.51790902     -3.92558694
C      15.49526665     -9.71686202     -8.97333016
C      -3.02678451      8.67691269     -1.47811447
C       8.08806774    -10.84178726      6.76854793
H       9.82724949     11.63296583      3.01232795
H      -0.85523076    -12.56472149    -10.94793487
H      -1.23599831     -1.80874787      6.23150394
H      -9.29847883     -2.27982989     24.37170147
H      -9.75821686    -12.15918978     17.65676321
H      16.08945837      7.08325634     13.47380660
H       6.41798675      0.23266935     -2.18131123
H       7.01098775     15.27459606     16.65869976
H       7.65520592     14.55054497      7.94877509
H       1.55645849     -2.10991681     -5.34570549
H      -4.11935751      6.51761099     -1.81599967
H      -7.60029736     21.22182951      9.78145330
H       1.81583080     -3.74421467     -3.07125930
H      -0.12523842     -0.25175748      5.97113868
H       9.03736556    -10.55520263      7.49625439
H      16.40584465     -8.92332476     -8.99230479
H      -7.73350157     21.23041306     10.54994722
   94

C       9.56609385     -7.87752860    -10.05428099
C      -1.39093536    -11.93727654    -10.14106443
H       9.79925262     -6.98192039     -9.25620328
C      -0.24794940     -0.85052965      8.33285428
H      -5.30273567      7.91761109     -2.41578535
H      -1.62381562    -11.14857661     -9.31768585
C       0.88276347     -0.68140030      9.54954879
H       8.86019735     -8.68287748     -9.46365049
H      -8.89453030     -7.06136759    -19.02921678
H      -8.88700451     -7.83079545    -18.90145142
C       4.41176189     -0.42591637     -3.89955906
H      16.26529668      6.32980305     13.57275442
C       8.30573052     -9.94106517      5.45331856
H       8.56495311     12.65288196      2.14114978
H       8.46166656     -9.28966564      4.48928382
H       2.50426139    -10.90123816     17.33770421
C       6.59207548    -10.69571242      7.45593513
H       5.49532799    -10.76895151      6.95522070
C       8.19026833     12.76942000      4.57808828
H       6.27825410    -10.49430575      8.60474468
H      10.00777061     13.60358878      5.96797583
H       7.08250064     13.27785024      4.50021540
C       8.65937835     11.98970736      3.17753825
H      16.85606590      2.91876888     -5.08075261
C      15.75226525      2.69864700     -4.97018531
H       2.50661949      0.56254501     -3.21109178
H       8.07408058     10.91800598      2.99247977
H      -2.53878530     10.59121134     11.83223547
C      14.78706264    -10.06760607     -9.98657611
H      -1.36722583     -0.61252648      8.76203566
H      -5.16402179      7.83251088     -0.56879525
C       1.32623278     -2.54481937     -2.97717098
H       0.92061732     -1.86926800      9.89813080
C       1.47819693    -10.71757039     17.93048050
H       0.83194257     -2.47866561     -1.87682153
H     -10.96219009    -12.27301453     15.66824989
H       1.07348949     -9.60113073     18.09691430
C       0.12795897     -0.73657251     -4.73543131
H      -2.08055792      8.12863532     -1.12682208
C      -2.71413677     10.37778386     -1.66905881
H      -0.87191290     -0.35421152     -5.23462096
H      -2.91287454     11.06951279     -0.66527246
H      -1.56095700     10.66192604     -2.00557802
H      -3.28696585     11.01708847     -2.55325972
H      14.93382127     -9.64521810    -11.12756126
H      14.46560679    -11.20224066    -10.32100169
H      16.45961459    -10.67604519     -8.10991493
H       3.50809259      1.34291814      7.78962568
H       0.59669862      0.32712326     10.19003282
H       0.85683773    -11.65034432     18.35682705
H       5.18293958     -0.62330800     -4.79392951
H      -9.42678350     -2.95205645     23.99747940
H       6.31477318     15.06800870     16.37415040
H       9.26124610     11.93365622      6.60194058
H       3.08843872     -0.43595796     12.31653708
H      26.59665758      7.39469726     -2.17309714
H      -4.57262202      9.51211806     11.49191847
H      27.28684418      7.54302440     -1.84137313
H       0.60005696     -2.01409631      6.26682460
H       8.37060062    -12.00424096      6.47737106
H       8.87385519     -7.34356091    -10.90874322
H       4.47368754     -0.70929158     11.05654980
C      -0.24763354     -1.23344337      6.70499991
C     -10.36020523    -12.21610628     16.66251386
C       3.01668294      0.78778045      8.68625583
C       2.39108980     -0.09146204      9.84041754
C       5.53833545     -0.05159463     -2.85996891
C       8.18829084     13.82624528      7.19441177
C       3.32415058     -0.39009873     11.13517085
C      -3.55570663     10.05166752     11.66208613
C       8.94535903     12.98747111      6.04651875
C      -4.42789648      7.78522637     -1.55871774
C       1.48676456     -1.42410495     -4.18294916
C       2.78419446     -0.44581176     -3.81273317
C      16.13752453     -9.98666434     -9.04676748
C      -3.07181866      8.75862770     -1.45994788
C       8.08842644    -10.84221020      6.76846043
H       9.82701881     11.63164407      3.01117733
H      -1.15774500    -12.72575292    -10.96456603
H      -1.23222734     -1.81000070      6.23265478
H      -9.29848381     -2.27983228     24.37171710
H      -9.75822100    -12.15919787     17.65677820
H      16.08946320      7.08325601     13.47380423
H       6.32857988      0.29240274     -2.06996930
H       7.01099928     15.27461106     16.65872841
H       7.65310366     14.54560014      7.95424769
H       1.50811730     -2.04150692     -5.24261401
H      -4.17777285      6.60100943     -1.79919845
H      -7.60032797     21.22191747      9.78152789
H       1.72849803     -3.68366240     -2.95582988
H      -0.12301853     -0.24983663      5.97126548
H       9.03795019    -10.55640482      7.49618056
H      17.03044659     -9.17468772     -9.05631665
H      -7.73352973     21.23048850     10.55002235
   94

C       9.23508668     -7.78349822    -10.32162765
C      -1.69331057    -12.09824016    -10.15779168
H       9.52046622     -6.90300573     -9.52976520
C      -0.25194848     -0.84549615      8.33298549
H      -5.34316379      8.01374151     -2.40521698
H      -1.92603096    -11.30945786     -9.33444251
C       0.87718830     -0.67769452      9.55202330
H       8.56257951     -8.61707857     -9.73956355
H      -8.91209525     -7.04800713    -19.05248375
H      -8.90460060     -7.81744220    -18.92476023
C       4.32469044     -0.36114564     -3.79250475
H      16.26529800      6.32979293     13.57273579
C       8.30565184     -9.94098187      5.45334960
H       8.56446757     12.65261267      2.14031973
H       8.46018402     -9.28889662      4.48955758
H       2.50427240    -10.90124639     17.33769167
C       6.59233465    -10.69553612      7.45532146
H       5.49572664    -10.76973266      6.95442763
C       8.19154881     12.76968213      4.57746751
H       6.27825373    -10.49230933      8.60373128
H      10.01117878     13.60157753      5.96718108
H       7.08272241     13.27578120      4.50041883
C       8.65953245     11.98948945      3.17671782
H      16.85550714      2.91795880     -5.08098789
C      15.75173471      2.69766258     -4.97048150
H       2.41845829      0.64101480     -3.11002773
H       8.07391451     10.91800164      2.99137073
H      -2.53880810     10.59127686     11.83238048
C      15.44070364    -10.34189038    -10.06149392
H      -1.37657485     -0.61428658      8.75301449
H      -5.20810043      7.91697207     -0.54978604
C       1.24364562     -2.48288108     -2.86890173
H       0.91525167     -1.86264940      9.90815656
C       1.47821046    -10.71757976     17.93047272
H       0.74165712     -2.41230073     -1.77236452
H     -10.96219512    -12.27302355     15.66826340
H       1.07350391     -9.60114070     18.09691281
C       0.05175842     -0.67826288     -4.62150872
H      -2.12591870      8.20999924     -1.10756210
C      -2.76480101     10.46032931     -1.65308309
H      -0.94833498     -0.28291234     -5.10842157
H      -2.96526694     11.15190584     -0.64953824
H      -1.61341863     10.74924147     -1.99130648
H      -3.34145177     11.09515060     -2.53809547
H      15.53025899     -9.88265682    -11.18942924
H      15.06564000    -11.45994414    -10.37969292
H      17.08171305    -10.93444003     -8.16777225
H       3.51387033      1.35023638      7.79422489
H       0.55731824      0.31388651     10.20412504
H       0.85685089    -11.65035382     18.35681847
H       5.07291753     -0.56913783     -4.70424991
H      -9.42678776     -2.95205922     23.99749396
H       6.31478303     15.06802223     16.37417705
H       9.25748270     11.93685807      6.60472969
H       3.09703820     -0.42203571     12.30778739
H      26.59661074      7.39470769     -2.17309357
H      -4.57265444      9.51219281     11.49208924
H      27.28679820      7.54303651     -1.84137206
H       0.60396509     -2.01240745      6.27412528
H       8.37102307    -12.00464813      6.47724324
H       8.56414501     -7.26078289    -11.19431410
H       4.48449029     -0.71453956     11.05923877
C      -0.24599257     -1.23089293      6.70611176
C     -10.36020851    -12.21611471     16.66252627
C       3.02843113      0.78084322      8.68577378
C       2.39473993     -0.10150967      9.83334697
C       5.44472675      0.00973999     -2.74509355
C       8.18943317     13.83176091      7.19213375
C       3.33399865     -0.39344793     11.12610693
C      -3.55573475     10.05173809     11.66224572
C       8.94603767     12.99010454      6.04591853
C      -4.47543519      7.87095455     -1.54242673
C       1.41294301     -1.36366461     -4.07476618
C       2.69874209     -0.37387951     -3.70009871
C      16.78060554    -10.25469380     -9.11745642
C      -3.11682458      8.84031048     -1.44180581
C       8.08881005    -10.84260317      6.76824178
H       9.82676780     11.63029235      3.01001455
H      -1.46023712    -12.88677323    -10.98127610
H      -1.22844787     -1.81123315      6.23396243
H      -9.29848799     -2.27983493     24.37173142
H      -9.75822268    -12.15920565     17.65678960
H      16.08946534      7.08324633     13.47378747
H       6.23911127      0.35210397     -1.95877706
H       7.01101084     15.27462308     16.65875200
H       7.65104420     14.54053847      7.95965747
H       1.45981558     -1.97297949     -5.13903731
H      -4.23619525      6.68445959     -1.78241694
H      -7.60035841     21.22200632      9.78160382
H       1.64120149     -3.62308713     -2.84060968
H      -0.12080511     -0.24790938      5.97147644
H       9.03856187    -10.55757802      7.49597279
H      17.65635099     -9.42556769     -9.11788101
H      -7.73355773     21.23056448     10.55009883
   94

C       8.89517456     -7.68390011    -10.58243126
C      -1.99564419    -12.25917737    -10.17460733
H       9.23288223     -6.81908436     -9.80024387
C      -0.25589797     -0.84029925      8.33319858
H      -5.38342535      8.10970194     -2.39459344
H      -2.22822566    -11.47033636     -9.35127207
C       0.87153784     -0.67369502      9.55479340
H       8.25974446     -8.54931491    -10.01414058
H      -8.92962030     -7.03468237    -19.07568830
H      -8.92214576     -7.80412309    -18.94799789
C       4.23785526     -0.29642804     -3.68592071
H      16.26529702      6.32977417     13.57270332
C       8.30558789     -9.94087665      5.45328567
H       8.56396127     12.65231316      2.13947610
H       8.45871364     -9.28811146      4.48973405
H       2.50428631    -10.90125313     17.33766690
C       6.59261452    -10.69533934      7.45462731
H       5.49614402    -10.77048678      6.95355886
C       8.19280921     12.76991905      4.57683374
H       6.27827721    -10.49030230      8.60263724
H      10.01455747     13.59952951      5.96637512
H       7.08292967     13.27368570      4.50060569
C       8.65966575     11.98924323      3.17588493
H      16.85495672      2.91676406     -5.08136449
C      15.75120599      2.69633072     -4.97091148
H       2.33049827      0.71917648     -3.00931141
H       8.07372735     10.91796923      2.99024843
H      -2.53882979     10.59133926     11.83250954
C      16.10593006    -10.62356350    -10.14581404
H      -1.38578808     -0.61603728      8.74403431
H      -5.25211622      8.00137216     -0.53079308
C       1.16117233     -2.42097776     -2.76080570
H       0.91006651     -1.85586611      9.91799478
C       1.47822766    -10.71758784     17.93045413
H       0.65150096     -2.34600668     -1.66815380
H     -10.96219744    -12.27303206     15.66827292
H       1.07352198     -9.60114945     18.09690104
C      -0.02424814     -0.62000401     -4.50781829
H      -2.17125147      8.29132133     -1.08832683
C      -2.81543064     10.54282607     -1.63709894
H      -1.02443245     -0.21164040     -4.98207189
H      -3.01762539     11.23423514     -0.63378763
H      -1.66586551     10.83650171     -1.97701690
H      -3.39587322     11.17316004     -2.52290633
H      16.13282555    -10.12379923    -11.25462017
H      15.66832070    -11.72043282    -10.43910816
H      17.70336596    -11.19210191     -8.22376337
H       3.51962593      1.35749225      7.79898694
H       0.51808944      0.29989666     10.21787989
H       0.85686815    -11.65036197     18.35679992
H       4.96262340     -0.51504798     -4.61445193
H      -9.42679124     -2.95206221     23.99750715
H       6.31479290     15.06803296     16.37419848
H       9.25369228     11.94008054      6.60749712
H       3.10545987     -0.40794309     12.29871330
H      26.59653307      7.39466751     -2.17311071
H      -4.57268564      9.51226499     11.49224212
H      27.28671982      7.54300465     -1.84139137
H       0.60784823     -2.01067879      6.28152728
H       8.37146366    -12.00503144      6.47702165
H       8.25484555     -7.17802393    -11.48188312
H       4.49511963     -0.71971146     11.06206449
C      -0.24433952     -1.22831977      6.70733548
C     -10.36020933    -12.21612271     16.66253484
C       3.04022346      0.77380716      8.68518182
C       2.39845961     -0.11175178      9.82606210
C       5.35096914      0.07105412     -2.63029117
C       8.19056099     13.83731389      7.18983179
C       3.34375383     -0.39680115     11.11697898
C      -3.55576162     10.05180573     11.66238815
C       8.94669263     12.99273569      6.04530533
C      -4.52293330      7.95663507     -1.52615111
C       1.33930946     -1.30327947     -3.96675232
C       2.61348706     -0.30213157     -3.58774718
C      17.42352326    -10.52025786     -9.18439622
C      -3.16179990      8.92195654     -1.42368955
C       8.08921008    -10.84297272      6.76793068
H       9.82649489     11.62891218      3.00884051
H      -1.76268560    -13.04775667    -10.99808291
H      -1.22465925     -1.81244552      6.23542396
H      -9.29849141     -2.27983782     24.37174442
H      -9.75822215    -12.15921306     17.65679730
H      16.08946529      7.08322815     13.47375774
H       6.14955067      0.41177713     -1.84774634
H       7.01102228     15.27463230     16.65877065
H       7.64903193     14.53537035      7.96499523
H       1.41156033     -1.90438205     -5.03503378
H      -4.29462025      6.76795676     -1.76565691
H      -7.60038867     21.22209593      9.78168098
H       1.55396463     -3.56250804     -2.72564228
H      -0.11859880     -0.24597628      5.97177015
H       9.03919131    -10.55872902      7.49567077
H      18.28313916     -9.67582841     -9.17729650
H      -7.73358554     21.23064087     10.55017655
   94

C       8.54270377     -7.57739774    -10.83576832
C      -2.29792475    -12.42006648    -10.19152947
H       8.94500542     -6.73297181    -10.06938333
C      -0.25979663     -0.83495055      8.33349416
H      -5.42352042      8.20548766     -2.38391594
H      -2.53038230    -11.63118760     -9.36819358
C       0.86580946     -0.66938982      9.55786406
H       7.95744157     -8.48399245    -10.28865789
H      -8.94710617     -7.02140464    -19.09882051
H      -8.93963856     -7.79084884    -18.97115089
C       4.15124648     -0.23176957     -3.57980878
H      16.26529423      6.32974779     13.57265870
C       8.30552868     -9.94074988      5.45316410
H       8.56343242     12.65198500      2.13862002
H       8.45723720     -9.28729908      4.48985734
H       2.50430245    -10.90125839     17.33763175
C       6.59290261    -10.69512585      7.45387856
H       5.49656886    -10.77121536      6.95263730
C       8.19404833     12.77013202      4.57618827
H       6.27831029    -10.48828415      8.60148710
H      10.01790256     13.59744830      5.96556061
H       7.08312129     13.27156521      4.50077745
C       8.65977654     11.98897010      3.17504061
H      16.85445409      2.91533979     -5.08182751
C      15.75071535      2.69482486     -4.97141435
H       2.24272245      0.79700921     -2.90893553
H       8.07351754     10.91791011      2.98911372
H      -2.53885091     10.59139912     11.83262232
C      16.78764274    -10.91629782    -10.24301861
H      -1.39486014     -0.61778130      8.73509703
H      -5.29606651      8.08570527     -0.51181632
C       1.07880060     -2.35910622     -2.65290469
H       0.90506672     -1.84891359      9.92764883
C       1.47824767    -10.71759464     17.93042627
H       0.56147754     -2.27977639     -1.56420331
H     -10.96219725    -12.27303999     15.66827834
H       1.07354284     -9.60115698     18.09688037
C      -0.10007042     -0.56177620     -4.39437077
H      -2.21655454      8.37259895     -1.06911772
C      -2.86602589     10.62527155     -1.62110720
H      -1.10020671     -0.14042366     -4.85561310
H      -3.06995038     11.31649809     -0.61802150
H      -1.71829812     10.92370497     -1.96271030
H      -3.45023120     11.25111399     -2.50769315
H      16.73314146    -10.36320428    -11.31938043
H      16.26635574    -11.98032864    -10.49603705
H      18.32404507    -11.44916935     -8.27808333
H       3.52536506      1.36465814      7.80390681
H       0.47901900      0.28519083     10.23125379
H       0.85688863    -11.65036878     18.35677279
H       4.85207005     -0.46096951     -4.52453305
H      -9.42679401     -2.95206537     23.99751897
H       6.31480265     15.06804112     16.37421488
H       9.24987746     11.94332287      6.61024116
H       3.11370719     -0.39371135     12.28931055
H      26.59642987      7.39457372     -2.17314953
H      -4.57271617      9.51233518     11.49237660
H      27.28661417      7.54292577     -1.84143168
H       0.61170625     -2.00890925      6.28902323
H       8.37191332    -12.00539496      6.47673921
H       7.94897420     -7.09646738    -11.77354151
H       4.50556703     -0.72480608     11.06501678
C      -0.24267445     -1.22572500      6.70866898
C     -10.36020795    -12.21613023     16.66253951
C       3.05204816      0.76668393      8.68448481
C       2.40223523     -0.12217749      9.81856949
C       5.25703575      0.13237790     -2.51556477
C       8.19166901     13.84289256      7.18751428
C       3.35341363     -0.40015730     11.10778913
C      -3.55578780     10.05187106     11.66251299
C       8.94732215     12.99536453      6.04468092
C      -4.57038900      8.04226390     -1.50989124
C       1.26585169     -1.24295441     -3.85893669
C       2.52841738     -0.23056315     -3.47571905
C      18.06464598    -10.78204476     -9.24645527
C      -3.20674345      9.00356290     -1.40559988
C       8.08961725    -10.84332338      6.76756110
H       9.82619846     11.62750524      3.00765618
H      -2.06508291    -13.20868372    -11.01500355
H      -1.22086188     -1.81363766      6.23703612
H      -9.29849417     -2.27984091     24.37175611
H      -9.75821968    -12.15922007     17.65680128
H      16.08946343      7.08320245     13.47371665
H       6.05986449      0.47143947     -1.73686888
H       7.01103349     15.27463899     16.65878454
H       7.64707093     14.53010741      7.97025212
H       1.36332828     -1.83573630     -4.93063882
H      -4.35304487      6.85149792     -1.74891944
H      -7.60041873     21.22218619      9.78175929
H       1.46677923     -3.50192159     -2.61094813
H      -0.11640126     -0.24403731      5.97214566
H       9.03982852    -10.55986243      7.49530926
H      18.91027103     -9.92514193     -9.23488998
H      -7.73361315     21.23071759     10.55025541
   94

C       8.15283998     -7.45176761    -11.07014292
C      -2.60016002    -12.58089643    -10.20857349
H       8.67055031     -6.64839556    -10.34001967
C      -0.26364390     -0.82946386      8.33387324
H      -5.46345047      8.30109609     -2.37318482
H      -2.83250696    -11.79199892     -9.38522342
C       0.86000188     -0.66476794      9.56123810
H       7.66543818     -8.42960521    -10.56630261
H      -8.96455595     -7.00818544    -19.12187222
H      -8.95708031     -7.77763035    -18.99420745
C       4.06483437     -0.16715536     -3.47413241
H      16.26528998      6.32971485     13.57260365
C       8.30546410     -9.94060092      5.45301464
H       8.56287936     12.65162982      2.13775271
H       8.45573783     -9.28645065      4.48996195
H       2.50432014    -10.90126219     17.33758796
C       6.59318739    -10.69489777      7.45309654
H       5.49699056    -10.77191906      6.95168211
C       8.19526509     12.77032241      4.57553242
H       6.27834026    -10.48625398      8.60030119
H      10.02121008     13.59533758      5.96474019
H       7.08329628     13.26942131      4.50093565
C       8.65986323     11.98867151      3.17418594
H      16.85401307      2.91382354     -5.08232812
C      15.75027583      2.69328621     -4.97194031
H       2.15509733      0.87451762     -2.80886358
H       8.07328350     10.91782573      2.98796754
H      -2.53887213     10.59145726     11.83271875
C      17.49132288    -11.22559546    -10.36042423
H      -1.40378619     -0.61952151      8.72620499
H      -5.33995015      8.16996757     -0.49285490
C       0.99649621     -2.29724132     -2.54519123
H       0.90025448     -1.84178537      9.93712691
C       1.47826969    -10.71760014     17.93039061
H       0.47157059     -2.21358349     -1.46049610
H     -10.96219478    -12.27304735     15.66827966
H       1.07356566     -9.60116325     18.09685211
C      -0.17574559     -0.50353127     -4.28114053
H      -2.26182760      8.45383123     -1.04993504
C      -2.91658776     10.70766475     -1.60510825
H      -1.17568380     -0.06927375     -4.72907563
H      -3.12224308     11.39869373     -0.60224035
H      -1.77071768     11.01085084     -1.94838733
H      -3.50452737     11.32901106     -2.49245647
H      17.32795295    -10.59733874    -11.37705879
H      16.85768719    -12.23526166    -10.54523069
H      18.94221427    -11.70577862     -8.33230819
H       3.53109340      1.37170633      7.80897859
H       0.44011579      0.26980516     10.24420313
H       0.85691146    -11.65037429     18.35673840
H       4.74125105     -0.40679584     -4.43446020
H      -9.42679619     -2.95206868     23.99752953
H       6.31481215     15.06804703     16.37422644
H       9.24604112     11.94658412      6.61296006
H       3.12178743     -0.37937466     12.27957767
H      26.59630715      7.39442501     -2.17321034
H      -4.57274666      9.51240420     11.49249251
H      27.28648722      7.54279812     -1.84149302
H       0.61553834     -2.00709752      6.29660554
H       8.37236292    -12.00574089      6.47642266
H       7.65478424     -7.01969208    -12.07633662
H       4.51582510     -0.72982268     11.06808300
C      -0.24099828     -1.22310961      6.71011022
C     -10.36020462    -12.21613727     16.66254029
C       3.06389010      0.75948811      8.68369000
C       2.40605070     -0.13276998      9.81088053
C       5.16289250      0.19375733     -2.40089095
C       8.19275198     13.84848470      7.18518981
C       3.36297651     -0.40351532     11.09853997
C      -3.55581394     10.05193489     11.66262012
C       8.94792470     12.99799096      6.04404706
C      -4.61780194      8.12783908     -1.49364664
C       1.19253074     -1.18266620     -3.75131433
C       2.44350058     -0.15914747     -3.36402540
C      18.70067973    -11.03915472     -9.30427572
C      -3.25165525      9.08512834     -1.38753673
C       8.09002236    -10.84365762      6.76716028
H       9.82587696     11.62607325      3.00646252
H      -2.36743527    -13.36954392    -11.03205253
H      -1.21705702     -1.81480904      6.23879547
H      -9.29849637     -2.27984417     24.37176658
H      -9.75821557    -12.15922667     17.65680155
H      16.08946008      7.08317027     13.47366576
H       5.97002318      0.53111603     -1.62611806
H       7.01104434     15.27464341     16.65879389
H       7.64516491     14.52476225      7.97541970
H       1.31506407     -1.76703322     -4.82585628
H      -4.41146785      6.93508207     -1.73220463
H      -7.60044864     21.22227712      9.78183870
H       1.37961342     -3.44130294     -2.49651905
H      -0.11421506     -0.24209179      5.97260279
H       9.04046375    -10.56098068      7.49491610
H      19.53602693    -10.17376503     -9.29188141
H      -7.73364062     21.23079465     10.55033538
   94

C       7.70676234     -7.29943840    -11.29294025
C      -2.90896215    -12.74921023    -10.23131789
H       8.38333812     -6.56877026    -10.62512066
C      -0.26794095     -0.82005214      8.32655757
H      -5.49491423      8.40709347     -2.36880680
H      -3.14278516    -11.96110905     -9.40766228
C       0.85101148     -0.65487091      9.56095988
H       7.36976468     -8.36662347    -10.86188514
H      -8.98114088     -6.99585102    -19.14432246
H      -8.97342969     -7.76524501    -19.01636379
C       3.97330752     -0.10145441     -3.35845766
H      16.26525229      6.32974144     13.57266113
C       8.30480595     -9.94054529      5.45525875
H       8.56165129     12.65057506      2.13611998
H       8.45351480     -9.28527916      4.49275312
H       2.50425844    -10.90118632     17.33758517
C       6.59310753    -10.69452437      7.45359107
H       5.49723451    -10.77278008      6.95163646
C       8.19720646     12.76939869      4.57448541
H       6.27765676    -10.48364234      8.60020003
H      10.02634537     13.59156780      5.96337458
H       7.08368651     13.26489921      4.50101885
C       8.66003241     11.98755579      3.17245353
H      16.85665692      2.91566089     -5.08201493
C      15.75282822      2.69569544     -4.97145247
H       2.06130583      0.96574326     -2.70337170
H       8.07324681     10.91694010      2.98541547
H      -2.53866815     10.59090038     11.83149567
C      18.21528337    -11.54996963    -10.49227721
H      -1.41774997     -0.62462096      8.70092575
H      -5.37925158      8.25435560     -0.47221252
C       0.91027285     -2.23209489     -2.42616908
H       0.89436479     -1.82724028      9.94790516
C       1.47819573    -10.71751696     17.93036419
H       0.37653844     -2.13890482     -1.34654521
H     -10.96213609    -12.27297242     15.66815272
H       1.07348491     -9.60107587     18.09678088
C      -0.24731795     -0.44390803     -4.15075626
H      -2.30448056      8.53360720     -1.02974434
C      -2.96966215     10.78962486     -1.59002115
H      -1.24413494      0.00818401     -4.58481504
H      -3.17870683     11.47996157     -0.58738249
H      -1.82737846     11.10206667     -1.93627612
H      -3.56461790     11.40237133     -2.47878000
H      17.95476549    -10.83991249    -11.42637654
H      17.48129618    -12.49697961    -10.58536201
H      19.56890555    -11.97233191     -8.39281464
H       3.54438463      1.37980301      7.81044563
H       0.36480307      0.23693101     10.26004325
H       0.85684386    -11.65028868     18.35672652
H       4.60006136     -0.35642329     -4.34922640
H      -9.42675544     -2.95204824     23.99740376
H       6.31473425     15.06792036     16.37399236
H       9.23996160     11.95186242      6.61763358
H       3.13135933     -0.36034082     12.25793348
H      26.59648769      7.39426669     -2.17327341
H      -4.57246620      9.51177598     11.49105931
H      27.28666125      7.54264242     -1.84154386
H       0.62394925     -2.00455115      6.30218111
H       8.37290978    -12.00664970      6.47843406
H       7.36043866     -6.95163893    -12.38700228
H       4.53456075     -0.73533668     11.07531363
C      -0.23585401     -1.21849941      6.70450102
C     -10.36016020    -12.21606716     16.66242232
C       3.08878378      0.74869501      8.67929198
C       2.41621850     -0.15441797      9.79023660
C       5.05348495      0.25968891     -2.26694822
C       8.19313382     13.85504568      7.18246161
C       3.38077385     -0.40507844     11.07903033
C      -3.55556718     10.05133818     11.66127749
C       8.94868938     13.00191333      6.04303883
C      -4.66431865      8.21519052     -1.47850655
C       1.12497304     -1.12159591     -3.63335813
C       2.35449361     -0.07699115     -3.24092119
C      19.35055618    -11.30472553     -9.36818699
C      -3.29386294      9.16547159     -1.36912592
C       8.09034680    -10.84454984      6.76887078
H       9.82539434     11.62320318      3.00407935
H      -2.67513949    -13.53731141    -11.05497358
H      -1.20846426     -1.81682726      6.23423945
H      -9.29845674     -2.27982476     24.37164303
H      -9.75818431    -12.15916191     17.65669192
H      16.08941789      7.08319455     13.47371370
H       5.86970567      0.59465305     -1.50107413
H       7.01095230     15.27452935     16.65858531
H       7.64250960     14.51761027      7.98238298
H       1.29604081     -1.68885253     -4.71207616
H      -4.47906913      7.01879537     -1.71571400
H      -7.60020280     21.22156798      9.78123602
H       1.28603558     -3.37775263     -2.36388049
H      -0.10777060     -0.23932012      5.96433885
H       9.04116192    -10.56318394      7.49664764
H      20.17331540    -10.42894099     -9.35669922
H      -7.73341433     21.23018717     10.54972831
