   94
energy=      0.00000000
C       7.14765971     -6.79940886     -7.70070830
C       5.71854871     -7.63840767     -7.23809161
H       7.41122279     -5.94652014     -6.83289321
C       2.20949179     -2.69874185      5.80472065
H     -18.89185999     -7.18329685     -1.80818867
H       4.71617613     -7.05134812     -6.80455355
C       3.38301044     -3.14985224      6.94921450
H       5.78483451     -8.46763345     -6.31814998
H      -7.81523282     -6.27941550    -16.91792814
H      -7.80752163     -7.04880949    -16.78996947
C      12.76924862      3.36743964      1.93540848
H      14.97951479      7.09207608     12.41604937
C       6.06644408     -4.54552343      4.68327592
H       9.19195587      5.56606682     -9.92138378
H       6.46347762     -4.10638034      3.66701362
H       2.68997055     -9.77739982     15.50643091
C       4.08904948     -4.73692539      6.79485328
H       3.25283658     -5.57219308      6.41144805
C       7.87850467      7.61834864    -10.17489680
H       4.06020087     -5.34062057      7.88340795
H       8.54517962      8.52479629    -10.61739994
H       6.78178276      8.00321586    -10.50750885
C       8.33635897      6.25089971     -9.35494898
H      11.59579269      3.09363480     -0.93745891
C      10.87793165      3.37918120     -0.01887537
H      14.53274407      4.98518127      2.10976091
H       7.44520684      5.42729973     -9.13604036
H      -1.89733254     10.00199152     11.47791144
C       8.54732119     -7.62964134     -8.27231642
H       1.27640355     -2.04145138      6.25418143
H     -19.27118577     -7.16726916     -1.12682601
C      -2.92102848     -9.96455360     -0.69898412
H       2.59027086     -3.31949488      7.88974312
C       1.66390764     -9.59373336     16.09921025
H      -3.73203069    -10.43545003     -0.00998688
H     -10.63617044    -12.21636728     15.67652925
H       1.25920054     -8.47729060     16.26562464
C      -3.95008094      0.02188444     -7.52418447
H       3.32155253     11.24147646      0.03046548
C       1.08139338     10.13175999      0.68480919
H      -4.45424832      0.92846258     -8.05155203
H       0.88615027     10.58550147      1.81403647
H       0.57343555      9.01373684      0.77518864
H       0.29219005     10.66811544     -0.09500761
H       8.83707070     -7.42879500     -9.46244961
H       8.44960652     -8.81870307     -8.60905680
H      10.33234414     -8.23542883     -6.43585459
H       4.97131852      0.11102214      5.58571697
H       3.72850213     -0.82746751      8.00395901
H       1.04255692    -10.52650631     16.52557198
H       9.85517479      3.74079914     -0.52739251
H      -9.42675544     -2.95204824     23.99740376
H       5.01772734     13.90280771     17.51601301
H       3.60111331     13.49662780     20.60233373
H       5.20244327     -2.08627382      9.94950034
H      23.07013203      5.99563860     -2.51134100
H      -3.93103858      8.92291594     11.13749048
H      23.76030558      6.14401433     -2.17961144
H       2.43215520     -3.64334450      3.43997824
H       5.76424619     -6.40496177      5.75811966
H       6.87923097     -5.83437013     -8.44218514
H       6.58760550     -2.15511624      8.82966203
C       1.84419151     -2.85502458      4.17575957
C     -10.03415803    -12.15946911     16.67077714
C       4.82873758     -0.77140150      6.35833019
C       4.30868952     -1.79671824      7.50209337
C      11.25937911      3.33316678      1.54231991
C       5.30882792     14.39699615     18.60144790
C       5.39081943     -2.00746812      8.75428714
C      -2.91901484      9.47185320     11.30675683
C       4.32185056     13.87661619     19.75787741
C       3.62385734      9.02196015     -0.03554285
C      15.13718918      2.76924376      2.80721017
C      14.20947425      3.85244154      2.24841866
C       9.94685736     -7.55815743     -7.36288236
C       2.66226865     10.24693386      0.22146445
C       5.56950423     -5.21931049      6.06304568
H       8.80152690      6.45082026     -8.22965224
H       5.09270578     -8.28841017     -8.08912867
H       0.70573859     -3.26386462      3.92271209
H      -9.29845674     -2.27982476     24.37164303
H      -9.43221866    -12.10255678     17.66506845
H      14.80368038      7.84552919     12.31710195
H      10.61251064      3.35644737      2.55120098
H       6.47428093     14.10016798     18.84790879
H       5.24946931     15.61771850     18.48549896
H      -3.44591357     -0.88469371     -6.99681691
H       4.24143908      8.03795066     -0.14212261
H      -7.32753058     20.54354438      9.86115128
H      -2.11002629     -9.49365718     -1.38798138
H       2.00620103     -1.84733190      3.47988286
H       6.61851659     -5.18623651      6.71613716
H      10.89058865     -6.79983896     -7.41337830
H      -7.46074211     20.55216357     10.62964357
   94
energy=      0.00000000
C       7.14629554     -6.79675131     -7.70693128
C       5.72352124     -7.64048050     -7.23360044
H       7.40966990     -5.93531256     -6.84749767
C       2.14599678     -2.73681426      5.82859250
H     -18.89185999     -7.18329685     -1.80818867
H       4.72283046     -7.05677061     -6.79179943
C       3.31263893     -3.16982535      6.98825072
H       5.79828469     -8.46948378     -6.31418064
H      -7.96289402     -6.52827924    -17.27785125
H      -7.95518284     -7.29767323    -17.14989258
C      13.70362908      2.04743089      1.35473271
H      15.83251165      6.65765200     13.29592656
C       6.01785412     -4.50184983      4.68138856
H       8.74196411     10.58844753      1.86021162
H       6.42892590     -4.05154666      3.67479807
H       2.69025793     -9.81327524     15.56566361
C       4.03532347     -4.74419292      6.80365516
H       3.21076031     -5.58177941      6.39943340
C       7.95288058     11.52068700      4.48660746
H       4.01495247     -5.36196969      7.88432693
H       7.70605749     13.09878046      5.83302035
H       7.15362070     12.22267138      3.92258107
C       8.35393469     10.76969349      2.99225450
H      12.46188946      1.50482382     -1.59470434
C      11.79760310      1.88446053     -0.66958700
H      15.63456328      3.47654313      1.53398668
H       7.49862966     10.09976871      2.40523797
H      -1.89885065     10.00506001     11.47761351
C       8.54776524     -7.62473029     -8.27722315
H       1.17685287     -2.12816316      6.26905820
H     -19.27118577     -7.16726916     -1.12682601
C      -2.92948981    -10.06668835     -0.65568032
H       2.53367444     -3.35110798      7.94059892
C       1.66419523     -9.62960592     16.15844264
H      -3.74049201    -10.53758477      0.03331693
H     -10.65591191    -12.22067050     15.67743537
H       1.25948445     -8.51316480     16.32485930
C      -4.11283015     -0.51440436     -7.82060225
H      -0.00855971     10.90396720     -2.37565125
C      -2.25494698      9.83576359     -1.70203627
H      -4.61699753      0.39217379     -8.34796981
H      -2.45855221     10.30185731     -0.57919273
H      -2.77648612      8.72417576     -1.61102174
H      -3.02887250     10.39183367     -2.48355423
H       8.84487389     -7.41463741     -9.46388905
H       8.45045924     -8.81054182     -8.62554103
H      10.30987295     -8.23594705     -6.42078313
H       5.25019140     -0.09241604      5.59350369
H       3.60424338     -0.86965609      8.02769739
H       1.04284337    -10.56237766     16.58480497
H      10.76169058      2.29156766     -1.11836714
H      -9.42675544     -2.95204824     23.99740376
H       6.97683994     12.24407770      8.76816896
H       7.75838032     10.73966420      6.46053997
H       5.27375523     -2.07568514      9.95887520
H      23.68739798      6.18932909     -2.70616817
H      -3.93264863      8.92593565     11.13717716
H      24.37757154      6.33770482     -2.37443862
H       2.43833176     -3.63668430      3.43906091
H       5.73208510     -6.36494996      5.74064455
H       6.86957689     -5.83800057     -8.45343501
H       6.58424613     -2.01339751      8.75667125
C       1.83195583     -2.87321516      4.18613068
C     -10.05393498    -12.16376545     16.67170436
C       4.86111842     -0.86508349      6.39356436
C       4.23872795     -1.81827891      7.54454865
C      12.22280249      1.86530851      0.88118445
C       7.78872848     12.45736917      7.86278673
C       5.37595226     -1.97054527      8.75643023
C      -2.91588689      9.46576497     11.30736850
C       7.84709781     11.93282413      6.17755354
C       0.30527180      8.70036732     -2.40758288
C      16.11680760      1.27876733      2.18383480
C      15.18763249      2.38785192      1.67529793
C       9.94112314     -7.56301978     -7.35771521
C      -0.67053621      9.91672385     -2.16109834
C       5.52094784     -5.18577964      6.05729864
H       9.40221822     10.74187810      2.37294758
H       5.09430126     -8.29266294     -8.08049554
H       0.71515995     -3.30669324      3.88255547
H      -9.29845674     -2.27982476     24.37164303
H      -9.45196013    -12.10686000     17.66597458
H      15.65667725      7.41110511     13.19697914
H      11.49949550      1.74323946      1.82812470
H       8.62267140     12.35029857      8.76998905
H       7.60766790     13.53545849      8.43825859
H      -3.60866278     -1.42098250     -7.29323469
H       0.97782256      7.76066896     -2.56948479
H      -7.32753058     20.54354438      9.86115128
H      -2.11848761     -9.59579193     -1.34467757
H       2.00900885     -1.84488197      3.52548942
H       6.56726566     -5.12892107      6.71197985
H      10.89559271     -6.81832454     -7.40855694
H      -7.46074211     20.55216357     10.62964357
