   94
energy=      0.00000000
C       7.14132515     -6.82746937     -7.67211851
C       5.66976870     -7.61496441     -7.24969522
H       7.40694927     -6.01577660     -6.76683580
C     -10.35223719     -0.90292630      5.86262389
H     -18.89185999     -7.18329685     -1.80818867
H       4.67166138     -6.98084813     -6.87401617
C       9.95468161     -1.97273913      8.39004474
H       5.67381937     -8.42885859     -6.31365259
H      -7.80593454     -6.26921023    -16.92112743
H      -7.79822335     -7.03860423    -16.79316876
C       9.64535897      2.14847603      6.08658282
H      10.79115716      2.30487782      6.46614137
C       9.72922803     -3.01205797      7.16366907
H       7.05694045      4.07333598     -4.12410249
H      10.90341720     -2.93668333      6.81122168
H      -0.14325298     -7.37313449     12.68691269
C       8.74250375     -4.26559077      7.28234263
H       7.76441577     -4.45936574      8.00563599
C       5.73380551      6.02040460     -2.95411390
H       9.09840508     -5.42637520      7.48716424
H       6.45771463      6.89485591     -3.45175502
H       4.67630330      6.43688106     -3.44245629
C       6.08751385      4.79290679     -4.03525771
H      10.11733859      4.52105979    -13.33313342
C       9.46467496      4.17005141    -12.47924795
H       8.99294478      2.24320972      3.33704072
H       5.54174780      4.42668169     -5.05831530
H      -3.00408543     13.84794161     10.96389439
C       8.54792762     -7.65824755     -8.22881132
H     -10.74359595      0.21633235      5.71281672
H     -19.27118577     -7.16726916     -1.12682601
C       0.52599529     -6.42866969      1.98652116
H     -11.01390178     -1.78378982      5.39934946
C      -1.16836747     -7.12813897     13.27900915
H      -0.28583686     -6.89923232      2.67476856
H      -3.40368859     -8.07765387     13.53438564
H      -1.16511054     -5.92173090     13.19491519
C      -3.87595701     -0.10819230     -7.36505664
H       6.27715124      7.16918721     -0.97643500
C       4.27689769      6.13015603     -0.29494116
H      -4.39435324      0.79037733     -7.89231580
H       4.20353081      6.89629141      0.67912942
H       3.79334800      5.11946210      0.23163992
H       3.17320154      6.45378256     -0.74730653
H       8.82937245     -7.49641360     -9.42743234
H       8.42955287     -8.86345561     -8.49139871
H      10.56863748     -8.30751328     -6.65835003
H       8.14849704      0.11695459      9.45882865
H      11.48655968     -0.73676973      8.87655071
H      -2.03575112     -9.35619574     13.92867783
H       7.90543754      1.02607611      7.00137285
H      -8.74525987     -4.13751985     22.51987897
H       4.88943974     13.63721275     17.32690582
H       3.25926846     13.52698478     20.33246714
H      10.78218324     -1.44147368     11.87141955
H      17.43837796      4.39965497      0.15020661
H      -4.76113496     12.91559780     10.66978319
H      18.12855173      4.54803079      0.48193603
H       0.11273072      1.59437111    -19.51251844
H       7.70729345     -3.14768642      5.33805776
H       6.90653660     -5.86021990     -8.42267078
H      11.78862246     -0.05711209     11.44270344
C      -9.02049327     -1.20442128      6.63797963
C      -2.26250827     -8.14629068     13.99852871
C       9.19494084      0.51209783      8.92591805
C      10.34865785     -0.69259399      9.32436375
C       9.03910215      1.21512072      7.37039787
C       5.08873904     14.24862159     18.37154065
C      10.96070796     -0.75612253     10.88804880
C      -4.20622006     14.01157358     10.75361378
C       4.05973914     13.74082761     19.49890826
C       6.84298315      5.06530565     -0.47169851
C      10.88080856      1.74952469      3.67845200
C       9.55921156      2.08792721      4.40650597
C       9.98552754     -7.53344649     -7.38418573
C       5.73349446      6.07525744     -1.22177440
C       8.75573889     -3.39279585      5.93273971
H       7.93402571      5.26250767      0.01873931
H       5.05318183     -8.27203875     -8.10196885
H      -8.03208998     -1.42818700      7.21343874
H      -8.61696117     -3.46529636     22.89411824
H      -2.38562326     -7.98143263     15.21515130
H       9.53270963      3.34565552      6.32623789
H       9.03314497      1.37879967      9.79490123
H       6.30343405     14.11457045     18.29678992
H       4.96923162     15.45852585     18.53183421
H      -3.38449524     -1.02173099     -6.83772693
H       6.81615862      3.88950715     -0.18588836
H      -4.35808914     14.63018583      9.69987011
H       1.33616677     -5.95743679      1.29677713
H       0.05298390      2.36879256    -19.58394447
H       9.15057037     -3.38480025      4.76573249
H      10.79200079     -6.63300493     -7.29813748
H      -4.70157073     14.65256910     11.68090742
   94
energy=      0.00000000
C       7.15089407     -6.81437773     -7.68027214
C       5.69243568     -7.62282144     -7.25502350
H       7.41406259     -5.99317246     -6.78259545
C       2.97321548     -1.16675658      8.05030816
H     -18.89185999     -7.18329685     -1.80818867
H       4.68612308     -7.01094827     -6.86642095
C       4.66103029     -1.54541760      8.18625685
H       5.71733531     -8.44155465     -6.32343697
H      -7.81523282     -6.27941550    -16.91792814
H      -7.80752163     -7.04880949    -16.78996947
C       9.20895498      1.88723640      6.74385495
H      10.24056361      1.53763208      7.32718247
C       5.59146497     -2.46975954      7.07897013
H       6.97057557      4.42379393     -4.51163030
H       5.17850729     -1.77393304      6.14546762
H      -0.14326300     -7.37313909     12.68689833
C       6.35303089     -3.86826742      7.51039288
H       5.99014247     -4.65783814      8.37897062
C       5.68525199      6.47102825     -3.42211679
H       7.21429001     -4.67756013      7.84992153
H       6.38184992      7.35506579     -3.94536432
H       4.67327853      6.94680764     -3.95378455
C       6.00869419      5.14791589     -4.39168098
H      10.29634125      4.48155035    -13.66390095
C       9.64367763      4.13054198    -12.81001553
H       9.07879793      2.15971729      4.11402634
H       5.39442992      4.60435395     -5.28266649
H      -3.00408555     13.84794160     10.96389429
C       8.54771264     -7.65402237     -8.24643211
H       2.40870639     -0.37967693      7.33598221
H     -19.27118577     -7.16726916     -1.12682601
C      -0.71052971     -7.78376240      1.02052280
H       3.86346744     -2.45681646      8.27919958
C      -1.16836657     -7.12814438     13.27901413
H      -1.52154703     -8.25465439      1.70950529
H      -3.40368673     -8.07766135     13.53437849
H      -1.16510162     -5.92173506     13.19494876
C      -3.94456900      0.00993360     -7.51176531
H       6.21201453      7.56785709     -1.39156071
C       4.20320261      6.47737320     -0.79974518
H      -4.44979054      0.91593836     -8.03910940
H       4.11010667      7.15968572      0.23276321
H       3.70584271      5.42218105     -0.38615648
H       3.11364551      6.85629663     -1.24448850
H       8.81968626     -7.49525162     -9.44743095
H       8.43758436     -8.85670514     -8.52447229
H      10.49598750     -8.28579069     -6.58682384
H       6.16835320      1.65053922      9.15939193
H       5.23865413     -0.86454282     10.11034503
H      -2.03574697     -9.35619933     13.92868731
H       7.04538652      1.08540492      6.37685795
H      -8.74526101     -4.13751920     22.51988046
H       4.78811023     13.76619063     17.28663088
H       3.34348979     13.40635285     20.34884071
H       7.51367511     -1.92145873     11.07922994
H      17.43837815      4.39965505      0.15020650
H      -4.76113507     12.91559780     10.66978309
H      18.12855175      4.54803080      0.48193602
H       0.08111614      1.59480523    -19.54274251
H       6.56709399     -3.53901736      4.97691114
H       6.91544502     -5.83559800     -8.41540141
H       8.43109890     -1.62529132      9.98837512
C       1.40498926     -1.53412802      8.29973426
C      -2.26250980     -8.14629501     13.99853051
C       6.83399163      0.72338609      8.69540589
C       5.95781814     -0.74928826      9.11587279
C       7.76620791      1.19880662      7.33721630
C       5.08034300     14.28114791     18.36208901
C       7.23112822     -1.44101678     10.00476664
C      -4.20622018     14.01157358     10.75361368
C       4.09122862     13.76083071     19.51678000
C       6.79423093      5.43700080     -0.99005012
C      10.94488990      1.51605140      4.36984025
C       9.64207597      1.86856770      5.13691195
C       9.97532397     -7.53909749     -7.38531991
C       5.68098756      6.47961054     -1.69134052
C       6.71926557     -3.15077971      6.13862068
H       7.89181680      5.59522779     -0.50310106
H       5.07982671     -8.27478982     -8.11404783
H       0.22299529     -1.69460537      8.25251506
H      -8.61696231     -3.46529572     22.89411973
H      -2.38563327     -7.98143227     15.21515155
H       9.33538750      3.07730175      7.05954765
H       7.60232387      1.27529199      9.48771454
H       6.26080204     14.00814340     18.55915952
H       5.00587893     15.50407751     18.28494639
H      -3.43983622     -0.89634279     -6.98441995
H       6.79631120      4.24737809     -0.76216387
H      -4.35808925     14.63018583      9.69987001
H       0.10045748     -7.31285825      0.33151316
H       0.02136932      2.36922668    -19.61416854
H       7.86230851     -2.80541713      5.82169168
H      10.82174990     -6.67253350     -7.35397112
H      -4.70157084     14.65256910     11.68090732
