   94

C       6.63308548     -6.77047332    -12.39746305
C      -3.35565392    -13.02553851    -10.14010643
H       7.31306020     -6.04320681    -11.72916423
C      -0.22849477     -0.78913096      8.35365815
H      -5.66958113      8.54792077     -2.38095480
H      -3.58947678    -12.23743733     -9.31645078
C       0.82061133     -0.66080727      9.63854695
H       6.29853192     -7.83955107    -11.96956571
H      -8.99345256     -6.98429977    -19.16300410
H      -8.98574137     -7.75369376    -19.03504543
C       3.95835946     -0.10894573     -3.30162353
H      16.71999876      5.80709950     13.90170215
C       8.30393322     -9.93915012      5.45881650
H       8.12930965     11.00680924     -2.05741084
H       8.44439152     -9.27812499      4.49907610
H       2.50425844    -10.90118632     17.33758517
C       6.59420380    -10.69351805      7.45122151
H       5.49920222    -10.78486987      6.94946343
C       7.51093937     11.11637487      0.13506639
H       6.27740229    -10.46327646      8.59366687
H      11.27879245     15.59824292      8.89753885
H       6.67771510     11.72585076      0.69280880
C       8.21454018     10.30236663     -1.05672106
H      16.85665692      2.91566089     -5.08201493
C      15.75282822      2.69569544     -4.97145247
H       2.04448754      1.00755714     -2.67036868
H       7.62932317      9.22791270     -1.15456807
H      -2.55066600     10.61269128     11.84233250
C      17.05982975    -10.73405245     -8.03629873
H      -1.43537633     -0.71836379      8.51372947
H      -5.57363988      8.35280739     -0.46085219
C       0.91708219     -2.25968202     -2.34422611
H       0.82373984     -1.82562740     10.04676118
C       1.47819573    -10.71751696     17.93036419
H       0.35045360     -2.15424208     -1.28309309
H     -10.96213609    -12.27297242     15.66815272
H       1.07348491     -9.60107587     18.09678088
C      -0.22205698     -0.49168964     -4.05786195
H      -2.49856008      8.62277008     -1.01428427
C      -3.18499921     10.88253141     -1.58617016
H      -1.22621525     -0.01014104     -4.43505356
H      -3.40208779     11.57152871     -0.58431971
H      -2.05160138     11.21488979     -1.94153616
H      -3.79184938     11.48023048     -2.47729931
H      17.52771490    -10.30761045     -9.06118961
H      17.20004180    -11.84202748     -8.48775659
H      16.86361376    -10.80464215     -5.62023322
H       3.56670969      1.38480819      7.84935907
H       0.27597103      0.15567089     10.38505398
H       0.85684386    -11.65028868     18.35672652
H       4.55625358     -0.36983546     -4.30918780
H      -9.42675544     -2.95204824     23.99740376
H       4.88782363     15.52944948     20.68300944
H      10.41812856     13.86853715      9.61012019
H       3.22119463     -0.25347694     12.21176009
H      26.59648769      7.39426669     -2.17327341
H      -4.58446404      9.53356688     11.50189614
H      27.28666125      7.54264242     -1.84154386
H       0.48116519     -2.06266754      6.27587603
H       8.37440217    -12.01008828      6.47817515
H       6.28786058     -6.42822302    -13.49364176
H       4.54906946     -0.81662793     11.01301692
C       0.04446645     -1.05853455      6.77603427
C     -10.36016020    -12.21606716     16.66242232
C       3.07159340      0.72615323      8.67553045
C       2.39634101     -0.16632235      9.79295704
C       5.02722500      0.20904746     -2.18921799
C       9.37976109     15.91863526     10.32892885
C       3.41907493     -0.40971349     11.03453382
C      -3.56756502     10.07312908     11.67211432
C      10.40509917     15.05937684      9.50939751
C      -4.86699548      8.32013892     -1.47330454
C       1.15893144     -1.15053852     -3.54734366
C       2.34481762     -0.05717942     -3.16328312
C      16.59647545    -10.08217218     -6.58039831
C      -3.48725486      9.25535613     -1.35697652
C       8.09226948    -10.84809937      6.76941802
H       9.40620239     10.01644628     -0.99005046
H      -3.12183110    -13.81363969    -10.96376208
H      15.42237793     -9.78215116     -6.33302139
H      -9.29845674     -2.27982476     24.37164303
H      -9.75818431    -12.15916191     17.65669192
H      16.54416436      6.56055261     13.80275473
H       5.82360579      0.51968885     -1.39479840
H       5.58404169     15.73605848     20.96760238
H       8.79199041     16.55633728     11.10641415
H       1.39247712     -1.71191310     -4.61844776
H      -4.72724622      7.11770649     -1.70943144
H      -7.60794186     21.24261576      9.77840254
H       1.27147933     -3.41087766     -2.26156873
H      -0.15025476     -0.28069903      5.87863561
H       9.04493505    -10.57403238      7.49756019
H      17.18442471     -9.02958238     -6.33274461
H      -7.74115339     21.25123495     10.54689483
   94

C       6.63308491     -6.77047901    -12.39750833
C      -3.35565852    -13.02554119    -10.14010598
H       7.31306057     -6.04321920    -11.72920250
C      -0.22787749     -0.78904821      8.35338238
H      -5.67233236      8.54806482     -2.38132405
H      -3.58948144    -12.23743999     -9.31645037
C       0.81983550     -0.66098001      9.63947345
H       6.29852873     -7.83955794    -11.96961728
H      -8.99345264     -6.98429978    -19.16300421
H      -8.98574145     -7.75369377    -19.03504554
C       3.95825058     -0.10854620     -3.30209962
H      16.72034624      5.80661141     13.90191077
C       8.31308960     -9.93704846      5.43802982
H       8.13449956     11.00226052     -2.06671727
H       8.44836418     -9.26747132      4.48544250
H       2.50425536    -10.90118703     17.33759273
C       6.62840783    -10.68851312      7.46287956
H       5.52879825    -10.77995534      6.96571687
C       7.51038332     11.11432392      0.12457835
H       6.28385385    -10.46154419      8.59882810
H      11.28096355     15.60114587      8.90052252
H       6.68516798     11.72452424      0.69326099
C       8.21758781     10.29963042     -1.06456121
H      16.85665889      2.91565987     -5.08201584
C      15.75283028      2.69569392     -4.97145364
H       2.04434709      1.00847798     -2.67146155
H       7.63460793      9.22401529     -1.16294308
H      -2.55066600     10.61269352     11.84233306
C      17.06201016    -10.73444589     -8.03635961
H      -1.43490564     -0.71864355      8.51224855
H      -5.57662579      8.35254665     -0.46097288
C       0.91726458     -2.25964415     -2.34409405
H       0.82223114     -1.82540953     10.04876365
C       1.47819181    -10.71751687     17.93036971
H       0.35023152     -2.15408061     -1.28319385
H     -10.96213624    -12.27297243     15.66815276
H       1.07348166     -9.60107547     18.09678542
C      -0.22179889     -0.49204121     -4.05768578
H      -2.50153057      8.62238403     -1.01435310
C      -3.18820714     10.88218439     -1.58636482
H      -1.22614279     -0.01033020     -4.43413006
H      -3.40539059     11.57115042     -0.58451305
H      -2.05491928     11.21477233     -1.94185118
H      -3.79517834     11.47973489     -2.47751332
H      17.52558241    -10.30244495     -9.06111699
H      17.19605183    -11.84485966     -8.48423186
H      16.86370127    -10.80477434     -5.61912740
H       3.56657026      1.38505701      7.85011048
H       0.27457717      0.15418725     10.38698796
H       0.85684056    -11.65028951     18.35673064
H       4.55605465     -0.36897693     -4.30984399
H      -9.42675553     -2.95204820     23.99740381
H       4.88459318     15.52959291     20.69030493
H      10.42026277     13.87207351      9.61312468
H       3.22335737     -0.25061823     12.21088172
H      26.59648795      7.39426672     -2.17327340
H      -4.58446418      9.53356914     11.50189710
H      27.28666150      7.54264245     -1.84154383
H       0.48074851     -2.06290914      6.27569646
H       8.38900967    -12.03379122      6.45830206
H       6.28785249     -6.42824330    -13.49368927
H       4.54867193     -0.81886194     11.01138292
C       0.04533333     -1.05816048      6.77572576
C     -10.36016037    -12.21606718     16.66242238
C       3.07069352      0.72633977      8.67577752
C       2.39559329     -0.16631904      9.79314537
C       5.02684207      0.20842587     -2.18917442
C       9.38457873     15.92257580     10.33653138
C       3.41950459     -0.40963725     11.03375013
C      -3.56756509     10.07313134     11.67211507
C      10.40961049     15.06328625      9.51659994
C      -4.87006148      8.31992380     -1.47348345
C       1.15933380     -1.15059870     -3.54725542
C       2.34475100     -0.05661120     -3.16361081
C      16.59926530    -10.08261472     -6.58043362
C      -3.49021821      9.25497547     -1.35707972
C       8.07915265    -10.87466144      6.71360806
H       9.40944177     10.01577000     -0.99195998
H      -3.12183564    -13.81364240    -10.96376160
H      15.42365693     -9.78455459     -6.33892517
H      -9.29845683     -2.27982472     24.37164308
H      -9.75818450    -12.15916193     17.65669200
H      16.54451176      6.56006449     13.80296332
H       5.82281099      0.51831411     -1.39406823
H       5.58081112     15.73620196     20.97489811
H       8.79194836     16.56067550     11.11001911
H       1.39341491     -1.71214393     -4.61815877
H      -4.73083875      7.11743389     -1.70960502
H      -7.60794283     21.24261911      9.77840202
H       1.27145480     -3.41088673     -2.26118488
H      -0.14852906     -0.28030664      5.87811937
H       8.96010222    -10.54823098      7.57460089
H      17.18430459     -9.02857510     -6.33141131
H      -7.74115440     21.25123831     10.54689430
   94

C       6.63308433     -6.77048471    -12.39755348
C      -3.35566303    -13.02554386    -10.14010538
H       7.31306094     -6.04323162    -11.72924062
C      -0.22725946     -0.78896611      8.35310788
H      -5.67508205      8.54820865     -2.38169307
H      -3.58948599    -12.23744264     -9.31644979
C       0.81905951     -0.66115268      9.64039979
H       6.29852555     -7.83956482    -11.96966868
H      -8.99345271     -6.98429979    -19.16300430
H      -8.98574153     -7.75369378    -19.03504563
C       3.95814200     -0.10814708     -3.30257476
H      16.72069352      5.80612341     13.90211922
C       8.32237820     -9.93495520      5.41872368
H       8.13969636     10.99770869     -2.07600533
H       8.45210771     -9.25740279      4.47281757
H       2.50425197    -10.90118778     17.33759991
C       6.66484240    -10.68351208      7.47412400
H       5.56041404    -10.77518306      6.98144482
C       7.50975917     11.11229487      0.11407260
H       6.28989033    -10.46021513      8.60249012
H      11.28311894     15.60404648      8.90351293
H       6.69270631     11.72314607      0.69368607
C       8.22063026     10.29690713     -1.07237774
H      16.85666082      2.91565882     -5.08201667
C      15.75283229      2.69569236     -4.97145474
H       2.04420687      1.00939760     -2.67255405
H       7.63989803      9.22012955     -1.17130460
H      -2.55066601     10.61269576     11.84233361
C      17.06420898    -10.73485198     -8.03643780
H      -1.43443282     -0.71892352      8.51076922
H      -5.57961020      8.35228597     -0.46109348
C       0.91744718     -2.25960676     -2.34396176
H       0.82072327     -1.82519096     10.05076359
C       1.47818765    -10.71751681     17.93037495
H       0.35000996     -2.15391975     -1.28329439
H     -10.96213628    -12.27297243     15.66815271
H       1.07347820     -9.60107511     18.09678972
C      -0.22154068     -0.49239272     -4.05750935
H      -2.50449964      8.62199813     -1.01442189
C      -3.19141354     10.88183750     -1.58655939
H      -1.22606971     -0.01051963     -4.43320658
H      -3.40869182     11.57077225     -0.58470629
H      -2.05823567     11.21465489     -1.94216606
H      -3.79850568     11.47923946     -2.47772722
H      17.52343755    -10.29726606     -9.06101991
H      17.19204855    -11.84767814     -8.48068072
H      16.86378131    -10.80490509     -5.61803380
H       3.56643038      1.38530511      7.85086234
H       0.27318459      0.15270353     10.38891900
H       0.85683707    -11.65029039     18.35673452
H       4.55585585     -0.36811899     -4.31049906
H      -9.42675563     -2.95204817     23.99740386
H       4.88136426     15.52973628     20.69759694
H      10.42238927     13.87562354      9.61612930
H       3.22552246     -0.24776277     12.20999608
H      26.59648819      7.39426672     -2.17327338
H      -4.58446432      9.53357140     11.50189805
H      27.28666173      7.54264246     -1.84154379
H       0.48033151     -2.06314990      6.27551708
H       8.40418985    -12.05544263      6.44018677
H       6.28784440     -6.42826360    -13.49373666
H       4.54826803     -0.82109161     11.00975381
C       0.04620012     -1.05778766      6.77541803
C     -10.36016045    -12.21606719     16.66242235
C       3.06979399      0.72652598      8.67602493
C       2.39484551     -0.16631578      9.79333453
C       5.02645921      0.20780426     -2.18913091
C       9.38939763     15.92651679     10.34413884
C       3.41993239     -0.40956064     11.03296719
C      -3.56756517     10.07313359     11.67211581
C      10.41412576     15.06719197      9.52380078
C      -4.87312601      8.31970876     -1.47366230
C       1.15973626     -1.15065894     -3.54716676
C       2.34468451     -0.05604354     -3.16393822
C      16.60205164    -10.08306042     -6.58047961
C      -3.49318015      9.25459498     -1.35718287
C       8.07041799    -10.89959983      6.66215402
H       9.41264533     10.01510849     -0.99386267
H      -3.12184011    -13.81364507    -10.96376097
H      15.42496574     -9.78696224     -6.34483081
H      -9.29845692     -2.27982469     24.37164313
H      -9.75818462    -12.15916194     17.65669199
H      16.54485897      6.55957648     13.80317176
H       5.82201574      0.51693934     -1.39333907
H       5.57758209     15.73634537     20.98219037
H       8.79191814     16.56499685     11.11360258
H       1.39435272     -1.71237468     -4.61786913
H      -4.73442975      7.11716160     -1.70977852
H      -7.60794380     21.24262246      9.77840150
H       1.27143068     -3.41089614     -2.26080069
H      -0.14680370     -0.27991603      5.87760431
H       8.86657643    -10.52495426      7.64547428
H      17.18417277     -9.02757603     -6.33008695
H      -7.74115540     21.25124167     10.54689378
   94

C       6.63308376     -6.77049046    -12.39759840
C      -3.35566743    -13.02554650    -10.14010462
H       7.31306132     -6.04324409    -11.72927849
C      -0.22664044     -0.78888434      8.35283469
H      -5.67783151      8.54835228     -2.38206198
H      -3.58949040    -12.23744528     -9.31644904
C       0.81828321     -0.66132524      9.64132641
H       6.29852239     -7.83957174    -11.96971982
H      -8.99345277     -6.98429980    -19.16300437
H      -8.98574158     -7.75369379    -19.03504569
C       3.95803381     -0.10774831     -3.30304901
H      16.72104072      5.80563527     13.90232761
C       8.33136189     -9.93336920      5.40103767
H       8.14490173     10.99315227     -2.08527795
H       8.45558065     -9.24822710      4.46151742
H       2.50424879    -10.90118846     17.33760625
C       6.70213008    -10.67886259      7.48487253
H       5.59294824    -10.77062799      6.99628372
C       7.50906983     11.11028670      0.10354795
H       6.29537388    -10.45924933      8.60464262
H      11.28525968     15.60694631      8.90651185
H       6.70033243     11.72171383      0.69407853
C       8.22366834     10.29419613     -1.08017312
H      16.85666266      2.91565771     -5.08201744
C      15.75283422      2.69569074     -4.97145575
H       2.04406691      1.01031627     -2.67364659
H       7.64519527      9.21625444     -1.17965573
H      -2.55066601     10.61269800     11.84233415
C      17.06642610    -10.73527079     -8.03653337
H      -1.43395772     -0.71920346      8.50929113
H      -5.58259447      8.35202526     -0.46121408
C       0.91763025     -2.25956984     -2.34382914
H       0.81921586     -1.82497156     10.05276174
C       1.47818380    -10.71751676     17.93037959
H       0.34978895     -2.15375943     -1.28339476
H     -10.96213630    -12.27297244     15.66815264
H       1.07347497     -9.60107479     18.09679357
C      -0.22128218     -0.49274436     -4.05733265
H      -2.50746865      8.62161222     -1.01449068
C      -3.19461983     10.88149057     -1.58675394
H      -1.22599592     -0.01070941     -4.43228276
H      -3.41199295     11.57039404     -0.58489952
H      -2.06155202     11.21453741     -1.94248091
H      -3.80183289     11.47874399     -2.47794109
H      17.52127970    -10.29207384     -9.06089795
H      17.18803142    -11.85048252     -8.47710287
H      16.86385380    -10.80503429     -5.61695196
H       3.56629020      1.38555235      7.85161498
H       0.27179302      0.15121943     10.39084779
H       0.85683383    -11.65029118     18.35673798
H       4.55565725     -0.36726140     -4.31115311
H      -9.42675572     -2.95204814     23.99740390
H       4.87813541     15.52987963     20.70488879
H      10.42450906     13.87918889      9.61913583
H       3.22769124     -0.24490994     12.20910265
H      26.59648842      7.39426671     -2.17327335
H      -4.58446444      9.53357366     11.50189899
H      27.28666194      7.54264246     -1.84154375
H       0.47991401     -2.06338941      6.27533780
H       8.41918445    -12.07434059      6.42360035
H       6.28783634     -6.42828395    -13.49378382
H       4.54785800     -0.82331882     11.00812874
C       0.04706719     -1.05741550      6.77511107
C     -10.36016051    -12.21606720     16.66242231
C       3.06889465      0.72671170      8.67627282
C       2.39409761     -0.16631275      9.79352474
C       5.02607642      0.20718212     -2.18908729
C       9.39421964     15.93045995     10.35175418
C       3.42035896     -0.40948427     11.03218455
C      -3.56756523     10.07313585     11.67211654
C      10.41864662     15.07109569      9.53100274
C      -4.87619045      8.31949368     -1.47384116
C       1.16013903     -1.15071929     -3.54707763
C       2.34461824     -0.05547632     -3.16426538
C      16.60483502    -10.08350934     -6.58053609
C      -3.49614202      9.25421448     -1.35728603
C       8.06506138    -10.92210172      6.61633790
H       9.41581420     10.01446132     -0.99576021
H      -3.12184449    -13.81364772    -10.96376020
H      15.42630430     -9.78937466     -6.35073937
H      -9.29845700     -2.27982466     24.37164317
H      -9.75818472    -12.15916196     17.65669197
H      16.54520612      6.55908832     13.80338014
H       5.82121983      0.51556363     -1.39261041
H       5.57435313     15.73648877     20.98948245
H       8.79190037     16.56930306     11.11716635
H       1.39529091     -1.71260552     -4.61757871
H      -4.73802077      7.11688948     -1.70995207
H      -7.60794476     21.24262580      9.77840098
H       1.27140718     -3.41090592     -2.26041599
H      -0.14507795     -0.27952667      5.87709027
H       8.76921031    -10.50452567      7.70912641
H      17.18402912     -9.02658506     -6.32877097
H      -7.74115639     21.25124503     10.54689325
   94

C       6.63308321     -6.77049628    -12.39764305
C      -3.35567170    -13.02554913    -10.14010373
H       7.31306170     -6.04325666    -11.72931605
C      -0.22602014     -0.78880280      8.35256288
H      -5.68058206      8.54849571     -2.38243090
H      -3.58949466    -12.23744790     -9.31644815
C       0.81750647     -0.66149786      9.64225373
H       6.29851926     -7.83957871    -11.96977064
H      -8.99345281     -6.98429982    -19.16300442
H      -8.98574162     -7.75369381    -19.03504574
C       3.95792603     -0.10734976     -3.30352250
H      16.72138797      5.80514677     13.90253604
C       8.33980327     -9.93256458      5.38482491
H       8.15011736     10.98858974     -2.09453810
H       8.45880250     -9.24004702      4.45157933
H       2.50424633    -10.90118896     17.33761120
C       6.73937139    -10.67472637      7.49514439
H       5.62558875    -10.76629766      7.01020533
C       7.50831837     11.10829842      0.09300335
H       6.30047509    -10.45856414      8.60543137
H      11.28738678     15.60984688      8.90952107
H       6.70804857     11.72022510      0.69443276
C       8.22670283     10.29149680     -1.08794988
H      16.85666441      2.91565652     -5.08201814
C      15.75283606      2.69568900     -4.97145667
H       2.04392722      1.01123434     -2.67473962
H       7.65050147      9.21238893     -1.18799953
H      -2.55066598     10.61270022     11.84233469
C      17.06866145    -10.73570239     -8.03664640
H      -1.43348010     -0.71948332      8.50781388
H      -5.58558001      8.35176442     -0.46133477
C       0.91781394     -2.25953333     -2.34369615
H       0.81770866     -1.82475141     10.05475875
C       1.47818080    -10.71751672     17.93038326
H       0.34956844     -2.15359948     -1.28349502
H     -10.96213636    -12.27297245     15.66815260
H       1.07347244     -9.60107455     18.09679663
C      -0.22102326     -0.49309629     -4.05715571
H      -2.51043893      8.62122614     -1.01455952
C      -3.19782745     10.88114346     -1.58694858
H      -1.22592140     -0.01089962     -4.43135823
H      -3.41529544     11.57001562     -0.58509284
H      -2.06486977     11.21441980     -1.94279585
H      -3.80516146     11.47824830     -2.47815502
H      17.51910822    -10.28686834     -9.06075069
H      17.18399995    -11.85327238     -8.47349798
H      16.86391869    -10.80516184     -5.61588142
H       3.56614985      1.38579857      7.85236875
H       0.27040220      0.14973448     10.39277498
H       0.85683128    -11.65029179     18.35674073
H       4.55545885     -0.36640384     -4.31180632
H      -9.42675579     -2.95204812     23.99740394
H       4.87490516     15.53002302     20.71218378
H      10.42662313     13.88277125      9.62214609
H       3.22986500     -0.24205912     12.20820087
H      26.59648863      7.39426670     -2.17327332
H      -4.58446454      9.53357590     11.50189992
H      27.28666214      7.54264246     -1.84154370
H       0.47949592     -2.06362749      6.27515862
H       8.43353165    -12.09039381      6.40816946
H       6.28782832     -6.42830438    -13.49383074
H       4.54744200     -0.82554546     11.00650682
C       0.04793503     -1.05704358      6.77480488
C     -10.36016059    -12.21606722     16.66242228
C       3.06799536      0.72689672      8.67652133
C       2.39334952     -0.16631025      9.79371613
C       5.02569362      0.20655905     -2.18904348
C       9.39904658     15.93440698     10.35938037
C       3.42078493     -0.40940882     11.03140172
C      -3.56756527     10.07313809     11.67211726
C      10.42317470     15.07499912      9.53820851
C      -4.87925618      8.31927843     -1.47402012
C       1.16054233     -1.15077976     -3.54698801
C       2.34455220     -0.05490936     -3.16459239
C      16.60761602    -10.08396158     -6.58060283
C      -3.49910517      9.25383380     -1.35738925
C       8.06215205    -10.94193868      6.57623666
H       9.41894950     10.01382802     -0.99765431
H      -3.12184876    -13.81365035    -10.96375931
H      15.42767265     -9.79179240     -6.35665193
H      -9.29845708     -2.27982463     24.37164321
H      -9.75818483    -12.15916198     17.65669197
H      16.54555333      6.55859981     13.80358857
H       5.82042300      0.51418621     -1.39188181
H       5.57112277     15.73663221     20.99677769
H       8.79189568     16.57359585     11.12071220
H       1.39622979     -1.71283651     -4.61728742
H      -4.74161332      7.11661742     -1.71012575
H      -7.60794571     21.24262914      9.77840045
H       1.27138438     -3.41091600     -2.26003065
H      -0.14335104     -0.27913820      5.87657715
H       8.67115064    -10.48679880      7.76582661
H      17.18387354     -9.02560206     -6.32746279
H      -7.74115737     21.25124838     10.54689272
   94

C       6.63308269     -6.77050217    -12.39768744
C      -3.35567587    -13.02555175    -10.14010272
H       7.31306211     -6.04326933    -11.72935330
C      -0.22539834     -0.78872154      8.35229251
H      -5.68333429      8.54863895     -2.38279988
H      -3.58949881    -12.23745052     -9.31644714
C       0.81672932     -0.66167075      9.64318196
H       6.29851618     -7.83958574    -11.96982116
H      -8.99345284     -6.98429983    -19.16300446
H      -8.98574165     -7.75369383    -19.03504578
C       3.95781864     -0.10695134     -3.30399531
H      16.72173534      5.80465783     13.90274456
C       8.34765295     -9.93258034      5.36981615
H       8.15534364     10.98402070     -2.10378657
H       8.46182761     -9.23281054      4.44285271
H       2.50424490    -10.90118922     17.33761428
C       6.77632078    -10.67104550      7.50509436
H       5.65804342    -10.76213637      7.02345493
C       7.50750812     11.10632955      0.08244050
H       6.30555975    -10.45805777      8.60511867
H      11.28950077     15.61274894      8.91254162
H       6.71585489     11.71867800      0.69474323
C       8.22973376     10.28880917     -1.09570871
H      16.85666605      2.91565524     -5.08201877
C      15.75283781      2.69568716     -4.97145749
H       2.04378779      1.01215198     -2.67583334
H       7.65581722      9.20853290     -1.19633715
H      -2.55066590     10.61270242     11.84233521
C      17.07091440    -10.73614687     -8.03677726
H      -1.43299978     -0.71976312      8.50633734
H      -5.58856745      8.35150343     -0.46145558
C       0.91799828     -2.25949715     -2.34356280
H       0.81620167     -1.82453071     10.05675488
C       1.47817902    -10.71751667     17.93038558
H       0.34934837     -2.15343981     -1.28359523
H     -10.96213645    -12.27297247     15.66815261
H       1.07347092     -9.60107438     18.09679860
C      -0.22076388     -0.49344854     -4.05697856
H      -2.51341111      8.62083980     -1.01462843
C      -3.20103704     10.88079609     -1.58714334
H      -1.22584616     -0.01109028     -4.43043284
H      -3.41859996     11.56963694     -0.58528628
H      -2.06818961     11.21430203     -1.94311094
H      -3.80849205     11.47775228     -2.47836905
H      17.51692306    -10.28164981     -9.06057762
H      17.17995428    -11.85604730     -8.46986581
H      16.86397598    -10.80528765     -5.61482201
H       3.56600938      1.38604364      7.85312382
H       0.26901208      0.14824840     10.39470086
H       0.85682973    -11.65029211     18.35674250
H       4.55526066     -0.36554613     -4.31245880
H      -9.42675584     -2.95204809     23.99740397
H       4.87167285     15.53016647     20.71948341
H      10.42873201     13.88637142      9.62516108
H       3.23204438     -0.23921024     12.20729043
H      26.59648883      7.39426669     -2.17327329
H      -4.58446461      9.53357814     11.50190085
H      27.28666233      7.54264246     -1.84154366
H       0.47907731     -2.06386414      6.27497960
H       8.44706983    -12.10392181      6.39354374
H       6.28782033     -6.42832488    -13.49387740
H       4.54702016     -0.82777258     11.00488763
C       0.04880388     -1.05667182      6.77449950
C     -10.36016070    -12.21606723     16.66242230
C       3.06709607      0.72708086      8.67677052
C       2.39260127     -0.16630855      9.79390876
C       5.02531076      0.20593496     -2.18899945
C       9.40387906     15.93835869     10.36701850
C       3.42121062     -0.40933474     11.03061847
C      -3.56756527     10.07314031     11.67211798
C      10.42771051     15.07890300      9.54541902
C      -4.88232382      8.31906298     -1.47419922
C       1.16094620     -1.15084030     -3.54689794
C       2.34448640     -0.05434254     -3.16491933
C      16.61039487    -10.08441721     -6.58067978
C      -3.50207020      9.25345288     -1.35749256
C       8.06094061    -10.95932100      6.54114543
H       9.42205151     10.01320835     -0.99954610
H      -3.12185294    -13.81365297    -10.96375831
H      15.42907077     -9.79421557     -6.36256862
H      -9.29845712     -2.27982461     24.37164324
H      -9.75818496    -12.15916200     17.65669200
H      16.54590069      6.55811088     13.80379710
H       5.81962511      0.51280680     -1.39115313
H       5.56789033     15.73677571     21.00407756
H       8.79190467     16.57787591     11.12424102
H       1.39716947     -1.71306766     -4.61699525
H      -4.74520812      7.11634536     -1.71029961
H      -7.60794665     21.24263247      9.77839993
H       1.27136223     -3.41092632     -2.25964468
H      -0.14162259     -0.27875055      5.87606494
H       8.57347226    -10.47147000      7.81638864
H      17.18370601     -9.02462711     -6.32616218
H      -7.74115835     21.25125172     10.54689218
   94

C       6.63308220     -6.77050812    -12.39773160
C      -3.35567994    -13.02555435    -10.14010164
H       7.31306254     -6.04328209    -11.72939028
C      -0.22477501     -0.78864071      8.35202359
H      -5.68608810      8.54878199     -2.38316891
H      -3.58950285    -12.23745313     -9.31644604
C       0.81595186     -0.66184409      9.64411108
H       6.29851314     -7.83959282    -11.96987139
H      -8.99345285     -6.98429986    -19.16300448
H      -8.98574166     -7.75369385    -19.03504580
C       3.95771161     -0.10655297     -3.30446749
H      16.72208285      5.80416851     13.90295317
C       8.35498229     -9.93330242      5.35574638
H       8.16057975     10.97944572     -2.11302220
H       8.46472127     -9.22638715      4.43511100
H       2.50424460    -10.90118920     17.33761517
C       6.81316593    -10.66761042      7.51500058
H       5.69045668    -10.75805998      7.03636885
C       7.50664286     11.10438008      0.07186375
H       6.31100385    -10.45763498      8.60403345
H      11.29160174     15.61565248      8.91557377
H       6.72374947     11.71707119      0.69500449
C       8.23276042     10.28613392     -1.10344859
H      16.85666760      2.91565388     -5.08201933
C      15.75283947      2.69568519     -4.97145822
H       2.04364859      1.01306921     -2.67692774
H       7.66114191      9.20468709     -1.20466792
H      -2.55066579     10.61270459     11.84233573
C      17.07318374    -10.73660430     -8.03692663
H      -1.43251671     -0.72004299      8.50486158
H      -5.59155668      8.35124229     -0.46157650
C       0.91818319     -2.25946121     -2.34342911
H       0.81469509     -1.82430969     10.05875004
C       1.47817860    -10.71751661     17.93038632
H       0.34912867     -2.15328034     -1.28369543
H     -10.96213655    -12.27297248     15.66815264
H       1.07347054     -9.60107429     18.09679926
C      -0.22050409     -0.49380106     -4.05680123
H      -2.51638509      8.62045323     -1.01469740
C      -3.20424852     10.88044848     -1.58733820
H      -1.22577024     -0.01128134     -4.42950666
H      -3.42190640     11.56925799     -0.58547984
H      -2.07151143     11.21418410     -1.94342616
H      -3.81182457     11.47725597     -2.47858316
H      17.51472469    -10.27641874     -9.06037821
H      17.17589517    -11.85880682     -8.46620628
H      16.86402579    -10.80541172     -5.61377387
H       3.56586879      1.38628745      7.85388018
H       0.26762280      0.14676104     10.39662537
H       0.85682931    -11.65029212     18.35674311
H       4.55506263     -0.36468823     -4.31311060
H      -9.42675586     -2.95204808     23.99740399
H       4.86843856     15.53030998     20.72678746
H      10.43083579     13.88998938      9.62818108
H       3.23422934     -0.23636365     12.20637131
H      26.59648901      7.39426668     -2.17327325
H      -4.58446463      9.53358035     11.50190177
H      27.28666251      7.54264246     -1.84154361
H       0.47865827     -2.06409952      6.27480080
H       8.45984490    -12.11539202      6.37948676
H       6.28781239     -6.42834546    -13.49392383
H       4.54659254     -0.83000031     11.00327117
C       0.04967380     -1.05630036      6.77419495
C     -10.36016080    -12.21606724     16.66242234
C       3.06619686      0.72726397      8.67702040
C       2.39185297     -0.16630782      9.79410260
C       5.02492783      0.20530994     -2.18895527
C       9.40871649     15.94231494     10.37466791
C       3.42163610     -0.40926226     11.02983480
C      -3.56756523     10.07314250     11.67211868
C      10.43225348     15.08280720      9.55263348
C      -4.88539329      8.31884733     -1.47437844
C       1.16135060     -1.15090087     -3.54680745
C       2.34442081     -0.05377580     -3.16524621
C      16.61317140    -10.08487630     -6.58076707
C      -3.50503703      9.25307172     -1.35759594
C       8.06083225    -10.97466723      6.51008085
H       9.42511982     10.01260215     -1.00143619
H      -3.12185704    -13.81365557    -10.96375723
H      15.43049858     -9.79664388     -6.36848870
H      -9.29845714     -2.27982460     24.37164325
H      -9.75818506    -12.15916201     17.65669204
H      16.54624818      6.55762155     13.80400573
H       5.81882615      0.51142554     -1.39042443
H       5.56465594     15.73691927     21.01138185
H       8.79192788     16.58214296     11.12775296
H       1.39810990     -1.71329891     -4.61670225
H      -4.74880505      7.11607330     -1.71047364
H      -7.60794758     21.24263580      9.77839940
H       1.27134063     -3.41093680     -2.25925814
H      -0.13989259     -0.27836384      5.87555369
H       8.47587839    -10.45828542      7.86158182
H      17.18352662     -9.02366041     -6.32486925
H      -7.74115931     21.25125506     10.54689165
   94

C       6.63308173     -6.77051412    -12.39777557
C      -3.35568395    -13.02555695    -10.14010048
H       7.31306299     -6.04329492    -11.72942703
C      -0.22415015     -0.78856051      8.35175614
H      -5.68884317      8.54892483     -2.38353795
H      -3.58950682    -12.23745573     -9.31644487
C       0.81517418     -0.66201804      9.64504100
H       6.29851014     -7.83959995    -11.96992140
H      -8.99345286     -6.98429988    -19.16300450
H      -8.98574166     -7.75369387    -19.03504582
C       3.95760492     -0.10615461     -3.30493905
H      16.72243045      5.80367887     13.90316185
C       8.36190150     -9.93456261      5.34241287
H       8.16582442     10.97486578     -2.12224312
H       8.46754283     -9.22062994      4.42813366
H       2.50424533    -10.90118891     17.33761383
C       6.85021117    -10.66416950      7.52519933
H       5.72318459    -10.75399801      7.04919161
C       7.50572666     11.10245015      0.06127851
H       6.31702965    -10.45724003      8.60249524
H      11.29368962     15.61855723      8.91861754
H       6.73172941     11.71540365      0.69521116
C       8.23578185     10.28347191     -1.11116796
H      16.85666908      2.91565243     -5.08201983
C      15.75284105      2.69568313     -4.97145887
H       2.04350958      1.01398601     -2.67802274
H       7.66647453      9.20085249     -1.21299054
H      -2.55066564     10.61270673     11.84233623
C      17.07546804    -10.73707473     -8.03709533
H      -1.43203088     -0.72032308      8.50338671
H      -5.59454735      8.35098101     -0.46169752
C       0.91836854     -2.25942545     -2.34329514
H       0.81318911     -1.82408854     10.06074400
C       1.47817946    -10.71751654     17.93038541
H       0.34890927     -2.15312107     -1.28379561
H     -10.96213661    -12.27297248     15.66815269
H       1.07347124     -9.60107428     18.09679855
C      -0.22024396     -0.49415376     -4.05662372
H      -2.51936055      8.62006646     -1.01476643
C      -3.20746151     10.88010067     -1.58753316
H      -1.22569368     -0.01147276     -4.42857979
H      -3.42521441     11.56887883     -0.58567349
H      -2.07483487     11.21406603     -1.94374148
H      -3.81515864     11.47675940     -2.47879734
H      17.51251379    -10.27117570     -9.06015197
H      17.17182363    -11.86155047     -8.46251943
H      16.86406830    -10.80553404     -5.61273726
H       3.56572805      1.38653000      7.85463777
H       0.26623450      0.14527241     10.39854831
H       0.85682997    -11.65029183     18.35674249
H       4.55486473     -0.36383014     -4.31376171
H      -9.42675585     -2.95204808     23.99740398
H       4.86520268     15.53045353     20.73409508
H      10.43293444     13.89362479      9.63120607
H       3.23641953     -0.23351972     12.20544363
H      26.59648919      7.39426666     -2.17327322
H      -4.58446463      9.53358253     11.50190268
H      27.28666268      7.54264245     -1.84154357
H       0.47823894     -2.06433383      6.27462229
H       8.47197807    -12.12523414      6.36588171
H       6.28780448     -6.42836609    -13.49397009
H       4.54615917     -0.83222829     11.00165764
C       0.05054474     -1.05592947      6.77389126
C     -10.36016087    -12.21606725     16.66242238
C       3.06529778      0.72744602      8.67727094
C       2.39110469     -0.16630816      9.79429759
C       5.02454480      0.20468421     -2.18891103
C       9.41355786     15.94627530     10.38232729
C       3.42206123     -0.40919134     11.02905080
C      -3.56756515     10.07314467     11.67211938
C      10.43680266     15.08671125      9.55985050
C      -4.88846423      8.31863151     -1.47455777
C       1.16175547     -1.15096140     -3.54671658
C       2.34435538     -0.05320915     -3.16557307
C      16.61594537    -10.08533886     -6.58086488
C      -3.50800531      9.25269037     -1.35769939
C       8.06129676    -10.98842469      6.48213854
H       9.42815378     10.01200934     -1.00332502
H      -3.12186108    -13.81365817    -10.96375609
H      15.43195597     -9.79907689     -6.37441115
H      -9.29845713     -2.27982460     24.37164324
H      -9.75818512    -12.15916201     17.65669207
H      16.54659578      6.55713192     13.80421442
H       5.81802616      0.51004274     -1.38969591
H       5.56141994     15.73706287     21.01868971
H       8.79196583     16.58639641     11.13124790
H       1.39905096     -1.71353018     -4.61640849
H      -4.75240373      7.11580128     -1.71064781
H      -7.60794850     21.24263912      9.77839887
H       1.27131946     -3.41094739     -2.25887116
H      -0.13816119     -0.27797831      5.87504349
H       8.37772666    -10.44706063      7.90195156
H      17.18333551     -9.02270223     -6.32358425
H      -7.74116027     21.25125839     10.54689111
   94

C       6.63308129     -6.77052016    -12.39781941
C      -3.35568791    -13.02555954    -10.14009926
H       7.31306347     -6.04330780    -11.72946363
C      -0.22352382     -0.78848111      8.35149010
H      -5.69159923      8.54906748     -2.38390699
H      -3.58951073    -12.23745833     -9.31644363
C       0.81439629     -0.66219267      9.64597162
H       6.29850717     -7.83960710    -11.96997126
H      -8.99345286     -6.98429990    -19.16300451
H      -8.98574166     -7.75369389    -19.03504582
C       3.95749850     -0.10575622     -3.30541004
H      16.72277813      5.80318899     13.90337059
C       8.36849894     -9.93620898      5.32967506
H       8.17107647     10.97028175     -2.13144764
H       8.47033683     -9.21540810      4.42174223
H       2.50424687    -10.90118841     17.33761043
C       6.88772251    -10.66049708      7.53603536
H       5.75663587    -10.74991733      7.06199196
C       7.50476388     11.10053975      0.05069010
H       6.32364138    -10.45688794      8.60074478
H      11.29576439     15.62146296      8.92167299
H       6.73979160     11.71367455      0.69535793
C       8.23879719     10.28082388     -1.11886551
H      16.85667048      2.91565091     -5.08202026
C      15.75284258      2.69568099     -4.97145944
H       2.04337072      1.01490233     -2.67911826
H       7.67181414      9.19703001     -1.22130388
H      -2.55066545     10.61270883     11.84233672
C      17.07776587    -10.73755818     -8.03728413
H      -1.43154231     -0.72060352      8.50191278
H      -5.59753919      8.35071963     -0.46181860
C       0.91855422     -2.25938984     -2.34316091
H       0.81168384     -1.82386739     10.06273654
C       1.47818136    -10.71751646     17.93038298
H       0.34869014     -2.15296197     -1.28389578
H     -10.96213661    -12.27297248     15.66815271
H       1.07347282     -9.60107432     18.09679657
C      -0.21998354     -0.49450660     -4.05644606
H      -2.52233718      8.61967953     -1.01483549
C      -3.21067572     10.87975268     -1.58772819
H      -1.22561653     -0.01166450     -4.42765231
H      -3.42852367     11.56849949     -0.58586721
H      -2.07815961     11.21394784     -1.94405689
H      -3.81849395     11.47626262     -2.47901157
H      17.51029109    -10.26592138     -9.05989847
H      17.16774073    -11.86427775     -8.45880539
H      16.86410369    -10.80565460     -5.61171244
H       3.56558708      1.38677131      7.85539650
H       0.26484721      0.14378251     10.40046950
H       0.85683150    -11.65029129     18.35674073
H       4.55466692     -0.36297184     -4.31441216
H      -9.42675580     -2.95204810     23.99740394
H       4.86196553     15.53059712     20.74140556
H      10.43502794     13.89727737      9.63423610
H       3.23861454     -0.23067864     12.20450748
H      26.59648935      7.39426663     -2.17327318
H      -4.58446459      9.53358468     11.50190358
H      27.28666283      7.54264244     -1.84154352
H       0.47781940     -2.06456732      6.27444412
H       8.48355731    -12.13377211      6.35267796
H       6.28779660     -6.42838677    -13.49401622
H       4.54571997     -0.83445599     11.00004724
C       0.05141665     -1.05555942      6.77358840
C     -10.36016085    -12.21606724     16.66242239
C       3.06439883      0.72762704      8.67752209
C       2.39035643     -0.16630955      9.79449366
C       5.02416165      0.20405797     -2.18886680
C       9.41840225     15.95023942     10.38999548
C       3.42248582     -0.40912183     11.02826659
C      -3.56756504     10.07314680     11.67212006
C      10.44135716     15.09061477      9.56706885
C      -4.89153635      8.31841554     -1.47473719
C       1.16216071     -1.15102185     -3.54662538
C       2.34429006     -0.05264257     -3.16589991
C      16.61871659    -10.08580492     -6.58097339
C      -3.51097478      9.25230887     -1.35780289
C       8.06174968    -11.00100455      6.45660139
H       9.43115290     10.01142972     -1.00521314
H      -3.12186508    -13.81366075    -10.96375489
H      15.43344285     -9.80151419     -6.38033508
H      -9.29845708     -2.27982461     24.37164321
H      -9.75818509    -12.15916200     17.65669208
H      16.54694347      6.55664203     13.80442318
H       5.81722515      0.50865872     -1.38896773
H       5.55818267     15.73720652     21.02600044
H       8.79201903     16.59063575     11.13472578
H       1.39999253     -1.71376141     -4.61611402
H      -4.75600383      7.11552933     -1.71082210
H      -7.60794942     21.24264243      9.77839834
H       1.27129859     -3.41095806     -2.25848378
H      -0.13642853     -0.27759419      5.87453438
H       8.27870366    -10.43758733      7.93793118
H      17.18313285     -9.02175276     -6.32230741
H      -7.74116122     21.25126172     10.54689058
   94

C       6.63308386     -6.77052254    -12.39786048
C      -3.35569144    -13.02556211    -10.14009783
H       7.31306708     -6.04332059    -11.72949264
C      -0.22274628     -0.78835104      8.35107716
H      -5.69420875      8.54935342     -2.38439514
H      -3.58951429    -12.23746093     -9.31644218
C       0.81358302     -0.66232352      9.64698305
H       6.29850558     -7.83961085    -11.97002203
H      -8.99345267     -6.98429966    -19.16300426
H      -8.98574148     -7.75369366    -19.03504559
C       3.95737243     -0.10540374     -3.30591869
H      16.72312776      5.80269951     13.90358024
C       8.37738649     -9.93600037      5.30935113
H       8.17639050     10.96535530     -2.14131145
H       8.47402770     -9.20706402      4.41033397
H       2.50425844    -10.90118632     17.33758517
C       6.96653596    -10.64611677      7.55811616
H       5.82616901    -10.74230059      7.09148799
C       7.50362091     11.09883565      0.04023125
H       6.34533815    -10.45449566      8.59830087
H      11.29799310     15.62402638      8.92462761
H       6.74806122     11.71214516      0.69616439
C       8.24168812     10.27820570     -1.12686720
H      16.85665692      2.91566089     -5.08201493
C      15.75282822      2.69569544     -4.97145247
H       2.04321060      1.01595818     -2.68030635
H       7.67750397      9.19295872     -1.23012334
H      -2.55067627     10.61270788     11.84234469
C      17.07986024    -10.73849430     -8.03878360
H      -1.43090370     -0.72101742      8.50000963
H      -5.60044781      8.35040481     -0.46187760
C       0.91866815     -2.25941339     -2.34308376
H       0.80976727     -1.82337462     10.06538338
C       1.47819573    -10.71751696     17.93036419
H       0.34841366     -2.15283344     -1.28405413
H     -10.96213609    -12.27297242     15.66815272
H       1.07348491     -9.60107587     18.09678088
C      -0.21967459     -0.49483014     -4.05607950
H      -2.52529319      8.61927460     -1.01487319
C      -3.21393614     10.87939775     -1.58792346
H      -1.22546174     -0.01185906     -4.42661637
H      -3.43189893     11.56809328     -0.58605282
H      -2.08156890     11.21389046     -1.94442631
H      -3.82187787     11.47570482     -2.47925387
H      17.50792179    -10.25627304     -9.05905299
H      17.16197733    -11.86961980     -8.45173835
H      16.86427353    -10.80611090     -5.61071172
H       3.56551075      1.38698437      7.85620611
H       0.26318051      0.14170876     10.40298726
H       0.85684386    -11.65028868     18.35672652
H       4.55437501     -0.36212767     -4.31516682
H      -9.42675544     -2.95204824     23.99740376
H       4.85874616     15.53074882     20.74869519
H      10.43738687     13.90097816      9.63708503
H       3.24097268     -0.22768277     12.20351765
H      26.59648769      7.39426669     -2.17327341
H      -4.58447432      9.53358348     11.50190833
H      27.28666125      7.54264242     -1.84154386
H       0.47726930     -2.06478355      6.27417187
H       8.49949482    -12.15172171      6.33072457
H       6.28778690     -6.42841219    -13.49406081
H       4.54533415     -0.83677634     10.99826675
C       0.05220669     -1.05514858      6.77315437
C     -10.36016020    -12.21606716     16.66242232
C       3.06356207      0.72775348      8.67779169
C       2.38970821     -0.16638460      9.79461193
C       5.02368236      0.20338342     -2.18879463
C       9.42307722     15.95433182     10.39782347
C       3.42304355     -0.40889465     11.02742384
C      -3.56757530     10.07314568     11.67212651
C      10.44589310     15.09458445      9.57431399
C      -4.89462020      8.31825007     -1.47492409
C       1.16264351     -1.15108860     -3.54652842
C       2.34422639     -0.05196360     -3.16630822
C      16.62248178    -10.08670689     -6.58171679
C      -3.51393141      9.25192072     -1.35789228
C       8.05835125    -11.02613121      6.40637476
H       9.43397113     10.01095113     -1.00646402
H      -3.12186862    -13.81366329    -10.96375348
H      15.43584648     -9.80475218     -6.38823394
H      -9.29845674     -2.27982476     24.37164303
H      -9.75818431    -12.15916191     17.65669192
H      16.54729336      6.55615262     13.80463281
H       5.81634149      0.50722985     -1.38824461
H       5.55496421     15.73735782     21.03328813
H       8.79188292     16.59502987     11.13836340
H       1.40130277     -1.71402904     -4.61573870
H      -4.75980283      7.11527917     -1.71095687
H      -7.60795336     21.24264704      9.77839831
H       1.27122960     -3.41101705     -2.25805516
H      -0.13462330     -0.27716068      5.87384099
H       8.08343637    -10.42732922      7.99270832
H      17.18289552     -9.02055566     -6.32100913
H      -7.74116489     21.25126624     10.54689060
