   94

C      -8.27190617     -4.66091456     -4.47267441
C      -7.13608985     -5.18305160     -3.46294995
H      -9.09931279     -4.27827162     -5.21155398
C     -19.99637546      4.50146977     -4.08906696
H     -18.88250013     -7.17903654     -1.81084958
H      -6.59189536     -4.24457150     -2.88828715
C       9.84092565     -5.19560642      7.64960723
H      -7.60868226     -5.92269139     -2.60462524
H      -7.29857073     -5.75426489    -16.93041859
H      -7.29085954     -6.52365889    -16.80245992
C       6.70193722      0.85290711      9.67191891
H       5.51951350      1.02199376      9.37565768
C       9.40482737     -5.76353058      6.24380996
H       6.53108545     -0.36954615      9.77165855
H      10.11628030     -5.06678809      5.51991974
H       8.39098384     -5.08500829      6.07517335
C       9.38193142     -7.45838467      6.11389310
H       8.42781840     -7.86560060      5.43517117
C       6.60446592      0.56494361     -3.29969414
H       8.98114296     -8.04928430      7.12846379
H       6.42160327      0.41568549     -4.50517952
H       6.85479148      1.76677162     -3.25749772
C       5.12477107      0.25386989     -2.45271714
H       4.62208370     -0.81935038     -2.14639433
C       8.22345926     11.00081244    -16.66319306
H       4.27135674     -0.22614276     -3.19132386
H       7.57745256     11.80893946    -17.12257141
H      -0.76627426     12.55747039     11.39267650
C      12.37234461     -6.91729667    -13.67192055
H     -19.07022813      4.89841812     -3.50694303
H     -19.26182591     -7.16300885     -1.12948692
C      -9.28050729      4.93879921    -10.50088770
H     -20.92304336      4.10621554     -4.67151510
C      -2.53539767     -5.57810576     12.53393301
H     -10.38048000      4.87723817    -10.24070641
H      -1.16141823     -5.71872177     10.63569339
H      -3.51163726     -5.20332514     13.06633849
C       4.44727895      1.16704168     -1.21286435
H      -2.75445879      3.07180537      3.29472414
C      -3.55524035      3.06982984      4.23006685
H       3.43310278      1.82884004     -1.10505923
H      -3.45512290      4.12405965      4.85831601
H      -3.31127990      2.12202171      4.97723757
H      -4.70009972      2.96143264      3.78998947
H      11.94284700     -5.83658463    -13.37948360
H      12.89496904     -7.08642857    -14.73783995
H      12.27921780     -7.82887681    -12.89843808
H       8.43940875      2.27651643     12.98034784
H       6.35518137      4.49449718     13.18982106
H      -1.13488578     -7.31733351     11.80966829
H       8.69848239      1.09384559     10.83026466
H      -8.70101793     -4.16259184     22.46177845
H       6.48882954      7.29581343     11.44472556
H      -2.36216062     13.40592460     23.46097021
H       8.87354165      5.89068027     13.47884701
H      10.06060261     -0.34013494     -4.96715241
H      -2.52332372     11.62512664     11.09856555
H      18.29627251      0.41093890     -4.76657439
H       1.39892221      1.61708468    -13.33166957
H      10.94623232     -9.13607712      4.81809272
H      28.85043502     -1.65518574      0.02087623
H       9.30958295      5.44290581     11.75983645
C      17.30322965     -4.04092092     16.91429424
C      -1.19851082     -6.09134035     11.80484274
C       7.46815143      2.55935278     12.27475377
C       7.36794592      4.21995637     12.56401021
C       7.57763374      1.56764659     10.91538548
C       7.59327642      7.03825976     11.86125308
C       8.28306029      5.62622541     12.42000686
C      -1.96840889     12.72110246     11.18239601
C      -1.84280953     14.37025465     23.06787070
C       9.70553458     -0.44139970     -3.79313556
C      18.32200882      0.91926507     -5.84326056
C      18.98262235      0.14112266     -6.99586742
C      28.74888722     -0.50702674     -0.13811312
C       8.16882095      0.02396829     -3.40885890
C      10.76496199     -8.24668750      5.61803903
H      10.74053999      0.06208030     -3.35966879
H      -6.26939726     -5.81278376     -4.06245852
H      16.35524265     -3.75935048     17.46515407
H      -8.57271924     -3.49036836     22.83601772
H      -0.19529429     -5.66176927     12.36712020
H       7.16492511      1.15265921      8.56608993
H       6.54727697      2.01188601     12.88595761
H       8.00410622      8.17121498     11.73984815
H      -1.32345843     15.33458469     22.67477119
H       4.69184883      1.31658133     -0.03621013
H       9.91933989     -1.60383579     -3.47055770
H      -2.12027791     13.33971484     10.12865241
H      17.86588689      1.99427066     -6.07729254
H       1.33917646      2.39150650    -13.40309300
H      11.92418655     -8.12330407      5.94067821
H      28.69314617      0.65425197     -0.18483919
H      -2.46375969     13.36209800     12.10968957
   94

C      -8.27206515     -4.66090141     -4.47284068
C      -7.13625958     -5.18305384     -3.46311682
H      -9.09954583     -4.27828741     -5.21165030
C     -20.00033985      4.50154487     -4.08670422
H     -18.88250508     -7.17933045     -1.81079733
H      -6.59201557     -4.24460360     -2.88845355
C       9.95424716     -5.25725388      7.66027641
H      -7.60898220     -5.92267564     -2.60484938
H      -7.29858711     -5.75426807    -16.93044464
H      -7.29087565     -6.52366208    -16.80248608
C       6.69865702      0.87568728      9.68129354
H       5.51582585      1.05540591      9.39263976
C       9.39131815     -5.81899948      6.29317234
H       6.52390535     -0.34570999      9.78503505
H      10.01779266     -5.08805744      5.52772032
H       7.51105929     -4.93551488      6.37290835
C       9.41995526     -7.51063621      6.11575745
H       8.47972694     -7.94921347      5.43612954
C       6.60183333      0.56799153     -3.30313228
H       9.04846431     -8.12645950      7.12678407
H       6.42173860      0.42229198     -4.50965064
H       6.85843253      1.76843439     -3.25201622
C       5.12519441      0.24990150     -2.45680467
H       4.65230814     -0.83433928     -2.13837571
C       8.22519504     11.00331738    -16.66412956
H       4.26534007     -0.21529146     -3.19904041
H       7.57918781     11.81144436    -17.12350720
H      -0.76613970     12.55909128     11.39333023
C      12.37235619     -6.91729124    -13.67193867
H     -19.07417437      4.89843661     -3.50457068
H     -19.26183030     -7.16330323     -1.12943435
C      -9.28158878      4.94085939    -10.50269057
H     -20.92698952      4.10622886     -4.66913934
C      -2.40851115     -5.50448648     12.46149234
H     -10.38156021      4.87929714    -10.24250410
H      -1.09080017     -5.81592565     10.58050112
H      -3.34535385     -5.00602982     12.95880780
C       4.45103846      1.16535109     -1.21806110
H      -2.75975916      3.08315010      3.28375374
C      -3.56051971      3.08115433      4.21911292
H       3.44022042      1.83240857     -1.11416387
H      -3.46038545      4.13537471      4.84737324
H      -3.31658722      2.13334320      4.96628677
H      -4.70537292      2.97272496      3.77903008
H      11.94286040     -5.83657899    -13.37950021
H      12.89497973     -7.08642294    -14.73785847
H      12.27922898     -7.82887286    -12.89845814
H       8.43734193      2.27597178     12.99656792
H       6.35032925      4.49846877     13.18687043
H      -1.08247300     -7.36384917     11.79014130
H       8.70738097      1.10999771     10.83016100
H      -8.70138688     -4.16255841     22.46260468
H       6.49010837      7.29756672     11.44170508
H      -2.36217094     13.40608644     23.46173215
H       8.87376132      5.89083256     13.47848777
H      10.04973098     -0.34026245     -4.96379629
H      -2.52319064     11.62673616     11.09921337
H      18.29719532      0.41106504     -4.76729773
H       1.40049671      1.61393435    -13.33969609
H      11.00931267     -9.14308001      4.79421541
H      28.85084427     -1.65567113      0.02013520
H       9.30789452      5.44302550     11.75746271
C      17.30352286     -4.04083411     16.91461501
C      -1.11361592     -6.13805456     11.76511738
C       7.47022780      2.56168527     12.28659033
C       7.36697189      4.22266915     12.56815534
C       7.58527578      1.57942684     10.92220134
C       7.59367660      7.03942375     11.86025080
C       8.28287903      5.62749002     12.41967998
C      -1.96827451     12.72271088     11.18304373
C      -1.84281947     14.37041460     23.06862842
C       9.69811976     -0.44270235     -3.78890197
C      18.32296742      0.91939147     -5.84398617
C      18.98357975      0.14133586     -6.99665174
C      28.75085489     -0.50684394     -0.13499544
C       8.16277712      0.02240974     -3.40675724
C      10.81914331     -8.24937754      5.58732384
H      10.72548777      0.06976659     -3.34840768
H      -6.26952177     -5.81277205     -4.06257328
H      16.35555451     -3.75926430     17.46550749
H      -8.57303419     -3.49030034     22.83676338
H      -0.10400780     -5.75362581     12.34893159
H       7.15818710      1.17094087      8.57308976
H       6.54889758      2.01288377     12.89572049
H       8.00525036      8.17223541     11.74031595
H      -1.32346759     15.33474267     22.67552501
H       4.70231348      1.31775394     -0.04322375
H       9.90853766     -1.60559261     -3.46565479
H      -2.12013806     13.34131748     10.12929637
H      17.86688324      1.99439047     -6.07811847
H       1.34075125      2.38835630    -13.41111843
H      11.97409207     -8.11866944      5.92083524
H      28.69352080      0.65419767     -0.18561621
H      -2.46362464     13.36370035     12.11034138
   94

C      -8.27219528     -4.66087253     -4.47302088
C      -7.13639887     -5.18304090     -3.46330048
H      -9.09975873     -4.27829280     -5.21175319
C     -20.00431219      4.50162038     -4.08433632
H     -18.88251246     -7.17962408     -1.81074557
H      -6.59210401     -4.24462125     -2.88863703
C       9.95227419     -5.24424373      7.63654799
H      -7.60925879     -5.92264487     -2.60509443
H      -7.29859615     -5.75426850    -16.93046239
H      -7.29088469     -6.52366261    -16.80250439
C       6.70097971      0.90030808      9.68617483
H       5.51816721      1.09069044      9.40426001
C       9.43433501     -5.83953002      6.27254928
H       6.52254942     -0.31989477      9.79499842
H      10.02768878     -5.08510902      5.50898121
H       6.60207513     -5.07995396      6.87201101
C       9.46480714     -7.52274836      6.09412502
H       8.52512979     -7.95132220      5.40850355
C       6.59928248      0.57053323     -3.30551962
H       9.09784774     -8.14644045      7.10101584
H       6.42175736      0.42843204     -4.51303027
H       6.86198105      1.76952577     -3.24546756
C       5.12616459      0.24466987     -2.45933537
H       4.68355028     -0.84984036     -2.12912748
C       8.22693247     11.00581981    -16.66505442
H       4.25984679     -0.20559182     -3.20487458
H       7.58092599     11.81394703    -17.12443275
H      -0.76596866     12.56072015     11.39396332
C      12.37236027     -6.91727978    -13.67195861
H     -19.07812824      4.89845539     -3.50219361
H     -19.26183714     -7.16359747     -1.12938228
C      -9.28265425      4.94291834    -10.50448553
H     -20.93094381      4.10624242     -4.66675800
C      -2.25581640     -5.38774086     12.37716715
H     -10.38262530      4.88135644    -10.24429719
H      -1.02735290     -5.94165806     10.52924964
H      -3.14990745     -4.78245185     12.82960536
C       4.45574079      1.16225158     -1.22135201
H      -2.76488297      3.09458899      3.27258320
C      -3.56566134      3.09262396      4.20792498
H       3.44856770      1.83490729     -1.12132047
H      -3.46549823      4.14683324      4.83619622
H      -3.32178801      2.14481444      4.95511673
H      -4.71050597      2.98416877      3.76783011
H      11.94286570     -5.83656814    -13.37951625
H      12.89498383     -7.08641088    -14.73787845
H      12.27923260     -7.82886429    -12.89848160
H       8.43606555      2.27525497     13.01162845
H       6.34600435      4.50174842     13.18328810
H      -1.07502176     -7.41507477     11.79683049
H       8.71916576      1.12668919     10.82883035
H      -8.70168930     -4.16258037     22.46322371
H       6.49149103      7.29915652     11.43851364
H      -2.36217713     13.40625778     23.46249927
H       8.87413110      5.89096431     13.47797860
H      10.03866307     -0.34049702     -4.96003335
H      -2.52302301     11.62836061     11.09984058
H      18.29818577      0.41125097     -4.76810360
H       1.40210098      1.61076085    -13.34766842
H      11.05371624     -9.15143718      4.77331719
H      28.85128723     -1.65613973      0.01937619
H       9.30660207      5.44345568     11.75492704
C      17.30364162     -4.04081056     16.91465357
C      -1.03753092     -6.19199370     11.73153466
C       7.47357027      2.56395480     12.29671673
C       7.36662655      4.22512708     12.57176818
C       7.59604358      1.59254619     10.92641447
C       7.59418863      7.04053231     11.85910277
C       8.28299096      5.62875471     12.41912035
C      -1.96810315     12.72433285     11.18367241
C      -1.84282443     14.37058266     23.06938910
C       9.69073401     -0.44415901     -3.78420926
C      18.32396428      0.91957039     -5.84479813
C      18.98457096      0.14159341     -6.99751857
C      28.75286955     -0.50665261     -0.13186199
C       8.15679327      0.02050190     -3.40386080
C      10.86499238     -8.25322469      5.56109132
H      10.71032603      0.07732790     -3.33682405
H      -6.26961561     -5.81274521     -4.06270430
H      16.35569536     -3.75923546     17.46558094
H      -8.57331527     -3.49030596     22.83734587
H      -0.01650175     -5.87385336     12.33593108
H       7.15836388      1.18713610      8.57520277
H       6.55153998      2.01336951     12.90295945
H       8.00640598      8.17323686     11.74064625
H      -1.32347113     15.33490761     22.67627991
H       4.71374881      1.31680361     -0.04829049
H       9.89776482     -1.60750094     -3.46031825
H      -2.11996177     13.34293222     10.12992051
H      17.86789863      1.99455622     -6.07902197
H       1.34235447      2.38518244    -13.41909371
H      12.01606966     -8.12550419      5.90719594
H      28.69392795      0.65413594     -0.18640917
H      -2.46345317     13.36531674     12.11097353
   94

C      -8.27227840     -4.66083598     -4.47318910
C      -7.13648699     -5.18301749     -3.46347425
H      -9.09993410     -4.27829944     -5.21183855
C     -20.00830106      4.50169482     -4.08195440
H     -18.88251629     -7.17991666     -1.81068952
H      -6.59213621     -4.24463264     -2.88880821
C       9.93002276     -5.21588731      7.61759227
H      -7.60948691     -5.92260429     -2.60533146
H      -7.29860165     -5.75426843    -16.93047505
H      -7.29089012     -6.52366263    -16.80251762
C       6.70794493      0.91379820      9.68577818
H       5.52477548      1.11204751      9.41095619
C       9.50128109     -5.83812039      6.24242610
H       6.53117453     -0.30670047      9.79289806
H      10.08426685     -5.07062748      5.48988132
H       5.79864845     -5.29581127      7.37862264
C       9.49104096     -7.51347189      6.07464514
H       8.53918963     -7.91174121      5.38943013
C       6.59658469      0.57292929     -3.30760719
H       9.11085873     -8.12528031      7.08242128
H       6.42149957      0.43443935     -4.51608063
H       6.86524964      1.77040791     -3.23863848
C       5.12718810      0.23883009     -2.46129090
H       4.71516871     -0.86514723     -2.11962265
C       8.22867744     11.00833427    -16.66598400
H       4.25445390     -0.19635914     -3.20991216
H       7.58267183     11.81646185    -17.12536292
H      -0.76573361     12.56233062     11.39457886
C      12.37236258     -6.91727408    -13.67196612
H     -19.08209833      4.89847244     -3.49980255
H     -19.26183987     -7.16389058     -1.12932559
C      -9.28371731      4.94498325    -10.50628356
H     -20.93491472      4.10625496     -4.66436254
C      -1.94367826     -5.04834880     12.20205695
H     -10.38368830      4.88342238    -10.24609444
H      -0.98042830     -6.13535185     10.48856695
H      -2.94355571     -4.67883769     12.69226523
C       4.46064700      1.15851964     -1.22388126
H      -2.76976059      3.10615981      3.26106597
C      -3.57059298      3.10427843      4.19635845
H       3.45724463      1.83687739     -1.12768314
H      -3.47039899      4.15847119      4.82464762
H      -3.32676129      2.15646562      4.94355409
H      -4.71543535      2.99579191      3.75627167
H      11.94286871     -5.83656254    -13.37952237
H      12.89498595     -7.08640518    -14.73788604
H      12.27923504     -7.82885963    -12.89849034
H       8.43375786      2.27194440     13.02237922
H       6.34182534      4.50175258     13.17704626
H      -1.19319147     -7.43784023     11.87393596
H       8.73114251      1.13984052     10.82500807
H      -8.70175858     -4.16265099     22.46335741
H       6.49275133      7.29917468     11.43487988
H      -2.36217308     13.40642229     23.46325986
H       8.87369886      5.88853389     13.47647658
H      10.02742330     -0.34059393     -4.95647166
H      -2.52279529     11.62998088     11.10045075
H      18.29922417      0.41144289     -4.76895663
H       1.40371748      1.60756520    -13.35565729
H      11.06736298     -9.15469639      4.76012441
H      28.85172728     -1.65660741      0.01860655
H       9.30499351      5.44210394     11.75133319
C      17.30373681     -4.04080861     16.91465273
C      -0.98895350     -6.24010655     11.71458595
C       7.47640866      2.56331621     12.30158371
C       7.36610976      4.22469176     12.57206715
C       7.60590616      1.59992175     10.92677515
C       7.59455539      7.03992777     11.85747109
C       8.28258738      5.62774654     12.41732481
C      -1.96786705     12.72594814     11.18428755
C      -1.84281842     14.37074314     23.07014250
C       9.68330475     -0.44547025     -3.77968710
C      18.32499884      0.91975573     -5.84565704
C      18.98559309      0.14184666     -6.99842822
C      28.75490229     -0.50646766     -0.12869983
C       8.15072442      0.01865788     -3.40107550
C      10.88473945     -8.25804413      5.55028691
H      10.69501177      0.08499414     -3.32551601
H      -6.26965722     -5.81270923     -4.06282278
H      16.35581370     -3.75922138     17.46561348
H      -8.57341199     -3.49038601     22.83750605
H       0.06101898     -6.06431255     12.33277471
H       7.16187033      1.19576442      8.57230777
H       6.55354336      2.01101519     12.90489633
H       8.00738308      8.17259514     11.74092149
H      -1.32346327     15.33506447     22.67702695
H       4.72528323      1.31476458     -0.05254683
H       9.88693790     -1.60928814     -3.45524278
H      -2.11972380     13.34454298     10.13053301
H      17.86895152      1.99472813     -6.07997246
H       1.34396958      2.38198622    -13.42708749
H      12.03516885     -8.13386291      5.89940563
H      28.69434188      0.65405128     -0.18721291
H      -2.46321750     13.36692672     12.11159180
   94

C      -8.27232026     -4.66081035     -4.47334470
C      -7.13653005     -5.18300080     -3.46363557
H      -9.10007512     -4.27831909     -5.21190543
C     -20.01225520      4.50176572     -4.07958521
H     -18.88251473     -7.18020188     -1.81062494
H      -6.59212052     -4.24465299     -2.88896546
C       9.92058975     -5.19295634      7.60333087
H      -7.60966825     -5.92256996     -2.60555439
H      -7.29860408     -5.75426939    -16.93048375
H      -7.29089226     -6.52366361    -16.80252646
C       6.71609242      0.91894065      9.68400121
H       5.53228204      1.12345887      9.41663622
C       9.55898161     -5.83786076      6.22506342
H       6.54360242     -0.30266644      9.78540945
H      10.11876063     -5.05635498      5.47526991
H       5.10852841     -5.44845534      7.84008853
C       9.50297404     -7.50565288      6.06353038
H       8.53786125     -7.87347694      5.38115614
C       6.59382290      0.57521354     -3.30962258
H       9.10339888     -8.09773335      7.07439952
H       6.42117818      0.44027223     -4.51904121
H       6.86837995      1.77110974     -3.23181349
C       5.12812982      0.23264926     -2.46319336
H       4.74686908     -0.87993695     -2.11037927
C       8.23040929     11.01082873    -16.66690946
H       4.24908478     -0.18725976     -3.21478466
H       7.58440447     11.81895674    -17.12628876
H      -0.76548374     12.56399732     11.39519065
C      12.37235977     -6.91727367    -13.67194846
H     -19.08603410      4.89848573     -3.49742343
H     -19.26183560     -7.16417569     -1.12925952
C      -9.28477402      4.94703117    -10.50807292
H     -20.93885084      4.10626511     -4.66198067
C      -1.55187423     -4.78767942     11.96077836
H     -10.38474476      4.88547129    -10.24788230
H      -1.02360574     -6.34722532     10.48903553
H      -2.56847867     -4.48927092     12.48092415
C       4.46546077      1.15468573     -1.22645183
H      -2.77475614      3.11820667      3.24894476
C      -3.57566662      3.11645391      4.18416512
H       3.46587945      1.83874776     -1.13411517
H      -3.47544234      4.17061603      4.81249257
H      -3.33186107      2.16862350      4.93133844
H      -4.72051911      3.00788528      3.74413566
H      11.94286667     -5.83656177    -13.37950480
H      12.89498221     -7.08640519    -14.73786879
H      12.27923247     -7.82885837    -12.89847160
H       8.43100272      2.26704749     13.03046663
H       6.33799071      4.49973891     13.16909174
H      -1.34351533     -7.44465411     11.97180311
H       8.74264401      1.15008449     10.82019640
H      -8.70133329     -4.16270629     22.46252244
H       6.49409549      7.29819525     11.43099918
H      -2.36216968     13.40657021     23.46400466
H       8.87296536      5.88433111     13.47419822
H      10.01613498     -0.34069639     -4.95297972
H      -2.52255678     11.63166199     11.10105775
H      18.30024287      0.41160556     -4.76978793
H       1.40532252      1.60439040    -13.36358161
H      11.06829554     -9.15487261      4.75166525
H      28.85214309     -1.65706868      0.01784091
H       9.30333611      5.43947769     11.74688525
C      17.30377014     -4.04083684     16.91462386
C      -0.98687852     -6.29520738     11.72144211
C       7.47893247      2.56076353     12.30345277
C       7.36558893      4.22240179     12.57002303
C       7.61454397      1.60262879     10.92574123
C       7.59501198      7.03818184     11.85547856
C       8.28204799      5.62521596     12.41459384
C      -1.96761641     12.72762219     11.18490220
C      -1.84281329     14.37088882     23.07088410
C       9.67591418     -0.44675520     -3.77521436
C      18.32601970      0.91991537     -5.84649250
C      18.98660100      0.14207467     -6.99931512
C      28.75690929     -0.50629233     -0.12554768
C       8.14464579      0.01683370     -3.39839225
C      10.89042061     -8.26476221      5.54962468
H      10.67962579      0.09261935     -3.31432726
H      -6.26965029     -5.81268099     -4.06292311
H      16.35586204     -3.75924115     17.46560609
H      -8.57307291     -3.49048822     22.83678489
H       0.05036461     -6.26134532     12.39033042
H       7.16546054      1.20029706      8.56856505
H       6.55528471      2.00698648     12.90421827
H       8.00842699      8.17086104     11.74119012
H      -1.32345638     15.33520774     22.67776502
H       4.73667892      1.31255968     -0.05685945
H       9.87609280     -1.61106640     -3.45025298
H      -2.11947546     13.34621440     10.13114672
H      17.86999668      1.99487621     -6.08090274
H       1.34557325      2.37881074    -13.43501795
H      12.04185888     -8.14055554      5.89555746
H      28.69473965      0.65394428     -0.18801182
H      -2.46296922     13.36859011     12.11221225
   94

C      -8.27231636     -4.66080016     -4.47345293
C      -7.13652505     -5.18299521     -3.46374857
H      -9.10016962     -4.27835588     -5.21192723
C     -20.01611159      4.50183262     -4.07726427
H     -18.88250921     -7.18047702     -1.81056051
H      -6.59205749     -4.24468409     -2.88907390
C       9.92106653     -5.17830611      7.59068902
H      -7.60979886     -5.92254617     -2.60572681
H      -7.29860350     -5.75427129    -16.93048618
H      -7.29089121     -6.52366545    -16.80252855
C       6.72405898      0.91956969      9.68237857
H       5.53963717      1.13023649      9.42251493
C       9.61109975     -5.84530302      6.21501618
H       6.55605844     -0.30322028      9.77739820
H      10.13597432     -5.04768551      5.46241573
H       4.45598374     -5.51036020      8.27796054
C       9.51365966     -7.50539296      6.05645765
H       8.53802179     -7.84683011      5.37623114
C       6.59108052      0.57736794     -3.31157695
H       9.09589876     -8.07878510      7.06984322
H       6.42091023      0.44587602     -4.52192660
H       6.87146026      1.77161874     -3.22503947
C       5.12901467      0.22619628     -2.46513807
H       4.77860268     -0.89413241     -2.10149964
C       8.23210141     11.01326624    -16.66781684
H       4.24376978     -0.17814242     -3.21963462
H       7.58609706     11.82139461    -17.12719616
H      -0.76524248     12.56557657     11.39580244
C      12.37235413     -6.91727715    -13.67192559
H     -19.08987265      4.89849500     -3.49509166
H     -19.26182797     -7.16445032     -1.12919392
C      -9.28580651      4.94903031    -10.50981875
H     -20.94268951      4.10627373     -4.65964828
C      -1.10740988     -4.70516435     11.69645277
H     -10.38577685      4.88747113    -10.24962610
H      -1.22052032     -6.50206895     10.52324506
H      -2.06116171     -4.20811692     12.18947608
C       4.47021249      1.15089894     -1.22922260
H      -2.77984644      3.13010715      3.23699662
C      -3.58082964      3.12847390      4.17214851
H       3.47445747      1.84060077     -1.14077105
H      -3.48057539      4.18258875      4.80054075
H      -3.33707308      2.18061386      4.91929034
H      -4.72570080      3.01979109      3.73220822
H      11.94286175     -5.83656473    -13.37948264
H      12.89497588     -7.08640908    -14.73784623
H      12.27922644     -7.82886035    -12.89844694
H       8.42821124      2.26138391     13.03709327
H       6.33443522      4.49672327     13.16028888
H      -1.43640392     -7.47929479     12.04070939
H       8.75356433      1.15832036     10.81508578
H      -8.70083871     -4.16267299     22.46155977
H       6.49548595      7.29665537     11.42702976
H      -2.36216597     13.40667480     23.46470544
H       8.87215761      5.87908594     13.47141083
H      10.00483590     -0.34079802     -4.94956397
H      -2.52232466     11.63324778     11.10166744
H      18.30124745      0.41175764     -4.77060033
H       1.40688860      1.60128724    -13.37132953
H      11.07222282     -9.15578597      4.74311730
H      28.85254835     -1.65750845      0.01708595
H       9.30168430      5.43606377     11.74185422
C      17.30375170     -4.04088914     16.91457735
C      -0.99893762     -6.36271213     11.73542566
C       7.48133182      2.55722741     12.30392938
C       7.36505243      4.21915895     12.56663724
C       7.62239134      1.60267060     10.92437545
C       7.59554324      7.03576408     11.85324694
C       8.28150716      5.62182834     12.41126929
C      -1.96737553     12.72920284     11.18551808
C      -1.84280947     14.37099463     23.07158790
C       9.66862468     -0.44801935     -3.77079204
C      18.32702799      0.92006513     -5.84730878
C      18.98759368      0.14229299     -7.00018464
C      28.75887651     -0.50612086     -0.12246053
C       8.13863747      0.01500751     -3.39573438
C      10.89719723     -8.27310663      5.54946049
H      10.66423981      0.10018978     -3.30327016
H      -6.26959090     -5.81266406     -4.06296887
H      16.35584700     -3.75929246     17.46556484
H      -8.57263213     -3.49049225     22.83590751
H      -0.06278899     -6.39563640     12.54940637
H       7.16854022      1.20177085      8.56518521
H       6.55704798      2.00224379     12.90266817
H       8.00953313      8.16847873     11.74144694
H      -1.32345218     15.33531407     22.67847046
H       4.74798693      1.31036903     -0.06139627
H       9.86528513     -1.61284185     -3.44535083
H      -2.11924017     13.34779523     10.13176367
H      17.87103148      1.99501521     -6.08181473
H       1.34713823      2.37570696    -13.44277167
H      12.04968939     -8.14711844      5.89158526
H      28.69512904      0.65382593     -0.18879719
H      -2.46273237     13.37015712     12.11283521
   94

C      -8.27224724     -4.66079693     -4.47347067
C      -7.13645681     -5.18299120     -3.46376390
H      -9.10019641     -4.27841013     -5.21186769
C     -20.02004205      4.50189913     -4.07488604
H     -18.88249993     -7.18075876     -1.81050279
H      -6.59193086     -4.24471873     -2.88908116
C       9.92890429     -5.16948362      7.57730435
H      -7.60986102     -5.92252458     -2.60579881
H      -7.29860184     -5.75427376    -16.93048051
H      -7.29088880     -6.52366777    -16.80252209
C       6.72971531      0.91699722      9.68193107
H       5.54486329      1.13445548      9.42952158
C       9.66456160     -5.85847403      6.20698655
H       6.56513585     -0.30673851      9.77148189
H      10.14555944     -5.04290906      5.44931492
H       3.83365037     -5.51342801      8.69537238
C       9.53061162     -7.51048887      6.04857604
H       8.54722781     -7.82954103      5.36940012
C       6.58829955      0.57955575     -3.31354771
H       9.09909413     -8.06973272      7.06331287
H       6.42061747      0.45153875     -4.52482164
H       6.87448468      1.77207563     -3.21827232
C       5.12987302      0.21949119     -2.46712972
H       4.81055009     -0.90776301     -2.09294306
C       8.23383012     11.01575810    -16.66874386
H       4.23854720     -0.16907075     -3.22441815
H       7.58782611     11.82388686    -17.12812298
H      -0.76499863     12.56689336     11.39644758
C      12.37235086     -6.91728083    -13.67191676
H     -19.09378428      4.89850052     -3.49270182
H     -19.26181970     -7.16473185     -1.12913676
C      -9.28685509      4.95106648    -10.51158451
H     -20.94660237      4.10628220     -4.65725867
C      -0.62857336     -4.78951835     11.41754857
H     -10.38682505      4.88950818    -10.25138987
H      -1.67266695     -6.46992338     10.68895934
H      -1.44729950     -4.02947521     11.82873551
C       4.47494690      1.14705466     -1.23210302
H      -2.78487592      3.14136002      3.22588095
C      -3.58588330      3.13975910      4.16100895
H       3.48313356      1.84249112     -1.14758741
H      -3.48561224      4.19383053      4.78946649
H      -3.34220872      2.19187959      4.90814684
H      -4.73076884      3.03101077      3.72112832
H      11.94285954     -5.83656783    -13.37947434
H      12.89497244     -7.08641298    -14.73783748
H      12.27922213     -7.82886316    -12.89843716
H       8.42487812      2.25493575     13.04287198
H       6.33049425      4.49300860     13.15097696
H      -1.23211034     -7.62450140     11.94505747
H       8.76276162      1.16501782     10.80959864
H      -8.70075174     -4.16253071     22.46128175
H       6.49667233      7.29451214     11.42289887
H      -2.36215722     13.40671184     23.46536900
H       8.87099121      5.87283025     13.46824810
H       9.99352087     -0.34086751     -4.94614340
H      -2.52207824     11.63455474     11.10231581
H      18.30228636      0.41192682     -4.77145013
H       1.40848753      1.59811509    -13.37923891
H      11.08455892     -9.15877376      4.73181839
H      28.85297884     -1.65793777      0.01630374
H       9.29960158      5.43167571     11.73639628
C      17.30372202     -4.04094048     16.91454453
C      -1.02008441     -6.40820842     11.75469113
C       7.48293697      2.55282174     12.30391752
C       7.36399054      4.21509264     12.56259675
C       7.62851865      1.60086159     10.92309316
C       7.59585073      7.03261372     11.85081630
C       8.28058529      5.61755566     12.40755398
C      -1.96713354     12.73051219     11.18616696
C      -1.84280276     14.37103691     23.07226142
C       9.66135163     -0.44922610     -3.76636326
C      18.32806752      0.92023092     -5.84816301
C      18.98861861      0.14252773     -7.00109175
C      28.76090480     -0.50593874     -0.11930520
C       8.13258946      0.01322862     -3.39320318
C      10.91181373     -8.28206922      5.54472176
H      10.64871969      0.10776709     -3.29221272
H      -6.26946421     -5.81264992     -4.06291058
H      16.35580991     -3.75934875     17.46552178
H      -8.57249785     -3.49034147     22.83559775
H      -0.41255021     -6.34573178     12.84796417
H       7.16918871      1.19973247      8.56285447
H       6.55822980      1.99695665     12.90129098
H       8.01047180      8.16535530     11.74169005
H      -1.32344726     15.33536086     22.67915248
H       4.75938293      1.30822281     -0.06611778
H       9.85441906     -1.61457113     -3.44045636
H      -2.11900451     13.34911268     10.13241805
H      17.87209411      1.99516903     -6.08276343
H       1.34873591      2.37253410    -13.45068769
H      12.06472272     -8.15450927      5.88503268
H      28.69554124      0.65369668     -0.18960667
H      -2.46249312     13.37145873     12.11348816
   94

C      -8.27210131     -4.66078976     -4.47335245
C      -7.13631668     -5.18297602     -3.46363002
H      -9.10013766     -4.27848045     -5.21169395
C     -20.02400007      4.50196547     -4.07248750
H     -18.88247206     -7.18104759     -1.81044259
H      -6.59172685     -4.24475005     -2.88893044
C       9.94187789     -5.16380370      7.56249641
H      -7.60984116     -5.92249423     -2.60571725
H      -7.29859964     -5.75427503    -16.93046585
H      -7.29088596     -6.52366893    -16.80250671
C       6.72915033      0.91196456      9.68409205
H       5.54386498      1.13638228      9.43947995
C       9.72129329     -5.87406275      6.19879833
H       6.56663438     -0.31237732      9.77027764
H      10.15218086     -5.04005647      5.43564578
H       3.29402399     -5.50357252      9.05667806
C       9.55414349     -7.51769103      6.03832703
H       8.56481581     -7.81708985      5.35959340
C       6.58542654      0.58175183     -3.31536475
H       9.11273479     -8.06669600      7.05362532
H       6.42024309      0.45722166     -4.52755722
H       6.87737978      1.77246333     -3.21136258
C       5.13061993      0.21258782     -2.46900159
H       4.84257860     -0.92078393     -2.08459004
C       8.23557168     11.01827025    -16.66967151
H       4.23332871     -0.15990748     -3.22900438
H       7.58956829     11.82639938    -17.12905083
H      -0.76471546     12.56794490     11.39708494
C      12.37235234     -6.91727999    -13.67192854
H     -19.09772247      4.89850445     -3.49029222
H     -19.26179536     -7.16502126     -1.12907852
C      -9.28789963      4.95311161    -10.51333853
H     -20.95054329      4.10629053     -4.65484803
C      -0.32136037     -4.97215072     11.24527336
H     -10.38786973      4.89155470    -10.25314403
H      -1.90027445     -6.37559028     10.87930954
H      -1.00052796     -4.04353935     11.56691853
C       4.47959210      1.14316287     -1.23487128
H      -2.78916798      3.15113571      3.21620464
C      -3.59013670      3.14945640      4.15137026
H       3.49175729      1.84431122     -1.15428805
H      -3.48988531      4.20355093      4.77979939
H      -3.34647277      2.20159335      4.89854020
H      -4.73501280      3.04079602      3.71143384
H      11.94286201     -5.83656674    -13.37948561
H      12.89497414     -7.08641201    -14.73784916
H      12.27922295     -7.82886311    -12.89844997
H       8.41948930      2.24713455     13.04839050
H       6.32517182      4.48853186     13.14157063
H      -1.10780918     -7.60893452     11.87804847
H       8.76790872      1.17020583     10.80363588
H      -8.70111258     -4.16239728     22.46181119
H       6.49725689      7.29150028     11.41869288
H      -2.36213575     13.40673771     23.46602312
H       8.86888270      5.86523979     13.46489916
H       9.98212176     -0.34084920     -4.94270035
H      -2.52178587     11.63560342     11.10295756
H      18.30333891      0.41211664     -4.77231632
H       1.41009763      1.59491488    -13.38719901
H      11.10389865     -9.16342364      4.71794835
H      28.85342517     -1.65834870      0.01550667
H       9.29634617      5.42572962     11.73076686
C      17.30367385     -4.04095359     16.91453226
C      -1.02532442     -6.38016055     11.76346344
C       7.48207753      2.54718640     12.30430446
C       7.36148003      4.20993472     12.55854341
C       7.63076815      1.59747073     10.92232371
C       7.59550678      7.02841144     11.84831825
C       8.27857837      5.61197815     12.40372296
C      -1.96685089     12.73156648     11.18680675
C      -1.84278258     14.37106568     23.07292107
C       9.65405744     -0.45032627     -3.76190163
C      18.32911746      0.92041585     -5.84903437
C      18.98965595      0.14278273     -7.00201561
C      28.76296376     -0.50574629     -0.11611988
C       8.12647540      0.01152622     -3.39067815
C      10.93355607     -8.29104757      5.53554090
H      10.63304879      0.11538560     -3.28115607
H      -6.26926681     -5.81262506     -4.06270543
H      16.35574246     -3.75936979     17.46548060
H      -8.57276909     -3.49017370     22.83603470
H      -0.67219373     -6.25721438     12.95102709
H       7.16331029      1.19405537      8.56273997
H       6.55711881      1.99078476     12.90093250
H       8.01092207      8.16112416     11.74193945
H      -1.32342870     15.33539287     22.67981804
H       4.77069907      1.30599006     -0.07075789
H       9.84347471     -1.61621146     -3.43557371
H      -2.11872339     13.35017889     10.13306460
H      17.87316194      1.99534030     -6.08372671
H       1.35034485      2.36933322    -13.45865407
H      12.08628276     -8.16266995      5.87605166
H      28.69596525      0.65355979     -0.19042677
H      -2.46220757     13.37252132     12.11412427
   94

C      -8.27192266     -4.66077647     -4.47317755
C      -7.13614508     -5.18295237     -3.46343663
H      -9.10004259     -4.27855614     -5.21147355
C     -20.02794553      4.50203060     -4.07009667
H     -18.88243113     -7.18133732     -1.81037247
H      -6.59149031     -4.24477527     -2.88871724
C       9.95370453     -5.15954561      7.54770248
H      -7.60979066     -5.92245662     -2.60557757
H      -7.29859643     -5.75427523    -16.93044725
H      -7.29088223     -6.52366903    -16.80248758
C       6.72408258      0.90576285      9.68814121
H       5.53840616      1.13734868      9.45157694
C       9.77728954     -5.88957905      6.19097981
H       6.56245936     -0.31894580      9.77238673
H      10.15567763     -5.03834977      5.42318276
H       2.74139530     -5.49823653      9.42079683
C       9.57880187     -7.52481158      6.02775339
H       8.58418582     -7.80562778      5.34951154
C       6.58246200      0.58385472     -3.31691222
H       9.12901748     -8.06501297      7.04335421
H       6.41979732      0.46278798     -4.53001678
H       6.88013370      1.77268973     -3.20423973
C       5.13125446      0.20539647     -2.47063958
H       4.87463349     -0.93327252     -2.07630383
C       8.23730696     11.02077193    -16.67058943
H       4.22811453     -0.15069430     -3.23329259
H       7.59130466     11.82890146    -17.12996961
H      -0.76441207     12.56897848     11.39770250
C      12.37235183     -6.91727478    -13.67193510
H     -19.10164791      4.89850739     -3.48789080
H     -19.26175724     -7.16531185     -1.12900994
C      -9.28893496      4.95514735    -10.51507770
H     -20.95447187      4.10629780     -4.65244482
C      -0.11331610     -5.10143306     11.13488961
H     -10.38890553      4.89359216    -10.25488475
H      -1.90555818     -6.28831135     10.91030222
H      -0.73728014     -4.12072196     11.41972401
C       4.48416731      1.13917441     -1.23743286
H      -2.79299425      3.16030567      3.20694451
C      -3.59391889      3.15853976      4.14215448
H       3.50033604      1.84599664     -1.16079855
H      -3.49370815      4.21268797      4.77051017
H      -3.35019293      2.21070531      4.88935117
H      -4.73877968      3.05000238      3.70213492
H      11.94286237     -5.83656165    -13.37949040
H      12.89497357     -7.08640648    -14.73785581
H      12.27922206     -7.82885901    -12.89845786
H       8.41278672      2.23856258     13.05390472
H       6.31911140      4.48380392     13.13234189
H      -1.15477070     -7.55246860     11.90642463
H       8.77014078      1.17451347     10.79742502
H      -8.70136349     -4.16237141     22.46221470
H       6.49755608      7.28810921     11.41450469
H      -2.36211114     13.40678526     23.46668964
H       8.86628825      5.85704123     13.46153432
H       9.97061680     -0.34081393     -4.93914920
H      -2.52147816     11.63664680     11.10357783
H      18.30436307      0.41230337     -4.77315847
H       1.41170471      1.59172165    -13.39511888
H      11.12465609     -9.16803567      4.70368420
H      28.85386063     -1.65874333      0.01471219
H       9.29240980      5.41893570     11.72514779
C      17.30356300     -4.04094695     16.91449362
C      -0.99522311     -6.34224907     11.75154214
C       7.47964842      2.54093321     12.30514912
C       7.35817425      4.20425316     12.55475076
C       7.63033570      1.59335463     10.92195152
C       7.59484302      7.02371633     11.84584887
C       8.27596564      5.60576166     12.39994952
C      -1.96654665     12.73261215     11.18742626
C      -1.84275792     14.37111339     23.07358826
C       9.64674062     -0.45138965     -3.75731614
C      18.33014258      0.92059786     -5.84988160
C      18.99067243      0.14303870     -7.00291593
C      28.76500929     -0.50555281     -0.11293707
C       8.12030555      0.00982434     -3.38801473
C      10.95668567     -8.29932641      5.52521843
H      10.61723750      0.12297104     -3.27002945
H      -6.26903801     -5.81259161     -4.06244126
H      16.35560516     -3.75937283     17.46540156
H      -8.57298335     -3.49012970     22.83639313
H      -0.69533619     -6.17801166     12.94542439
H       7.15271652      1.18634987      8.56424807
H       6.55454114      1.98421593     12.90141814
H       8.01115748      8.15635689     11.74220171
H      -1.32340452     15.33544150     22.68048704
H       4.78189078      1.30355098     -0.07519619
H       9.83244569     -1.61783014     -3.43060044
H      -2.11841735     13.35123354     10.13368870
H      17.87420378      1.99550826     -6.08466554
H       1.35195077      2.36613929    -13.46658046
H      12.10906538     -8.17053735      5.86661551
H      28.69637872      0.65341021     -0.19124119
H      -2.46189830     13.37357979     12.11473806
   94

C      -8.27171766     -4.66080033     -4.47280797
C      -7.13591492     -5.18294393     -3.46307177
H      -9.09990276     -4.27868442     -5.21108767
C     -20.03192299      4.50210902     -4.06767124
H     -18.88235654     -7.18163149     -1.81025971
H      -6.59113980     -4.24485405     -2.88832167
C       9.95766410     -5.15528250      7.52825580
H      -7.60977633     -5.92243459     -2.60531870
H      -7.29857073     -5.75426489    -16.93041859
H      -7.29085954     -6.52365889    -16.80245992
C       6.71160943      0.89664322      9.69733629
H       5.52585323      1.14313631      9.47538970
C       9.85079904     -5.91424471      6.18371857
H       6.54996032     -0.32832354      9.78049907
H      10.14468467     -5.03872002      5.41321203
H       1.35118363     -5.34021312     10.28853965
C       9.60371399     -7.53520840      6.01707622
H       8.60023042     -7.78460307      5.34076243
C       6.57783088      0.58553104     -3.31817799
H       9.14143891     -8.06044814      7.03359410
H       6.42070865      0.46892254     -4.53300975
H       6.88584082      1.77098806     -3.19065600
C       5.13145564      0.19163588     -2.47408151
H       4.93502168     -0.95488002     -2.06142037
C       8.23905064     11.02330486    -16.67152817
H       4.21710852     -0.12821836     -3.24304067
H       7.59304395     11.83143188    -17.13090652
H      -0.76413051     12.56987615     11.39832777
C      12.37234461     -6.91729667    -13.67192055
H     -19.10561058      4.89852111     -3.48544450
H     -19.26168231     -7.16560380     -1.12889706
C      -9.28997474      4.95725589    -10.51680901
H     -20.95842634      4.10631831     -4.65001690
C       0.30635149     -5.36668291     10.91368065
H     -10.38994745      4.89569486    -10.25662773
H      -1.71721186     -6.15378036     10.81056434
H      -0.26027850     -4.33563314     11.16025684
C       4.49271560      1.13454841     -1.24420118
H      -2.79692204      3.16871784      3.19825604
C      -3.59770364      3.16674236      4.13359873
H       3.51377742      1.84816589     -1.17418258
H      -3.49758627      4.22097217      4.76184791
H      -3.35374313      2.21893421      4.88076941
H      -4.74256305      3.05834521      3.69352145
H      11.94284700     -5.83658463    -13.37948360
H      12.89496904     -7.08642857    -14.73783995
H      12.27921780     -7.82887681    -12.89843808
H       8.39924386      2.22371719     13.06459421
H       6.30906913      4.47639182     13.11792596
H      -1.24453384     -7.40914936     11.95072844
H       8.77207387      1.18167571     10.78750353
H      -8.70101793     -4.16259184     22.46177845
H       6.49757030      7.28310791     11.40937360
H      -2.36209394     13.40680546     23.46734672
H       8.86183967      5.84301292     13.45616118
H       9.94743794     -0.34013163     -4.93447128
H      -2.52118001     11.63753237     11.10421671
H      18.30568301      0.41246342     -4.77391817
H       1.41325020      1.58854504    -13.40338993
H      11.14496595     -9.17364569      4.68845766
H      28.85420666     -1.65918417      0.01393728
H       9.28533858      5.40755294     11.71535994
C      17.30322965     -4.04092092     16.91429424
C      -0.82247772     -6.29754474     11.65637623
C       7.47436415      2.53098610     12.30710880
C       7.35184264      4.19536003     12.54782487
C       7.62848625      1.58809656     10.92127789
C       7.59373312      7.01623242     11.84220909
C       8.27153385      5.59555169     12.39378464
C      -1.96626515     12.73350818     11.18804723
C      -1.84274284     14.37113551     23.07424721
C       9.63395956     -0.45306382     -3.75004454
C      18.33146695      0.92074888     -5.85065193
C      18.99187761      0.14329233     -7.00382183
C      28.76704399     -0.50538083     -0.10968058
C       8.11033362      0.00620967     -3.38053315
C      10.98052161     -8.30907713      5.51424674
H      10.58826270      0.13788717     -3.25140848
H      -6.26870157     -5.81254280     -4.06196759
H      16.35524265     -3.75935048     17.46515407
H      -8.57271924     -3.49036836     22.83601772
H      -0.52521946     -6.05707106     12.83696918
H       7.13074297      1.17141105      8.56839289
H       6.54904067      1.97371711     12.90289087
H       8.01162451      8.14867465     11.74279910
H      -1.32339175     15.33546555     22.68114770
H       4.80080797      1.29846419     -0.08452775
H       9.81252507     -1.62083745     -3.42341770
H      -2.11813419     13.35212050     10.13430360
H      17.87561277      1.99565221     -6.08562470
H       1.35350445      2.36296685    -13.47481336
H      12.13172419     -8.17892636      5.85891169
H      28.69671416      0.65324368     -0.19204449
H      -2.46161589     13.37450371     12.11534082
