   94
energy=      0.00000000
C       7.15113389     -6.80981590     -7.68321012
C       5.69986544     -7.62753806     -7.25187278
H       7.41447774     -5.98278091     -6.79084594
C       3.64995237     -0.96993659      4.77526728
H     -18.89185999     -7.18329685     -1.80818867
H       4.69294211     -7.02400525     -6.85239711
C       4.56169869     -1.39390129      6.24955752
H       5.73536191     -8.45021441     -6.32414710
H      -7.81523282     -6.27941550    -16.91792814
H      -7.80752163     -7.04880949    -16.78996947
C       9.10254300      1.65518347      7.01101370
H       9.88439278      1.06831139      7.76815311
C       5.63370723     -2.70334091      5.95593779
H       6.88617774      5.12347087     -5.27414105
H       5.88089299     -2.18870209      4.87819622
H      -0.14327263     -7.37313961     12.68688568
C       5.87835811     -4.05412630      6.87816823
H       5.03472494     -4.64954077      7.54517126
C       5.62229200      7.15849104     -4.15548899
H       6.41810616     -4.80429233      7.70024235
H       6.34603525      8.01843481     -4.68165876
H       4.65406923      7.69396572     -4.71293265
C       5.89768617      5.79592306     -5.08273076
H      10.49334511      4.38942486    -14.13512651
C       9.84068150      4.03841648    -13.28124111
H       9.38417703      2.04724055      4.42747930
H       5.19874521      5.15978571     -5.83886520
H      -3.00408555     13.84794160     10.96389429
C       8.54674417     -7.64838348     -8.25337763
H       2.66530179     -0.31472054      5.02461678
H     -19.27118577     -7.16726916     -1.12682601
C      -1.26400008     -8.37246212      0.62488775
H       3.43062634     -1.70097943      6.61631960
C      -1.16836746     -7.12814256     13.27901552
H      -2.07500289     -8.84335915      1.31388387
H      -3.40368435     -8.07766679     13.53437257
H      -1.16509017     -5.92173203     13.19495763
C      -3.94925518      0.01934142     -7.52171157
H       6.11482608      8.24452379     -2.10400891
C       4.11218982      7.11638238     -1.55959177
H      -4.45343848      0.92590953     -8.04908116
H       4.01257290      7.72310338     -0.48166004
H       3.59582134      6.03924329     -1.23498602
H       3.04079684      7.55595122     -1.99332697
H       8.81912888     -7.48130875     -9.45304286
H       8.44159924     -8.84813053     -8.54613840
H      10.44546404     -8.26688892     -6.53545374
H       5.51840398      1.67089852      8.48518375
H       4.23385607     -0.64971358      8.39720817
H      -2.03574256     -9.35619948     13.92869563
H       6.93752143      1.35975708      5.99939352
H      -8.74526114     -4.13751913     22.51988062
H       4.78428295     13.78760266     17.27630823
H       3.36254627     13.38959210     20.35787782
H       5.98768672     -1.95047512     10.13322582
H      17.43837817      4.39965506      0.15020649
H      -4.76113507     12.91559780     10.66978309
H      18.12855175      4.54803080      0.48193601
H       3.54208825     -1.06253595      1.94766015
H       7.13925824     -4.43606076      4.79671384
H       6.90967322     -5.83052135     -8.41556078
H       7.28626145     -1.88130439      9.28282874
C       3.17566264     -0.98371688      3.10211555
C      -2.26250977     -8.14629541     13.99853115
C       6.20629542      0.73606063      8.05707404
C       5.29365371     -0.72282495      7.76292076
C       7.47934414      1.21162219      7.06724773
C       5.07606484     14.28538407     18.35991884
C       6.14974012     -1.53532282      8.99995603
C      -4.20622018     14.01157358     10.75361368
C       4.08903074     13.76496062     19.51628223
C       6.72568416      6.11473513     -1.73084853
C      11.11967744      1.14740463      4.94506477
C       9.76851290      1.65748944      5.49807926
C       9.96758282     -7.54295653     -7.38043743
C       5.60357869      7.15267631     -2.42580663
C       6.91388162     -3.66663211      5.73650332
H       7.82738815      6.27328177     -1.25397055
H       5.08542575     -8.27716225     -8.11137581
H       1.98521200     -1.22353935      2.82219479
H      -8.61696244     -3.46529564     22.89411990
H      -2.38564133     -7.98143119     15.21515116
H       9.33348314      2.74901572      7.54111918
H       6.68338476      1.10314885      9.14471263
H       6.24439817     13.99264497     18.59745192
H       5.01352964     15.50655861     18.25060747
H      -3.44510373     -0.88724676     -6.99434604
H       6.73660402      4.92457069     -1.50536853
H      -4.35808925     14.63018583      9.69987001
H      -0.45299820     -7.90156499     -0.06410938
H       3.49547629     -0.53666396      2.01791454
H       8.10616644     -3.33648151      5.83880375
H      10.84476791     -6.70695684     -7.38378879
H      -4.70157084     14.65256910     11.68090732
   94
energy=      0.00000000
C       7.15099550     -6.80867511     -7.68443985
C       5.70187569     -7.62888029     -7.25072780
H       7.41444159     -5.97962120     -6.79395641
C       3.67191695     -0.89719290      4.92932365
H     -18.89185999     -7.18329685     -1.80818867
H       4.69514483     -7.02739837     -6.84776734
C       4.59217439     -1.44943010      6.31740075
H       5.74044509     -8.45268236     -6.32414275
H      -7.81523282     -6.27941550    -16.91792814
H      -7.80752163     -7.04880949    -16.78996947
C       9.05113567      1.65317699      6.96437754
H       9.77397372      1.01521206      7.73663048
C       5.67809289     -2.71991452      5.90249764
H       6.59256683      5.39591947     -4.73519370
H       5.93659914     -2.21461225      4.81932406
H      -0.14327518     -7.37313991     12.68688144
C       5.85026068     -4.11135328      6.76323140
H       4.92295080     -4.73032019      7.27911618
C       5.56106703      7.61600599     -4.97175722
H       6.32325814     -4.84829217      7.63381113
H       6.45595518      8.41384492     -5.16250745
H       4.47216212      8.08086362     -5.23377264
C       5.75796949      6.16199097     -4.21621998
H      10.49632071      4.38785729    -14.14197872
C       9.84365710      4.03684891    -13.28809332
H       9.47375729      2.09037261      4.40435473
H       5.24906483      5.31065983     -4.96390993
H      -3.00408555     13.84794160     10.96389429
C       8.54666323     -7.64651288     -8.25541806
H       2.82719350     -0.07294994      5.22772829
H     -19.27118577     -7.16726916     -1.12682601
C      -1.26400034     -8.37246218      0.62488750
H       3.50780464     -1.92591455      6.67153416
C      -1.16836749     -7.12814256     13.27901554
H      -2.07500282     -8.84335917      1.31388403
H      -3.40368365     -8.07766823     13.53437059
H      -1.16508772     -5.92173176     13.19496167
C      -3.94926243      0.01933685     -7.52171249
H       6.10009011      7.78194008     -2.34247746
C       4.15967631      6.92176517     -1.68412719
H      -4.45343486      0.92591181     -8.04908070
H       4.10531723      7.61485242     -0.65324002
H       3.55723437      5.92194035     -1.28850894
H       3.13924628      7.50562930     -2.07684464
H       8.81987472     -7.47626982     -9.45441920
H       8.44279426     -8.84527450     -8.55277164
H      10.43130328     -8.26147524     -6.52149164
H       5.43685849      1.77331220      8.27106389
H       4.20545150     -0.53907133      8.39988878
H      -2.03574099     -9.35619933     13.92869823
H       6.90108476      1.42962906      5.89919933
H      -8.74526115     -4.13751912     22.51988064
H       4.78406590     13.78957283     17.27527384
H       3.36453856     13.38800347     20.35887501
H       5.83788897     -1.97211590     10.12257797
H      17.43837817      4.39965506      0.15020648
H      -4.76113507     12.91559780     10.66978309
H      18.12855175      4.54803080      0.48193601
H       3.71741524     -1.44045817      2.21745392
H       7.21481980     -4.49757072      4.75572854
H       6.90724326     -5.82993066     -8.41672403
H       7.23388259     -1.88280725      9.25933725
C       3.25835115     -0.98771423      3.26016284
C      -2.26250979     -8.14629542     13.99853119
C       6.14860612      0.80045207      7.98796190
C       5.27272722     -0.69227636      7.78853651
C       7.41593436      1.25609762      6.98038660
C       5.07558290     14.28578061     18.35967589
C       6.09201165     -1.53377038      9.01676359
C      -4.20622018     14.01157358     10.75361368
C       4.08859977     13.76537313     19.51608868
C       6.83460478      5.87891032     -1.69865833
C      11.14537852      1.10670518      4.99538594
C       9.78603335      1.66130837      5.48331816
C       9.96542561     -7.54424521     -7.37883554
C       5.63095463      6.64957574     -2.55220701
C       6.93962954     -3.71548719      5.67445021
H       7.89188868      6.24858273     -1.23119932
H       5.08653194     -8.27801868     -8.10995690
H       2.08584684     -1.33587693      3.03478475
H      -8.61696245     -3.46529564     22.89411991
H      -2.38564357     -7.98142993     15.21515079
H       9.30273505      2.73129066      7.51688431
H       6.57897643      1.18398273      9.08935064
H       6.24267660     13.99125273     18.60107528
H       5.01438888     15.50676025     18.24745781
H      -3.44510011     -0.88724448     -6.99434558
H       6.84920517      4.72090323     -1.36505620
H      -4.35808925     14.63018583      9.69987001
H      -0.45299817     -7.90156529     -0.06410945
H       3.57318522     -0.20938612      2.36271446
H       8.13562725     -3.40941360      5.79476305
H      10.85142812     -6.71767884     -7.39099733
H      -4.70157084     14.65256910     11.68090732
