   94
energy=      0.00000000
C       6.88063853     -7.05365943     -7.46560791
C       5.23138986     -7.39852908     -7.05743758
H       7.16432281     -6.43568354     -6.42329732
C     -10.16968116     -0.97812121      5.78662609
H     -18.89185999     -7.18329685     -1.80818867
H       4.49003798     -6.43091152     -6.78677309
C       9.97073992     -1.78066506      8.25928607
H       4.92246220     -8.16333820     -6.13145740
H      -7.45354005     -5.90431306    -16.97368978
H      -7.44582886     -6.67370706    -16.84573111
C       9.78027164      1.63843228      6.05917425
H      10.60934702      2.37299673      6.60052329
C       9.36866089     -2.69832379      7.02035018
H      10.86172278     -0.09058241      4.50641500
H      10.35959962     -3.34720662      7.23691003
H       0.32150499     -6.93137036     11.13961580
C       8.18766080     -3.13500157      5.82730885
H       7.30584844     -3.45183144      6.63009540
C       4.66763997      4.46702933     -3.73412969
H       8.78402120     -4.17718344      5.58544276
H       5.70213989      4.84534472     -4.30991685
H       4.12527092      5.52044672     -4.12217976
C       4.48346021      2.87418408     -6.20197147
H       5.09350514      4.12557278     -8.34788138
C       4.26139952      3.72094880     -7.57734568
H       5.17629218      1.90610633     -6.46097031
H       3.22961204      4.12596706     -8.04631998
H      -1.67522236     13.86417483     12.14530767
C       8.52435126     -7.43352847     -7.87627815
H     -10.56103991      0.14113743      5.63681892
H     -19.27118577     -7.16726916     -1.12682601
C       6.08980567     -2.11611294      3.41015217
H     -10.83134575     -1.85898474      5.32335166
C      -0.70363004     -6.68637719     11.73167768
H       4.94001063     -1.96175442      3.08176474
H      -2.93895700     -7.63588011     11.98707011
H      -0.70039288     -5.47997139     11.64755050
C       3.95287465      3.18179555     -4.64123255
H       5.61013137      5.54783913     -1.81312251
C       3.62170185      4.62301110     -0.92644720
H       2.71314149      3.14080475     -4.65957345
H       3.61593665      5.51388220     -0.06440712
H       3.28448645      3.66926224     -0.21342278
H       2.45089334      4.82823594     -1.26500075
H       8.81708694     -6.63530271     -8.78265140
H       8.50389924     -8.64463711     -8.15301632
H      10.88345432     -8.18759356     -6.83451068
H       8.03952776     -0.25831348      9.46036078
H      11.56814518     -0.70388249      9.08202718
H      -1.57102641     -8.91443516     12.38132549
H       8.00030433      0.25964865      6.68847808
H      -8.70101793     -4.16259184     22.46177845
H       8.20294144     13.22024184     11.17403155
H      -2.34916350     13.47718722     24.28698232
H      10.79906173     -0.06815473     11.93531502
H      10.41723170      1.98516296      2.29934328
H      -3.43227189     12.93183102     11.85119647
H      12.12684044      2.27806671      3.12997559
H       1.04808503      1.58576540    -14.88371638
H       6.92917388     -3.92344541      3.85720095
H       6.55204912     -6.76691427     -8.62851920
H      11.28156030      1.29200715     11.05856057
C      -8.83793724     -1.27961619      6.56198183
C      -1.79777092     -7.70452892     12.45119708
C       8.96184011      0.31907213      8.85411225
C      10.36606196     -0.52373240      9.28904584
C       8.96238610      0.76280325      7.23077494
C       9.13832464     13.77367503     11.58991039
C      10.84363711      0.19325461     10.74972864
C      -2.87735699     14.02780680     11.93502706
C      -1.82981241     14.44151727     23.89388281
C       6.09594578      3.41006219     -1.45434753
C      11.03695601      1.79960080      3.31650332
C      10.53899837      1.06450483      4.68272440
C      10.10143740     -7.38068069     -7.28853879
C       4.95245377      4.50602248     -2.01902746
C       7.35511322     -2.84771666      4.28634538
H       7.11541533      3.52366261     -0.80987912
H       4.43275796     -7.97142447     -7.81876812
H      -7.84953394     -1.50338191      7.13744095
H      -8.57271924     -3.49036836     22.83601772
H      -1.92086828     -7.53968177     13.66782299
H       8.91632529      2.44408441      5.70894621
H       8.41730886      1.28205978      9.40561969
H      10.07370782     14.32710824     12.00578923
H      -1.31046131     15.40584731     23.50078330
H       3.84070758      2.07710940     -4.09742350
H       6.21397147      2.20630643     -1.48875274
H      -3.02922606     14.64641905     10.88128340
H       5.71214987     -1.56096251      2.40523202
H       0.98833870      2.36018705    -14.95514105
H       8.20127889     -2.52383979      3.45078272
H      10.97545856     -6.53844144     -7.24226848
H      -3.37270765     14.66880232     12.86232070
   94
energy=      0.00000000
C       6.91156870     -6.92986716     -7.48565443
C       5.31870701     -7.44442858     -7.04569154
H       7.20745177     -6.23873589     -6.49463109
C     -10.16968116     -0.97812121      5.78662609
H     -18.89185999     -7.18329685     -1.80818867
H       4.47974101     -6.57494279     -6.73502343
C       9.19925482     -1.63211787      7.68280342
H       5.12802964     -8.23214186     -6.10773588
H      -7.46506857     -5.91556660    -16.97636143
H      -7.45735738     -6.68496059    -16.84840276
C       9.80616287      1.87625609      6.07731940
H      10.70096520      2.48039857      6.66879444
C       8.44200772     -2.25265269      6.30208826
H      11.00228081      0.07113908      4.65156544
H       9.64509258     -2.35840822      6.20091967
H       0.32150055     -6.93137088     11.13960832
C       8.08263934     -3.82057572      5.75272305
H       7.20803283     -4.19948891      6.55323033
C       4.65812433      4.49463921     -3.77389292
H       8.75746789     -4.82278901      6.00634614
H       5.70440139      4.85268027     -4.34156056
H       4.13621761      5.55537156     -4.16919665
C       4.45379352      2.90005742     -6.24978309
H       5.07072912      4.17680726     -8.37703156
C       4.23349025      3.73402437     -7.63312487
H       5.13431979      1.92392973     -6.51138222
H       3.19612000      4.07960695     -8.13623961
H      -1.67522236     13.86417483     12.14530767
C       8.48523322     -7.48534648     -7.95577808
H     -10.56103991      0.14113743      5.63681892
H     -19.27118577     -7.16726916     -1.12682601
C       7.22754690     -1.50410844      5.36578610
H     -10.83134575     -1.85898474      5.32335166
C      -0.70363004     -6.68637720     11.73167766
H       6.04478585     -1.43919103      5.10436108
H      -2.93895578     -7.63588269     11.98706673
H      -0.70038860     -5.47997091     11.64755763
C       3.93403652      3.21850831     -4.68705956
H       5.56576794      5.58451994     -1.83290182
C       3.59075157      4.64328864     -0.96592806
H       2.69401064      3.19415644     -4.70539136
H       3.58495433      5.50837857     -0.07782361
H       3.24251716      3.67624522     -0.27632941
H       2.42663877      4.87960550     -1.30841604
H       8.83367593     -6.94659500     -9.02011351
H       8.41100907     -8.68940262     -8.24554606
H      10.72703107     -8.20853791     -6.70753596
H       7.79256247     -0.02679548      9.38722368
H      11.06586492     -1.13217795      8.62471177
H      -1.57102359     -8.91443488     12.38132992
H       7.63001723      1.18300956      6.82065917
H      -8.70101793     -4.16259184     22.46177845
H       8.20294145     13.22024184     11.17403155
H      -2.34916350     13.47718722     24.28698232
H      10.71868442     -0.52918281     11.47707777
H      10.42298306      1.97269251      2.33136112
H      -3.43227189     12.93183102     11.85119647
H      12.15716756      2.31923886      3.11686066
H       1.04104793      1.58673869    -14.94132023
H       7.14531150     -4.58857327      3.42791269
H       6.58094330     -6.32149710     -8.51841905
H      11.32478798      0.79420941     10.69046218
C      -8.83793724     -1.27961619      6.56198183
C      -1.79777092     -7.70452891     12.45119710
C       8.72784739      0.48759471      8.74207486
C       9.94433130     -0.67836953      8.86708288
C       8.77600501      1.20305166      7.22202558
C       9.13832463     13.77367504     11.58991039
C      10.68836333     -0.18090262     10.31327883
C      -2.87735699     14.02780680     11.93502706
C      -1.82981241     14.44151727     23.89388281
C       6.07729527      3.44080600     -1.50451262
C      11.07032737      1.84857790      3.34018403
C      10.59095332      1.20649179      4.75734887
C      10.00153910     -7.39356313     -7.23572439
C       4.92546702      4.53524358     -2.05545714
C       7.98450050     -4.00847232      4.08161507
H       7.11306770      3.55242015     -0.88650038
H       4.57136429     -8.06941784     -7.81581564
H      -7.84953394     -1.50338191      7.13744095
H      -8.57271924     -3.49036836     22.83601772
H      -1.92087216     -7.53967942     13.66782229
H       9.10920905      2.79355857      5.64897245
H       8.39592533      1.44991670      9.44634073
H      10.07370782     14.32710824     12.00578923
H      -1.31046131     15.40584731     23.50078330
H       3.81924548      2.11393734     -4.14352287
H       6.19420765      2.23688618     -1.53825366
H      -3.02922606     14.64641905     10.88128340
H       6.94131535     -0.92335469      4.33796146
H       0.98130135      2.36116026    -15.01274560
H       8.61815082     -3.53294785      3.15091631
H      10.82305205     -6.50616815     -7.12145538
H      -3.37270765     14.66880232     12.86232070
