   94
energy=      0.00000000
C      -3.36512565     -0.03688148      0.53856688
C      -1.66194786     -0.06235365      0.46831023
H      -3.83723644      0.75957966     -0.30674380
C      -4.05055182      0.21707183      2.08105776
H      -3.85435888     -1.04940919     -0.01597520
H      -1.15271689      0.93377163      1.03597186
C      -1.03766460     -0.31201349     -1.10067535
H      -1.16643207     -0.84617313      1.31334024
H      -1.52672192      0.48253025     -1.93801851
H      -1.53123609     -1.32525606     -1.64974775
C       0.65940591     -0.33026653     -1.20760275
H       1.13697268      0.68244025     -0.64152083
C       1.31700144     -0.57627381     -2.76966105
H       1.13516563     -1.12110416     -0.35770584
H       0.84135738      0.17689351     -3.64964229
H       0.84185785     -1.56491716     -3.37354327
C       3.02032963     -0.57630804     -2.78224950
H       3.41847026      0.48254680     -2.24395622
C       3.91984345     -0.80194377     -4.20849483
H       3.41992367     -1.41565046     -1.94250253
H       3.65872466     -0.10417790     -5.20521523
H       3.65842829     -1.77309205     -4.94131985
C       5.50837515     -0.72628242     -3.72839313
H       6.19103717      0.26579091     -3.58101953
C       7.89573802     -1.20903326     -6.72562771
H       6.19003969     -1.62440897     -3.28041273
H       7.21400849     -0.34064107     -7.22386791
H       7.21110318     -2.18689994     -6.93093501
C       9.37103314     -1.09210727     -5.97431909
H      -3.53333397      1.21077591      2.64322983
H      -3.56225352     -0.57425612      2.92165859
C      -5.76213127      0.25918599      2.15177952
H      -6.22419773      1.04827934      1.29629003
C      -6.50187406      0.51636118      3.67686432
H      -6.25592975     -0.74032534      1.58145283
H      -5.98466702      1.51596416      4.22292663
H      -6.02176174     -0.28708078      4.50687434
C      -8.21392609      0.57791928      3.83148243
H      -8.75571915      1.34611099      3.00702382
C      -8.85135606      0.83891108      5.39857128
H      -8.79278683     -0.38314372      3.27957391
H      -8.57643682      1.89458874      5.99083428
H      -8.61551692      0.00701726      6.28913911
H     -10.07425023      0.88908238      5.55569657
H       9.64470864     -0.05029109     -5.37124784
H      10.26758213     -1.22350026     -6.80611364
H       9.64271948     -1.89917649     -5.08056521
H       7.45362397      0.27980104      8.67384188
H       5.05074587      0.54534586     10.23429568
H       7.09291718     -0.19007986      5.71532214
H       9.77795862      0.03135116      7.07489745
H       4.78767162      0.06617049      7.27784721
H       9.38398011     -0.44140984      4.12104780
H       2.46697874      1.06521640     11.65544233
H      12.08410338     -0.22443887      5.41498568
H      11.71162687     -0.69343354      2.45819882
H       2.35435798      0.36522250      8.84912099
H      14.41319048     -0.50601423      3.68904370
H      14.19547077     -0.93933936      0.69314977
H      -0.25761584      1.15295003     13.94198014
H      16.98352890     -0.83510597      1.90102740
H      -0.89895237      0.56578689     10.73959650
C       6.97168635      1.07158810      7.82761160
C       7.58743722      0.82447036      6.26559047
C       5.27464731      1.08323564      7.82832479
C       4.60834161      1.33730271      9.36569885
C       9.28461505      0.81826098      6.23080716
C       9.89121424      0.57106333      4.66147150
C      11.59097911      0.55838896      4.56854391
C       2.90840759      1.40458642      9.28920691
C       2.32410893      1.93894213     10.77438483
C      12.22782380      0.31055870      3.00102461
C      13.93249045      0.28622116      2.84818336
C      14.66014237      0.04370132      1.31066936
C      16.36996088      0.03340943      1.26067637
C      -0.81146708      1.24689741     11.70213476
C      -0.75844381      1.95096198     13.15256508
H      16.93916532     -0.13686185      0.17971772
H      -1.95413292      2.15205687     13.19959762
H       7.46822141      2.07662843      8.39240071
H       5.12833916      2.31924807      9.94887931
H       7.09767638      1.62020005      5.42672981
H       9.77948233      1.82580984      6.79217337
H       4.81339061      1.88483433      6.98042110
H       9.38328787      1.36640834      3.83449570
H       2.67645436      2.83611409     11.54668120
H      12.08257542      1.56562939      5.13097410
H      11.71143221      1.09823802      2.17516728
H       2.41024062      2.12629935      8.39320731
H      14.41389516      1.29851729      3.40431310
H      14.19747164      0.79140955      0.42156805
H      -0.27529615      3.03138267     13.51030535
H      16.98628774      1.05450933      1.60465006
H       1.32254653      2.56985140     10.42797972
   94
energy=      0.00000000
C      -4.48233189     -0.50494486     -0.92317408
C      -2.77717632     -0.57435010     -0.99639935
H      -4.84486379      0.39508700     -1.70821291
C      -5.45730940     -0.27714292      0.44557599
H      -4.91583710     -1.56052270     -1.42005206
H      -2.38060528      0.50423784     -0.51506658
C      -2.00418791     -0.84709192     -2.51053275
H      -2.36187779     -1.38434172     -0.13364409
H      -2.42586364     -0.12289922     -3.43904185
H      -2.41138854     -1.83266838     -3.15976450
C      -0.30435045     -0.83723525     -2.51329995
H      -0.34904315      0.39706019     -2.67658249
C       1.36091923     -0.68763245     -2.77392325
H      -0.18620660     -2.01272121     -2.07997558
H       1.63377086     -0.16714737     -3.88730993
H       1.73702309     -1.58029817     -3.57797142
C       2.05872387     -0.21222972     -1.22988431
H       3.02070802      0.50714695     -1.58630749
C       1.26453819      0.25002669      0.33621221
H       3.02280055     -1.00819403     -1.18335906
H       1.43131076      1.44259303      0.04487814
H       1.92702646     -0.65135223      0.85239533
C       0.09909488      0.49036452      1.74536628
H       0.53641180      1.61957304      1.98071269
C       7.90329037     -1.20878399     -6.72420884
H       0.47503761     -0.54595915      2.28905815
H       7.20787497     -0.35104218     -7.21682770
H       7.20502416     -2.17474513     -6.92752007
C       9.38796368     -1.09513618     -5.99325436
H      -5.19616440      0.86270135      0.85240691
H      -5.22464953     -1.19302061      1.26099637
C      -7.11207581     -0.18267856      0.42757889
H      -7.80838574      0.78667563      0.22425806
C      -1.40928919      0.67427130      2.80663274
H      -7.90454802     -1.08146816      0.57660168
H      -1.31569406      1.89493014      2.90861718
H      -1.18512561     -0.33342890      3.47094111
C      -3.07679514      0.75463445      3.56761398
H      -3.26085259      1.95790195      3.37259145
C      -4.71991329      0.81339198      4.28263030
H      -3.09933452     -0.40753979      3.97398079
H      -5.24336739      1.79281993      4.84520249
H      -5.23137965     -0.03521433      5.04043253
H      -5.90330535      0.77414896      3.90073524
H       9.62173640     -0.04191972     -5.39576765
H      10.33185065     -1.21950501     -6.77869298
H       9.62031989     -1.91454430     -5.10135847
H       7.38709900      0.26085886      8.65800345
H       4.77913681      0.43399431     10.25088754
H       7.15704306     -0.19846612      5.72617026
H       9.85760315      0.02303702      6.97809448
H       4.68214814      0.04931610      7.35292480
H       9.56182158     -0.44932445      4.04014489
H       2.17109682      1.49741901     11.90849100
H      12.27358247     -0.25238124      5.22365102
H      11.99413604     -0.71332386      2.28485012
H       2.05675755      0.48331468      9.23679618
H      14.70524949     -0.54393861      3.45152528
H      14.56669585     -0.97500132      0.48170688
H      -0.77068257      1.07939211     14.23719168
H      17.36537611     -0.87100189      1.64040223
H      -1.62172212      0.42997043     11.03524792
C       6.89823459      1.04077710      7.80906204
C       7.64404857      0.81306669      6.27954377
C       5.18019019      1.05531554      7.90676139
C       4.40821409      1.29446946      9.41906905
C       9.35608294      0.79829165      6.13295519
C      10.06704529      0.55789103      4.58447079
C      11.77629816      0.52955379      4.38322439
C       2.70658455      1.51016583      9.53413896
C       2.23200138      2.30574325     10.96910913
C      12.50563011      0.28514538      2.83684922
C      14.21909166      0.25025994      2.61873542
C      15.01650139      0.01102920      1.10347581
C      16.73253894     -0.00547938      1.01521745
C      -1.51018236      1.01617909     12.04906604
C      -1.36554915      1.80698038     13.44543256
H      17.30940465     -0.17574021     -0.06525779
H      -2.49551840      2.17055838     13.73212115
H       7.39584347      2.03644152      8.38254303
H       5.00851487      2.21991884     10.00144281
H       7.15559953      1.61050855      5.44726310
H       9.85116219      1.79944341      6.69847871
H       4.71012076      1.84810518      7.06096948
H       9.55873079      1.34870649      3.75835777
H       2.74270850      3.15463436     11.70807924
H      12.27007076      1.53537607      4.93971738
H      11.99381464      1.06504330      2.00431167
H       2.10516055      1.99676531      8.55439824
H      14.70598711      1.26189463      3.16662789
H      14.56893870      0.76034578      0.20938328
H      -0.79246971      2.88387589     13.57545134
H      17.36831542      1.00791388      1.34578994
H       1.35430170      3.15488802     10.78335747
