   94
energy=      0.00000000
C      -9.87962330     -1.67382623     -3.76652310
C      -8.40594769     -2.07655998     -2.97574811
H      -9.67274189     -0.98969656     -4.78972405
C     -11.20283066     -1.04464468     -2.86367356
H     -10.24060108     -2.59809698     -4.52247361
H      -7.68527398     -1.13053333     -2.62238975
C      -0.14163313     -1.70620514     -1.23269903
H      -8.44211899     -2.81832351     -1.98342728
H      -5.82565398     -4.70825757    -13.96702431
H      -5.81794279     -5.47765156    -13.83906564
C       0.99858995     -1.43624005     -2.28197182
H       0.21253165     -1.01107747     -3.13325620
C       2.41931474     -0.58017928     -1.85301469
H       1.04988014     -2.60548118     -2.67419210
H       2.40337467      0.50939298     -2.45329039
H       3.28536071     -0.93384902     -2.67774525
C       3.05094602     -0.41744334     -0.24006299
H       4.29800932     -0.39906343     -0.26902495
C       2.52417112      0.70822501      0.98633768
H       3.22604811     -1.56564864      0.20067419
H       2.01296992      1.70166450      0.44845166
H       3.40147004      1.56903814      1.19424621
C       1.72208662      0.32363566      2.49148441
H       2.41465362      0.71729950      3.44873290
C       3.10167032      3.65598037    -10.58674094
H       2.06172278     -0.78164158      2.95180460
H       2.45566351      4.46410784    -11.04611964
H       0.48498731      9.61934759     12.25545905
C      10.73503470     -4.86111106     -9.76333234
H     -11.10270488      0.08192198     -2.35419724
H     -11.63741262     -1.66738206     -1.88386067
C     -21.44161111     -1.47125103     -2.28573277
H     -12.31740132     -0.87088787     -3.37673234
C      -8.02601567      0.03013353     10.36011364
H     -22.11982784     -2.35626957     -2.28920680
H      -8.08601248      0.90414778      9.59416020
H      -7.96598540     -0.84380744     11.12614809
C       0.02462317      0.54987750      2.80849116
H      -0.49138789      1.31832602      1.97868324
C      -0.75667907      0.99192047      4.28550023
H      -0.57570804     -0.44359128      2.35546299
H      -0.47265429      2.06297813      4.84436323
H      -0.69381925      0.25372090      5.28077364
H      -1.98864871      1.14272450      4.34761600
H      10.30562250     -3.78036447     -9.47089764
H      11.25763004     -5.03029082    -10.82925841
H      10.64185156     -5.77267788     -8.98984096
H       4.20792801     -3.42468124     17.45865040
H       1.39786246     -3.88357704     19.47506375
H      12.02091771     -5.15664965     11.58506393
H      14.98542565     -5.01536855     12.02027928
H      -8.39907487     -4.14614902     22.33906395
H       8.66069183      8.74055554      0.99837594
H      -1.21943034     10.00979830     14.99714626
H      10.39185408      8.42210325      4.06100505
H      15.48941355     -2.42522547      1.08631442
H      -1.19932685      8.78128372     12.28956104
H      18.00316193     -0.54799607      2.27524192
H      22.37918902     -0.25661961     -9.15259292
H      12.23165988     -1.52430926      3.29444754
H      20.25824551     -1.51381974     -0.22164540
H       8.95094528      7.26579672      3.61991512
C      11.96143551     -3.45012731     13.11587579
C      12.57650919     -4.07449754     11.76693721
C       3.05529868     -3.10976467     17.44124126
C       2.08958206     -3.54576566     18.60008425
C      14.22846231     -4.09703731     11.81453624
C       9.25813754      9.09583694      1.98759513
C       9.28652403      8.44763004      3.51419829
C      -0.69742482      9.89366190     12.50584797
C      -1.06473267     10.68922166     13.97220745
C      15.83985558     -1.54822318      1.87698930
C      17.12886808     -0.54458455      1.41123794
C      18.12829041     -0.64671668      0.12654405
C      19.56946474     -0.58084964     -0.62222121
C      14.39637094     -0.97547680      2.32447154
C      12.95563637     -0.66152151      2.89016095
H      19.73302563     -0.66181633     -1.83391459
H      -7.48329292     -2.73765398     -3.47068853
H      11.55126489     -2.98228333     14.11067815
H      -8.27077617     -3.47392553     22.71330323
H      12.09172467     -3.48125082     10.80435802
H      15.01599662     -3.19219406     11.67064772
H       2.67752448     -2.45668655     16.51419866
H       9.82438928     10.06682306      1.54175375
H      -0.26073249     11.52129532     14.41639438
H       8.54713459      9.03014420      4.31242050
H      16.06521688     -2.25554605      2.86297056
H      -0.99325944     10.44740507     11.43723534
H      16.85338849      0.65618388      1.40004143
H      22.27028638      0.51344275     -9.21212595
H      12.49623740      0.43804929      2.96365704
H      20.10705726      0.50297169     -0.40869962
H      -2.09864228     11.36946443     14.03841739
   94
energy=      0.00000000
C      -9.91962577     -1.68283492     -3.77949989
C      -8.44322828     -2.08288798     -2.99224912
H      -9.70928231     -0.99895701     -4.80228719
C     -11.24561685     -1.05065172     -2.88336052
H     -10.28618573     -2.61254432     -4.52626386
H      -7.72197549     -1.14745117     -2.61314468
C      -0.18106884     -1.64679910     -1.27945091
H      -8.46386140     -2.81355575     -1.99123941
H      -5.82434168     -4.70939886    -13.97053257
H      -5.81663049     -5.47879285    -13.84257390
C       0.96400529     -1.37825420     -2.32389738
H       0.17424139     -0.95646788     -3.17299112
C       2.38283876     -0.51679192     -1.90089230
H       1.02474155     -2.55006888     -2.70671274
H       2.36733834      0.57424140     -2.49831266
H       3.25144488     -0.85068356     -2.73098577
C       3.00766675     -0.36896822     -0.28484493
H       4.25495466     -0.37630783     -0.29815823
C       2.48217007      0.76632284      0.93195560
H       3.16515177     -1.51998711      0.15504873
H       1.97458748      1.76305890      0.39645945
H       3.36177103      1.62606445      1.13426621
C       1.67513939      0.38169599      2.43311015
H       2.36835806      0.78281918      3.38646211
C       3.10166687      3.65598424    -10.58674140
H       2.01453731     -0.72042457      2.90107095
H       2.45566006      4.46411171    -11.04612010
H       0.48442610      9.61407615     12.25867824
C      10.73503642     -4.86111299     -9.76333211
H     -11.14266421      0.07555040     -2.37380811
H     -11.68794702     -1.67380529     -1.90726209
C     -21.48168869     -1.47231689     -2.28282203
H     -12.35692353     -0.87278605     -3.40240342
C      -8.02600892      0.03014833     10.36013001
H     -22.15990543     -2.35733542     -2.28629606
H      -8.08601590      0.90414039      9.59415204
H      -7.96598878     -0.84381485     11.12613992
C      -0.02430666      0.60024956      2.74211604
H      -0.55579807      1.35214131      1.90641572
C      -0.78307757      1.04349149      4.22977971
H      -0.63022786     -0.38813214      2.28528912
H      -0.48734044      2.11593813      4.77977782
H      -0.70715948      0.30044457      5.22064348
H      -2.01255581      1.19845316      4.31595546
H      10.30562423     -3.78036640     -9.47089741
H      11.25763177     -5.03029276    -10.82925818
H      10.64185328     -5.77267981     -8.98984073
H       4.10937291     -3.37604633     17.61590510
H       1.29087844     -3.83352902     19.63349722
H       7.87752227     -7.92833814      8.12290552
H      17.39226032     -3.75827583     14.57658445
H      -8.57328484     -4.15503337     22.41094426
H       8.67322076      8.75417555      1.00144116
H      -1.21330828     10.01002773     14.99821007
H      10.40438855      8.43573955      4.06395655
H      15.57713523     -2.36270783      0.96760637
H      -1.20431456      8.78406891     12.28674359
H      18.01650241     -0.43378215      2.31404607
H      22.42964607     -0.24841713     -9.24536768
H      12.27885182     -1.47335044      3.22883143
H      20.31948059     -1.49652388     -0.30807115
H       8.96336632      7.27943821      3.62311552
C      15.47194240     -2.36237021     15.46711720
C       8.14599340     -6.82122655      7.90538200
C       2.95583979     -3.06400715     17.60399370
C       1.99120661     -3.50052466     18.76354304
C      16.79824559     -2.73317852     14.70461265
C       9.27062608      9.10946448      1.99068110
C       9.29899282      8.46124674      3.51727997
C      -0.69744568      9.89364897     12.50585447
C      -1.06470403     10.68922831     13.97220622
C      15.90207885     -1.52651962      1.81225631
C      17.18281546     -0.48716733      1.40912071
C      18.23408912     -0.60551860      0.17285640
C      19.61933403     -0.55510585     -0.66802783
C      14.45392098     -0.97037823      2.26478907
C      13.01756117     -0.62492953      2.82189788
H      19.63454401     -0.64724241     -1.89023097
H      -7.53652846     -2.73720124     -3.52579457
H      14.62424611     -1.99858624     16.18345464
H      -8.44498614     -3.48280989     22.78518353
H       7.96221376     -5.92684277      7.19026528
H      17.54356026     -1.96752814     14.18124543
H       2.57209840     -2.41098673     16.67942046
H       9.83687339     10.08046625      1.54486580
H      -0.26362236     11.52582786     14.41318251
H       8.55956584      9.04370483      4.31550807
H      16.11337730     -2.28329089      2.76376345
H      -0.98793183     10.44995728     11.43709862
H      16.85537190      0.69555745      1.29536384
H      22.32074342      0.52164523     -9.30490065
H      12.57905301      0.48402106      2.88591311
H      20.17570807      0.52783578     -0.50029653
H      -2.10166093     11.36464280     14.04029515
