   94
energy=      0.00000000
C      -5.60205313     -0.58170644     -0.92776175
C      -4.01476811     -0.87491763     -0.31046499
H      -5.63284580      0.16042537     -1.93036333
C      -6.84992569     -0.20677877      0.21375924
H      -5.90007071     -1.42410687     -1.79661024
H      -3.70701214      0.29674854     -0.05190016
C      -2.37646297     -1.28429167     -0.36437176
H      -4.25290112     -1.96877006      0.21946251
H      -6.00107242     -3.73394911    -11.08085477
H      -5.99336123     -4.50334310    -10.95289611
C      -1.15747024     -1.17905296     -1.51451366
H      -1.74989127     -0.57023234     -2.41507047
C       0.46532810     -0.58159357     -1.52288496
H      -1.21248255     -2.37018728     -1.86767960
H       0.54561140      0.30187559     -2.40170152
H       1.07720371     -1.35796639     -2.29125798
C       1.46707437     -0.10777294     -0.17686040
H       2.51510332      0.33687324     -0.69780658
C       1.10444354      0.86252284      1.24147850
H       2.10043082     -1.12756398      0.16372304
H       0.56426334      1.88924425      0.79958913
H       2.17124965      1.45986635      1.49158917
C       0.41302175      0.54114597      2.82780092
H       1.39152640      0.46116697      3.59409800
C       3.24231175      3.50508117    -10.56324283
H       0.30292332     -0.69077844      2.91635859
H       2.59630495      4.31320867    -11.02262158
H      10.33254329     -4.53341522     -8.94656194
C      11.42199937     -4.23073302     -8.45912992
H      -6.71363004      0.89246587      0.77711017
H      -6.83037723     -0.82712560      1.29049212
C      -8.47598115     -0.27072178     -0.14726349
H      -9.23834319      0.60596563     -0.48781946
C      -0.87642678      1.25729591      3.79841617
H      -9.25275920     -1.19954518     -0.12602635
H      -0.68680460      2.48906377      3.82567858
H      -0.58427494      1.15160534      5.00477436
C      -2.61145806      1.04908117      3.83425376
H      -3.00236900      1.69966278      2.84929683
C      -3.88793443      1.30045126      4.98233522
H      -2.82043620     -0.14377279      3.56723959
H      -3.93767782      2.34106256      5.65387573
H      -4.07499637      0.49887344      5.91251562
H      -5.09081975      1.34489144      4.66739150
H      11.36822844     -3.08404599     -8.01377772
H      12.29196970     -4.29298493     -9.32826590
H      11.69525605     -5.01248593     -7.54791414
H       6.21888403     -2.27531351     12.58713040
H       2.88192701     -2.08309799     14.11317919
H       6.48849991     -2.83327211      9.65753241
H       9.26353347     -2.53934833     10.48183967
H       3.47957191     -2.48906033     11.29310075
H      10.28595689      2.17143365      1.40395949
H      -1.40739228      7.68071233     15.37804904
H      11.55324112      2.18516206      5.08858929
H      12.59849090     -1.13434630      2.59618292
H      -1.13684307      6.36941302     12.68369164
H      15.08684185     -0.55505776      2.59929721
H      15.40278741     -0.61500571      0.08536600
H       8.59758590      0.27323274      5.02610137
H      18.27868249     -0.25595573      0.64051311
H      10.56563627     -0.62464607      3.21146027
C       5.77823179     -1.52293391     11.69694468
C       6.73564088     -1.78928356     10.28388644
C       4.05455556     -1.51892401     11.81356808
C       3.31352529     -1.29657465     13.29875845
C       8.40532033     -1.69131610     10.37001985
C      10.82512875      2.60653995      2.40033159
C      11.10657473      2.03615366      3.94040808
C      -1.11564734      7.55454824     12.92132528
C      -1.25835296      8.36359619     14.36235589
C      12.85553581     -0.00608066      3.03024408
C      14.38875955      0.31277640      2.06768156
C      15.64868257      0.39897407      0.76079824
C      17.35841419      0.49742284      0.27757279
C      11.17801750      0.35365858      3.65607109
C       9.66485603      0.21850235      4.47969028
H      17.79725021      0.40873525     -0.89198497
H      -1.96389143     -1.85611445      0.63930657
H       6.18151905     -0.47326878     12.23227627
H       3.05876257     -0.29445017     13.93122983
H       6.42348546     -1.12713461      9.28068113
H       9.15817547     -0.74147723     10.37252510
H       3.45621487     -0.75645563     11.03601744
H      11.22956294      3.59105337      1.84467974
H      -0.27667930      9.04855674     14.66167583
H      10.80475800      3.04400251      4.59051087
H      13.36232799      0.00902396      4.15982595
H      -0.96001671      7.98095921     11.80041450
H      14.31444567      1.54001239      2.12893387
H      15.37263036      1.42130070      0.11228345
H       8.59669964      0.30384372      5.02131947
H      18.13981327      1.45786327      0.41465844
H      -2.22763113      9.12464433     14.42390066
   94
energy=      0.00000000
C      -5.69046808     -0.64197659     -0.93200048
C      -4.09427073     -0.95692053     -0.33888750
H      -5.70552745      0.11445684     -1.92348651
C      -6.96260547     -0.24677294      0.17948945
H      -5.99927093     -1.49212365     -1.78868186
H      -3.76753987      0.20022145     -0.05129154
C      -2.46042172     -1.37996484     -0.48101125
H      -4.33782133     -2.01600894      0.25533436
H      -6.00205515     -3.73483716    -11.08087905
H      -5.99434396     -4.50423116    -10.95292039
C      -1.23174554     -1.24979482     -1.62317608
H      -1.82233947     -0.72494190     -2.57847490
C       0.37349864     -0.59889118     -1.51310479
H      -1.26647279     -2.41963042     -2.04488605
H       0.44410912      0.34651364     -2.32400748
H       1.04359645     -1.32582073     -2.27919678
C       1.34939026     -0.16237749     -0.13152911
H       2.46291303      0.19664602     -0.57511456
C       0.96792050      0.85695690      1.24408816
H       1.92234946     -1.20001052      0.25388541
H       0.36534015      1.83909692      0.78455727
H       1.94548784      1.60724387      1.44687582
C       0.34628878      0.47581224      2.84086313
H       1.33898974      0.28334484      3.57020741
C       3.21464707      3.53390803    -10.57041464
H       0.20353751     -0.75256222      2.92839249
H       2.56864027      4.34203552    -11.02979339
H      10.23165007     -4.66149132     -9.26287682
C      11.32112282     -4.35886351     -8.77544829
H      -6.83695695      0.85856419      0.73362163
H      -6.96190409     -0.83371387      1.27463726
C      -8.58303412     -0.32333496     -0.21512056
H      -9.35277142      0.53798519     -0.57920527
C      -0.90336753      1.23535311      3.82026833
H      -9.36044986     -1.25231069     -0.21013786
H      -0.69801643      2.46432417      3.85131099
H      -0.58517665      1.18482552      5.02315635
C      -2.63390328      1.01446612      3.83114780
H      -3.02971301      1.63936727      2.83156913
C      -3.89020360      1.28093525      4.99365251
H      -2.85141047     -0.17306315      3.54486957
H      -3.93022320      2.33191973      5.64919362
H      -4.05184985      0.48583162      5.93366743
H      -5.09586946      1.32549902      4.69172902
H      11.26729523     -3.21217675     -8.33010226
H      12.19111437     -4.42116227     -9.64455968
H      11.59443163     -5.14062372     -7.86425439
H       6.02937168     -2.58934841     13.07359804
H       2.68378354     -2.40534393     14.58582544
H       6.28727184     -3.14898936     10.14119477
H       9.06307138     -2.86297051     10.95735783
H       3.29000469     -2.80868743     11.77115069
H       6.41823054      6.51428099      1.47111886
H      -1.41036776      7.68487576     15.37911418
H       7.94512993      6.11452053      4.87465021
H      14.47011887     -2.45926318      2.10626947
H      -1.13944665      6.37326531     12.68449444
H      17.19007906     -1.73858991      2.46690789
H      17.05346195     -1.95008296     -0.31642452
H      11.01515545     -1.29338114      4.48887194
H      19.97339145     -1.66853208      0.48978653
H       6.91105527      5.03542108      3.87119492
C       5.58764615     -1.84000170     12.18151685
C       6.53901474     -2.10375764     10.76358953
C       3.86335728     -1.83722410     12.29094186
C       3.11049971     -1.61720211     13.77036110
C       8.20936647     -2.01158660     10.83691685
C       7.02397792      6.88768205      2.45036299
C       7.11784147      6.24811202      3.97847463
C      -1.11831286      7.55839574     12.92215183
C      -1.26109520      8.36738503     14.36320609
C      14.96030297     -1.46989511      2.65605291
C      16.42577727     -1.01147570      1.81441776
C      17.42629011     -0.97709702      0.36606254
C      19.13710955     -0.87672578      0.02627675
C      13.43716283     -1.17862751      3.19021251
C      12.02462042     -1.16387924      3.91954543
H      19.59272232     -0.97245974     -1.12957224
H      -2.02490167     -1.99549528      0.48566330
H       5.99624567     -0.79827021     12.72832114
H       2.83717929     -0.61586204     14.39607748
H       6.22757511     -1.43690831      9.76276086
H       8.96704089     -1.06588088     10.81624819
H       3.27151427     -1.07428530     11.50893719
H       7.50721388      7.89921049      1.99963389
H      -0.27910308      9.05211246     14.66202832
H       6.60345553      7.05015946      4.75521193
H      15.18167992     -1.40377675      3.86989337
H      -0.96255224      7.98490854     11.80129344
H      16.28022563      0.20803280      2.00439227
H      16.98758101     -0.06000367     -0.35315689
H      10.99889560     -1.09188911      4.46809292
H      19.82554848      0.12294759      0.29149646
H      -2.23052063      9.12822081     14.42504280
