   94
energy=      0.00000000
C       6.81992333     -7.18460951     -7.47473365
C       5.11949856     -7.35478516     -7.09270592
H       7.03412479     -6.58565020     -6.41277828
C     -10.16968116     -0.97812121      5.78662609
H     -18.89185999     -7.18329685     -1.80818867
H       4.47155626     -6.35384387     -6.73364246
C      10.63033831     -1.58641107      9.16029664
H       4.47184664     -8.00289302     -6.26377647
H      -7.33803449     -5.79219454    -16.94280355
H      -7.33032330     -6.56158854    -16.81484488
C       9.58430033      1.59346041      5.56251541
H      10.18220367      2.49466590      6.15443273
C      11.00826181     -2.97026723      8.45349990
H      10.47544435      0.21108314      3.71614355
H      12.20438156     -2.90364764      8.58458327
H       0.32151117     -6.93136950     11.13962626
C      10.28622441     -4.21042897      7.60183598
H       9.04956380     -4.13445608      7.58071975
C       5.02665306      4.07129201     -2.97751058
H      10.14077590     -5.12849394      8.42171938
H       6.01329696      4.52139994     -3.58359641
H       4.44616046      5.11314917     -3.33725985
C       4.86729964      2.48040375     -5.40470154
H       5.45670497      3.71375141     -7.56686783
C       4.63830806      3.35690999     -6.76007269
H       5.59593409      1.53528461     -5.64796624
H       3.62416312      3.85974220     -7.16915751
H      -1.67522236     13.86417483     12.14530767
C       8.53774344     -7.39382812     -7.76483854
H     -10.56103991      0.14113743      5.63681892
H     -19.27118577     -7.16726916     -1.12682601
C      -9.30897803      4.96232714    -10.51107341
H     -10.83134575     -1.85898474      5.32335166
C      -0.70363006     -6.68637711     11.73167772
H     -10.40895073      4.90076610    -10.25089213
H      -2.93895844     -7.63587652     11.98707428
H      -0.70039908     -5.47997198     11.64754065
C       4.30733030      2.76857369     -3.85342697
H       6.04656729      5.13334218     -1.09288017
C       4.04348479      4.21408060     -0.17846584
H       3.06790022      2.70796897     -3.87022148
H       4.02753722      5.13917137      0.64406599
H       3.71564240      3.27302847      0.55569225
H       2.86766253      4.37943648     -0.51014425
H       8.80651787     -6.37176518     -8.41427036
H       8.64212876     -8.60384786     -8.02300446
H      11.27795136     -7.76705564     -7.11661086
H       8.03903313     -0.33323567      8.94374111
H      11.54674731      0.18115680      8.96832749
H      -1.57103100     -8.91443575     12.38131970
H       8.50600419     -0.41758583      6.27549171
H      -8.70101793     -4.16259184     22.46177845
H       8.20294142     13.22024190     11.17403152
H      -2.34916350     13.47718722     24.28698232
H      10.57138265      0.78544453     11.87911126
H      10.15275876      2.19787196      1.53035417
H      -3.43227189     12.93183102     11.85119647
H      11.85051600      2.35216383      2.65030945
H       1.13365399      1.57462924    -14.28149553
H      10.46286957     -5.38876414      5.27843982
H       6.56349482     -7.19758419     -8.69107044
H      10.97245035      2.14481097     10.75351649
C      -8.83793724     -1.27961620      6.56198183
C      -1.79777088     -7.70452898     12.45119702
C       8.95995545      0.35475358      8.47001833
C      10.38981291      0.01453939      9.34229012
C       9.07196006      0.53347765      6.78417430
C       9.13832469     13.77367491     11.58991044
C      10.65198159      0.97314114     10.68666884
C      -2.87735699     14.02780680     11.93502706
C      -1.82981241     14.44151727     23.89388281
C       6.47059080      2.99546329     -0.67080543
C      10.69149913      2.03208348      2.60782861
C      10.25301553      1.35216767      4.03306379
C      10.17881424     -7.37316947     -7.37112462
C       5.36499371      4.10113075     -1.27608466
C      10.96140581     -4.57864440      6.07006981
H       7.40895535      3.18873090      0.06262911
H       4.26132050     -7.90890008     -7.79631676
H      -7.84953394     -1.50338191      7.13744095
H      -8.57271924     -3.49036836     22.83601772
H      -1.92086225     -7.53968506     13.66782401
H       8.58165113      2.22011269      5.24209466
H       8.19363328      1.22953378      8.89031182
H      10.07370780     14.32710830     12.00578920
H      -1.31046131     15.40584731     23.50078330
H       4.16898232      1.66526201     -3.31196661
H       6.51860992      1.78583323     -0.61799713
H      -3.02922606     14.64641905     10.88128340
H      11.06534941     -3.66972246      5.23540441
H       1.07390796      2.34905099    -14.35291939
H      12.09405114     -5.08124370      6.04067333
H      11.29442559     -6.94271208     -7.33425159
H      -3.37270765     14.66880232     12.86232070
   94
energy=      0.00000000
C       6.88063853     -7.05365943     -7.46560791
C       5.23138986     -7.39852908     -7.05743758
H       7.16432281     -6.43568354     -6.42329732
C     -10.16968116     -0.97812121      5.78662609
H     -18.89185999     -7.18329685     -1.80818867
H       4.49003798     -6.43091152     -6.78677309
C       9.97073992     -1.78066506      8.25928607
H       4.92246220     -8.16333820     -6.13145740
H      -7.45354005     -5.90431306    -16.97368978
H      -7.44582886     -6.67370706    -16.84573111
C       9.78027164      1.63843228      6.05917425
H      10.60934702      2.37299673      6.60052329
C       9.36866089     -2.69832379      7.02035018
H      10.86172278     -0.09058241      4.50641500
H      10.35959962     -3.34720662      7.23691003
H       0.32150499     -6.93137036     11.13961580
C       8.18766080     -3.13500157      5.82730885
H       7.30584844     -3.45183144      6.63009540
C       4.66763997      4.46702933     -3.73412969
H       8.78402120     -4.17718344      5.58544276
H       5.70213989      4.84534472     -4.30991685
H       4.12527092      5.52044672     -4.12217976
C       4.48346021      2.87418408     -6.20197147
H       5.09350514      4.12557278     -8.34788138
C       4.26139952      3.72094880     -7.57734568
H       5.17629218      1.90610633     -6.46097031
H       3.22961204      4.12596706     -8.04631998
H      -1.67522236     13.86417483     12.14530767
C       8.52435126     -7.43352847     -7.87627815
H     -10.56103991      0.14113743      5.63681892
H     -19.27118577     -7.16726916     -1.12682601
C       6.08980567     -2.11611294      3.41015217
H     -10.83134575     -1.85898474      5.32335166
C      -0.70363004     -6.68637719     11.73167768
H       4.94001063     -1.96175442      3.08176474
H      -2.93895700     -7.63588011     11.98707011
H      -0.70039288     -5.47997139     11.64755050
C       3.95287465      3.18179555     -4.64123255
H       5.61013137      5.54783913     -1.81312251
C       3.62170185      4.62301110     -0.92644720
H       2.71314149      3.14080475     -4.65957345
H       3.61593665      5.51388220     -0.06440712
H       3.28448645      3.66926224     -0.21342278
H       2.45089334      4.82823594     -1.26500075
H       8.81708694     -6.63530271     -8.78265140
H       8.50389924     -8.64463711     -8.15301632
H      10.88345432     -8.18759356     -6.83451068
H       8.03952776     -0.25831348      9.46036078
H      11.56814518     -0.70388249      9.08202718
H      -1.57102641     -8.91443516     12.38132549
H       8.00030433      0.25964865      6.68847808
H      -8.70101793     -4.16259184     22.46177845
H       8.20294144     13.22024184     11.17403155
H      -2.34916350     13.47718722     24.28698232
H      10.79906173     -0.06815473     11.93531502
H      10.41723170      1.98516296      2.29934328
H      -3.43227189     12.93183102     11.85119647
H      12.12684044      2.27806671      3.12997559
H       1.04808503      1.58576540    -14.88371638
H       6.92917388     -3.92344541      3.85720095
H       6.55204912     -6.76691427     -8.62851920
H      11.28156030      1.29200715     11.05856057
C      -8.83793724     -1.27961619      6.56198183
C      -1.79777092     -7.70452892     12.45119708
C       8.96184011      0.31907213      8.85411225
C      10.36606196     -0.52373240      9.28904584
C       8.96238610      0.76280325      7.23077494
C       9.13832464     13.77367503     11.58991039
C      10.84363711      0.19325461     10.74972864
C      -2.87735699     14.02780680     11.93502706
C      -1.82981241     14.44151727     23.89388281
C       6.09594578      3.41006219     -1.45434753
C      11.03695601      1.79960080      3.31650332
C      10.53899837      1.06450483      4.68272440
C      10.10143740     -7.38068069     -7.28853879
C       4.95245377      4.50602248     -2.01902746
C       7.35511322     -2.84771666      4.28634538
H       7.11541533      3.52366261     -0.80987912
H       4.43275796     -7.97142447     -7.81876812
H      -7.84953394     -1.50338191      7.13744095
H      -8.57271924     -3.49036836     22.83601772
H      -1.92086828     -7.53968177     13.66782299
H       8.91632529      2.44408441      5.70894621
H       8.41730886      1.28205978      9.40561969
H      10.07370782     14.32710824     12.00578923
H      -1.31046131     15.40584731     23.50078330
H       3.84070758      2.07710940     -4.09742350
H       6.21397147      2.20630643     -1.48875274
H      -3.02922606     14.64641905     10.88128340
H       5.71214987     -1.56096251      2.40523202
H       0.98833870      2.36018705    -14.95514105
H       8.20127889     -2.52383979      3.45078272
H      10.97545856     -6.53844144     -7.24226848
H      -3.37270765     14.66880232     12.86232070
