   94

C      -9.91962577     -1.68283492     -3.77949989
C      -8.44322828     -2.08288798     -2.99224912
H      -9.70928231     -0.99895701     -4.80228719
C     -11.24561685     -1.05065172     -2.88336052
H     -10.28618573     -2.61254432     -4.52626386
H      -7.72197549     -1.14745117     -2.61314468
C      -0.18106884     -1.64679910     -1.27945091
H      -8.46386140     -2.81355575     -1.99123941
H      -5.82434168     -4.70939886    -13.97053257
H      -5.81663049     -5.47879285    -13.84257390
C       0.96400529     -1.37825420     -2.32389738
H       0.17424139     -0.95646788     -3.17299112
C       2.38283876     -0.51679192     -1.90089230
H       1.02474155     -2.55006888     -2.70671274
H       2.36733834      0.57424140     -2.49831266
H       3.25144488     -0.85068356     -2.73098577
C       3.00766675     -0.36896822     -0.28484493
H       4.25495466     -0.37630783     -0.29815823
C       2.48217007      0.76632284      0.93195560
H       3.16515177     -1.51998711      0.15504873
H       1.97458748      1.76305890      0.39645945
H       3.36177103      1.62606445      1.13426621
C       1.67513939      0.38169599      2.43311015
H       2.36835806      0.78281918      3.38646211
C       3.10166687      3.65598424    -10.58674140
H       2.01453731     -0.72042457      2.90107095
H       2.45566006      4.46411171    -11.04612010
H       0.48442610      9.61407615     12.25867824
C      10.73503642     -4.86111299     -9.76333211
H     -11.14266421      0.07555040     -2.37380811
H     -11.68794702     -1.67380529     -1.90726209
C     -21.48168869     -1.47231689     -2.28282203
H     -12.35692353     -0.87278605     -3.40240342
C      -8.02600892      0.03014833     10.36013001
H     -22.15990543     -2.35733542     -2.28629606
H      -8.08601590      0.90414039      9.59415204
H      -7.96598878     -0.84381485     11.12613992
C      -0.02430666      0.60024956      2.74211604
H      -0.55579807      1.35214131      1.90641572
C      -0.78307757      1.04349149      4.22977971
H      -0.63022786     -0.38813214      2.28528912
H      -0.48734044      2.11593813      4.77977782
H      -0.70715948      0.30044457      5.22064348
H      -2.01255581      1.19845316      4.31595546
H      10.30562423     -3.78036640     -9.47089741
H      11.25763177     -5.03029276    -10.82925818
H      10.64185328     -5.77267981     -8.98984073
H       4.10937291     -3.37604633     17.61590510
H       1.29087844     -3.83352902     19.63349722
H       7.87752227     -7.92833814      8.12290552
H      17.39226032     -3.75827583     14.57658445
H      -8.57328484     -4.15503337     22.41094426
H       8.67322076      8.75417555      1.00144116
H      -1.21330828     10.01002773     14.99821007
H      10.40438855      8.43573955      4.06395655
H      15.57713523     -2.36270783      0.96760637
H      -1.20431456      8.78406891     12.28674359
H      18.01650241     -0.43378215      2.31404607
H      22.42964607     -0.24841713     -9.24536768
H      12.27885182     -1.47335044      3.22883143
H      20.31948059     -1.49652388     -0.30807115
H       8.96336632      7.27943821      3.62311552
C      15.47194240     -2.36237021     15.46711720
C       8.14599340     -6.82122655      7.90538200
C       2.95583979     -3.06400715     17.60399370
C       1.99120661     -3.50052466     18.76354304
C      16.79824559     -2.73317852     14.70461265
C       9.27062608      9.10946448      1.99068110
C       9.29899282      8.46124674      3.51727997
C      -0.69744568      9.89364897     12.50585447
C      -1.06470403     10.68922831     13.97220622
C      15.90207885     -1.52651962      1.81225631
C      17.18281546     -0.48716733      1.40912071
C      18.23408912     -0.60551860      0.17285640
C      19.61933403     -0.55510585     -0.66802783
C      14.45392098     -0.97037823      2.26478907
C      13.01756117     -0.62492953      2.82189788
H      19.63454401     -0.64724241     -1.89023097
H      -7.53652846     -2.73720124     -3.52579457
H      14.62424611     -1.99858624     16.18345464
H      -8.44498614     -3.48280989     22.78518353
H       7.96221376     -5.92684277      7.19026528
H      17.54356026     -1.96752814     14.18124543
H       2.57209840     -2.41098673     16.67942046
H       9.83687339     10.08046625      1.54486580
H      -0.26362236     11.52582786     14.41318251
H       8.55956584      9.04370483      4.31550807
H      16.11337730     -2.28329089      2.76376345
H      -0.98793183     10.44995728     11.43709862
H      16.85537190      0.69555745      1.29536384
H      22.32074342      0.52164523     -9.30490065
H      12.57905301      0.48402106      2.88591311
H      20.17570807      0.52783578     -0.50029653
H      -2.10166093     11.36464280     14.04029515
   94

C      -9.92260935     -1.68360637     -3.78038732
C      -8.44590923     -2.08335218     -2.99353502
H      -9.71208383     -0.99983305     -4.80321654
C     -11.24880343     -1.05103322     -2.88485956
H     -10.28962631     -2.61392685     -4.52618512
H      -7.72477847     -1.14865014     -2.61242549
C      -0.17997943     -1.64584877     -1.27908098
H      -8.46525762     -2.81359599     -1.99219235
H      -5.82423226     -4.70950131    -13.97085335
H      -5.81652103     -5.47889535    -13.84289495
C       0.96569556     -1.37745405     -2.32292418
H       0.17574730     -0.95613313     -3.17203275
C       2.38418055     -0.51531105     -1.90029675
H       1.02748415     -2.54951383     -2.70479139
H       2.36854224      0.57595267     -2.49726070
H       3.25314872     -0.84706370     -2.73084692
C       3.00821701     -0.36907061     -0.28390662
H       4.25548477     -0.37919869     -0.29558934
C       2.48291590      0.76727149      0.93186599
H       3.16388565     -1.52036493      0.15589646
H       1.97566192      1.76434282      0.39665274
H       3.36279438      1.62689282      1.13347519
C       1.67545231      0.38268137      2.43266006
H       2.36877795      0.78462588      3.38555699
C       3.10161480      3.65599476    -10.58677859
H       2.01485724     -0.71914619      2.90129122
H       2.45561020      4.46412395    -11.04615726
H       0.48422196      9.61336615     12.25918491
C      10.73455563     -4.86131725     -9.76356258
H     -11.14562083      0.07506039     -2.37513093
H     -11.69185079     -1.67428057     -1.90914384
C     -21.48522764     -1.47240931     -2.28256098
H     -12.35972430     -0.87252721     -3.40454526
C      -8.02607382      0.03016449     10.36014592
H     -22.16344523     -2.35742719     -2.28603485
H      -8.08607782      0.90415258      9.59416314
H      -7.96605809     -0.84379681     11.12615836
C      -0.02416124      0.60034692      2.74109548
H      -0.55717261      1.35057304      1.90482593
C      -0.78069518      1.04382052      4.22976308
H      -0.63054053     -0.38772186      2.28418738
H      -0.48390780      2.11649017      4.77875831
H      -0.70345635      0.30040236      5.22026109
H      -2.00990672      1.19914323      4.31833118
H      10.30518049     -3.78055967     -9.47111305
H      11.25705733     -5.03053140    -10.82952952
H      10.64143982     -5.77287268     -8.99004931
H       4.10182475     -3.36161454     17.64237563
H       1.28263793     -3.81911532     19.65996048
H       7.74521870     -8.10398299      8.20947171
H      17.38442293     -3.76484438     14.58147884
H      -8.58749632     -4.15586293     22.41659364
H       8.62727906      8.84012710      1.00492799
H      -1.21254474     10.01012016     14.99844962
H      10.35843153      8.52185166      4.06747428
H      15.43924596     -2.38755232      1.02222323
H      -1.20511651      8.78448970     12.28645634
H      17.86054573     -0.44584209      2.40282442
H      22.46753003     -0.21577973     -9.67889494
H      12.13418161     -1.50199204      3.29117643
H      20.88603195     -1.47707672     -0.36247112
H       8.91740996      7.36552963      3.62667185
C      15.47906053     -2.36156169     15.47069581
C       8.00283651     -6.99705647      7.97694165
C       2.94821051     -3.04984915     17.63085528
C       1.98367727     -3.48648578     18.79043790
C      16.80380435     -2.73140411     14.70602672
C       9.22467456      9.19545909      1.99415732
C       9.25304018      8.54733133      3.52078970
C      -0.69756252      9.89368390     12.50593954
C      -1.06479030     10.68927327     13.97229033
C      15.75794378     -1.55851314      1.87617750
C      17.03707538     -0.51202722      1.48937036
C      18.09302030     -0.63907722      0.26561480
C      20.21116634     -0.53483183     -0.75777649
C      14.30840897     -1.00396502      2.32490455
C      12.87388707     -0.65478818      2.88372797
H      20.23788713     -0.62614960     -1.97709355
H      -7.54014741     -2.73678496     -3.52984475
H      14.62415471     -2.00164040     16.18004634
H      -8.45920037     -3.48363952     22.79083399
H       7.83117226     -6.09186717      7.27204331
H      17.54136583     -1.95931270     14.18031615
H       2.56399063     -2.39682576     16.70648827
H       9.79089542     10.16646783      1.54832606
H      -0.26410457     11.52649271     14.41281191
H       8.51359019      9.12980397      4.31898468
H      15.96586434     -2.32357540      2.82174500
H      -0.98729826     10.45036660     11.43717420
H      16.71110171      0.66881669      1.35588902
H      22.35842084      0.55429506     -9.73789743
H      12.43866256      0.45547931      2.94680687
H      20.73921795      0.55270112     -0.55300847
H      -2.10217388     11.36400704     14.04063953
   94

C      -9.92559098     -1.68437791     -3.78127284
C      -8.44858822     -2.08381633     -2.99481838
H      -9.71488397     -1.00070937     -4.80414421
C     -11.25198829     -1.05141489     -2.88635740
H     -10.29306422     -2.61530917     -4.52610320
H      -7.72757869     -1.14985306     -2.61170700
C      -0.17888437     -1.64490419     -1.27868414
H      -8.46665262     -2.81363754     -1.99314550
H      -5.82411992     -4.70960327    -13.97117221
H      -5.81640867     -5.47899736    -13.84321409
C       0.96739200     -1.37665744     -2.32192200
H       0.17726116     -0.95580118     -3.17104662
C       2.38552740     -0.51383596     -1.89966161
H       1.03023269     -2.54896053     -2.70284153
H       2.36975253      0.57765828     -2.49616912
H       3.25485724     -0.84344898     -2.73066327
C       3.00877617     -0.36918786     -0.28293012
H       4.25601566     -0.38210403     -0.29298345
C       2.48368490      0.76820953      0.93181603
H       3.16262944     -1.52075569      0.15678064
H       1.97675849      1.76561719      0.39688871
H       3.36384211      1.62770950      1.13272124
C       1.67579823      0.38363991      2.43225135
H       2.36923401      0.78640488      3.38469060
C       3.10158345      3.65600282    -10.58680065
H       2.01521314     -0.71789401      2.90155291
H       2.45557937      4.46413171    -11.04618049
H       0.48402981      9.61264932     12.25968455
C      10.73429181     -4.86142530     -9.76364265
H     -11.14857586      0.07457014     -2.37645257
H     -11.69575303     -1.67475542     -1.91102478
C     -21.48876649     -1.47250170     -2.28229983
H     -12.36252244     -0.87226883     -3.40668604
C      -8.02613256      0.03017972     10.36016213
H     -22.16698497     -2.35751891     -2.28577357
H      -8.08613370      0.90416372      9.59417444
H      -7.96612121     -0.84377955     11.12617728
C      -0.02398385      0.60042430      2.74010711
H      -0.55851523      1.34898442      1.90327374
C      -0.77828278      1.04413328      4.22977277
H      -0.63082339     -0.38733111      2.28312002
H      -0.48044675      2.11702660      4.77776059
H      -0.69972289      0.30034402      5.21990290
H      -2.00722281      1.19981794      4.32073100
H      10.30494075     -3.78066009     -9.47118627
H      11.25671397     -5.03066949    -10.82964379
H      10.64122139     -5.77297443     -8.99011663
H       4.09430867     -3.34720249     17.66878311
H       1.27443029     -3.80469378     19.68638110
H       7.61310592     -8.27922755      8.29641949
H      17.37641071     -3.77132832     14.58613258
H      -8.60170431     -4.15669202     22.42224126
H       8.58135425      8.92593776      1.00841400
H      -1.21177194     10.01020635     14.99868207
H      10.31254422      8.60774121      4.07094646
H      15.29846380     -2.41413442      1.08012918
H      -1.20590495      8.78490358     12.28616273
H      17.72150923     -0.46759207      2.46360558
H      22.50383724     -0.18352557    -10.10902671
H      11.99115924     -1.53025074      3.35378261
H      21.45457431     -1.45603423     -0.40825112
H       8.87151813      7.45140991      3.63018292
C      15.48627388     -2.36071516     15.47411143
C       7.85874427     -7.17285716      8.04756293
C       2.94061499     -3.03570380     17.65766562
C       1.97618331     -3.47244620     18.81728975
C      16.80946460     -2.72963832     14.70723576
C       9.17876357      9.28129087      1.99762622
C       9.20714761      8.63320824      3.52427364
C      -0.69766672      9.89371165     12.50601843
C      -1.06486689     10.68931129     13.97236762
C      15.61539574     -1.58909574      1.93874455
C      16.89309693     -0.54052318      1.55521404
C      17.94225115     -0.67488762      0.33254395
C      20.80391108     -0.51002724     -0.82486007
C      14.16634201     -1.03501876      2.38843082
C      12.73204989     -0.68414612      2.94636362
H      20.80812098     -0.60391477     -2.04127170
H      -7.54376688     -2.73636199     -3.53388757
H      14.62412330     -2.00476974     16.17633229
H      -8.47341100     -3.48446867     22.79648262
H       7.70015783     -6.25628440      7.35397826
H      17.53901624     -1.95105630     14.17908426
H       2.55591787     -2.38268341     16.73350000
H       9.74494474     10.25232003      1.55179134
H      -0.26457802     11.52715036     14.41243502
H       8.46768517      9.21569238      4.32244768
H      15.82428518     -2.35905175      2.88002176
H      -0.98665252     10.45076801     11.43724397
H      16.57173480      0.63998173      1.41059875
H      22.39466515      0.58656152    -10.16775401
H      12.29944691      0.42721605      3.00806225
H      21.30811951      0.58078298     -0.59861928
H      -2.10267673     11.36336399     14.04097721
   94

C      -9.92857229     -1.68514971     -3.78215754
C      -8.45126703     -2.08428099     -2.99610030
H      -9.71768417     -1.00158608     -4.80507124
C     -11.25517274     -1.05179686     -2.88785482
H     -10.29650098     -2.61669143     -4.52601921
H      -7.73037806     -1.15106038     -2.61099046
C      -0.17779873     -1.64396771     -1.27827445
H      -8.46804830     -2.81368096     -1.99410000
H      -5.82400409     -4.70970469    -13.97148930
H      -5.81629287     -5.47909883    -13.84353149
C       0.96908020     -1.37586639     -2.32090447
H       0.17876973     -0.95547440     -3.17004721
C       2.38686177     -0.51236344     -1.89900524
H       1.03297568     -2.54841100     -2.70087582
H       2.37095410      0.57936125     -2.49505607
H       3.25655636     -0.83983688     -2.73044927
C       3.00930936     -0.36931412     -0.28192833
H       4.25651208     -0.38501690     -0.29035379
C       2.48443765      0.76914260      0.93179090
H       3.16134809     -1.52115399      0.15768754
H       1.97783742      1.76688645      0.39715057
H       3.36487176      1.62852323      1.13199011
C       1.67613957      0.38457576      2.43186952
H       2.36968471      0.78816155      3.38385052
C       3.10157677      3.65600806    -10.58680740
H       2.01556404     -0.71666402      2.90184340
H       2.45557096      4.46413427    -11.04618951
H       0.48384433      9.61192936     12.26017958
C      10.73423373     -4.86144123     -9.76359153
H     -11.15153065      0.07407953     -2.37777381
H     -11.69965510     -1.67522996     -1.91290568
C     -21.49230555     -1.47259408     -2.28203872
H     -12.36531928     -0.87201100     -3.40882653
C      -8.02618901      0.03019369     10.36017989
H     -22.17052492     -2.35761061     -2.28551233
H      -8.08618764      0.90417357      9.59418726
H      -7.96618171     -0.84376345     11.12619781
C      -0.02381012      0.60048519      2.73914380
H      -0.55985985      1.34738013      1.90175244
C      -0.77586697      1.04443194      4.22980613
H      -0.63111095     -0.38695647      2.28207903
H      -0.47698337      2.11754934      4.77678241
H      -0.69598504      0.30027104      5.21956583
H      -2.00453040      1.20047969      4.32315416
H      10.30489800     -3.78067106     -9.47113238
H      11.25659239     -5.03070979    -10.82961963
H      10.64118765     -5.77298852     -8.99006092
H       4.08681668     -3.33281781     17.69513290
H       1.26624912     -3.79026806     19.71276564
H       7.48121424     -8.45409924      8.38385383
H      17.36823831     -3.77773577     14.59061712
H      -8.61591015     -4.15752089     22.42788816
H       8.53542547      9.01164262      1.01189312
H      -1.21099393     10.01028931     14.99891011
H      10.26667098      8.69347751      4.07438883
H      15.15582054     -2.44112462      1.14047724
H      -1.20668534      8.78531420     12.28586527
H      17.58778977     -0.49210972      2.51795233
H      22.53946028     -0.15153396    -10.53680632
H      11.84683766     -1.55833143      3.41725521
H      22.03115030     -1.43406764     -0.45868461
H       8.82563324      7.53714593      3.63366079
C      15.49358745     -2.35984324     15.47742196
C       7.71354499     -7.34874694      8.11718680
C       2.93304574     -3.02157714     17.68443005
C       1.96871787     -3.45841027     18.84410468
C      16.81523804     -2.72789732     14.70830569
C       9.13285868      9.36700588      2.00108601
C       9.16126434      8.71894174      3.52773767
C      -0.69776360      9.89373579     12.50609353
C      -1.06493796     10.68934552     13.97244090
C      15.47208705     -1.61943927      2.00278768
C      16.74795914     -0.56908504      1.62061256
C      17.78361022     -0.71083156      0.39317897
C      21.40105552     -0.48413698     -0.88941289
C      14.02364367     -1.06606236      2.45421623
C      12.58908569     -0.71342026      3.00998210
H      21.36843275     -0.58183674     -2.10233538
H      -7.54738874     -2.73593291     -3.53792424
H      14.62416390     -2.00797950     16.17236873
H      -8.48761935     -3.48529757     22.80213043
H       7.56915565     -6.42014408      7.43620755
H      17.53652820     -1.94277088     14.17764085
H       2.54787174     -2.36856593     16.76046123
H       9.69899751     10.33806078      1.55525573
H      -0.26504670     11.52780385     14.41205452
H       8.42179630      9.30143770      4.32589700
H      15.68312943     -2.39365942      2.93993748
H      -0.98599989     10.45116519     11.43731037
H      16.43217134      0.61158230      1.46803889
H      22.43030390      0.61856044    -10.59546483
H      12.15916484      0.39906747      3.07006151
H      21.88601273      0.60902186     -0.64931549
H      -2.10317360     11.36271686     14.04131109
   94

C      -9.93155381     -1.68592184     -3.78304175
C      -8.45394627     -2.08474642     -2.99738111
H      -9.72048491     -1.00246330     -4.80599794
C     -11.25835721     -1.05217923     -2.88935200
H     -10.29993706     -2.61807377     -4.52593346
H      -7.73317728     -1.15227226     -2.61027625
C      -0.17672741     -1.64304002     -1.27785725
H      -8.46944531     -2.81372645     -1.99505613
H      -5.82388485     -4.70980560    -13.97180485
H      -5.81617369     -5.47919980    -13.84384738
C       0.97075537     -1.37508153     -2.31987691
H       0.18026885     -0.95515328     -3.16904009
C       2.38817753     -0.51089195     -1.89833542
H       1.03570923     -2.54786592     -2.69889918
H       2.37214202      0.58106300     -2.49392926
H       3.25824105     -0.83622653     -2.73021129
C       3.00980331     -0.36944599     -0.28090702
H       4.25696051     -0.38793344     -0.28770668
C       2.48515884      0.77007395      0.93178401
H       3.16002803     -1.52155668      0.15861088
H       1.97888410      1.76815374      0.39743092
H       3.36586696      1.62933820      1.13127610
C       1.67646020      0.38549213      2.43150731
H       2.37011119      0.78989958      3.38303109
C       3.10159411      3.65601078    -10.58680054
H       2.01589123     -0.71545332      2.90215650
H       2.45558438      4.46413209    -11.04618581
H       0.48366370      9.61120773     12.26067079
C      10.73435793     -4.86137641     -9.76344199
H     -11.15448562      0.07358849     -2.37909487
H     -11.70355740     -1.67570428     -1.91478674
C     -21.49584492     -1.47268646     -2.28177768
H     -12.36811522     -0.87175381     -3.41096695
C      -8.02624420      0.03020602     10.36019958
H     -22.17406519     -2.35770231     -2.28525117
H      -8.08624084      0.90418180      9.59420208
H      -7.96624047     -0.84374895     11.12622031
C      -0.02365514      0.60053191      2.73820176
H      -0.56122004      1.34576315      1.90025821
C      -0.77345880      1.04471748      4.22986149
H      -0.63141736     -0.38659574      2.28105990
H      -0.47352878      2.11805922      4.77582255
H      -0.69225389      0.30018377      5.21924784
H      -2.00184038      1.20112939      4.32559944
H      10.30502931     -3.78060400     -9.47098275
H      11.25667514     -5.03066112    -10.82948730
H      10.64131455     -5.77292646     -8.98991506
H       4.07934543     -3.31846700     17.72142471
H       1.25809228     -3.77584067     19.73911540
H       7.34961413     -8.62854297      8.47182709
H      17.35991660     -3.78406541     14.59497185
H      -8.63011422     -4.15834964     22.43353460
H       8.48947867      9.09725871      1.01536787
H      -1.21021213     10.01037007     14.99913461
H      10.22078555      8.77908925      4.07781226
H      15.01119945     -2.46862919      1.20233878
H      -1.20745956      8.78572293     12.28556474
H      17.45211039     -0.51618277      2.57452450
H      22.57491407     -0.11972401    -10.96304003
H      11.70037469     -1.58632835      3.48169035
H      22.61603449     -1.41195115     -0.51516600
H       8.77973128      7.62276197      3.63711318
C      15.50100078     -2.35895101     15.48065033
C       7.56713865     -7.52479066      8.18571775
C       2.92549983     -3.00747431     17.71114850
C       1.96127850     -3.44438133     18.87088346
C      16.82112774     -2.72618932     14.70926207
C       9.08694024      9.45262473      2.00454139
C       9.11536628      8.80455596      3.53118805
C      -0.69785501      9.89375769     12.50616558
C      -1.06500495     10.68937710     13.97251108
C      15.32653146     -1.65055172      2.06864961
C      16.59942347     -0.59660862      1.68993609
C      17.61813468     -0.74666689      0.45556537
C      22.00752626     -0.45812834     -0.96022969
C      13.87862332     -1.09796149      2.52129092
C      12.44399777     -0.74265912      3.07454826
H      21.93395595     -0.55965252     -2.16827589
H      -7.55101364     -2.73549802     -3.54195510
H      14.62428791     -2.01126894     16.16818410
H      -8.50182580     -3.48612634     22.80777772
H       7.43824337     -6.58347177      7.51882693
H      17.53390971     -1.93446171     14.17603437
H       2.53984880     -2.35447866     16.78737205
H       9.65303461     10.42371048      1.55872409
H      -0.26551203     11.52845427     14.41167129
H       8.37589712      9.38706237      4.32933798
H      15.53989603     -2.42919121      3.00141617
H      -0.98534219     10.45155954     11.43737416
H      16.28933618      0.58411883      1.52926381
H      22.46580705      0.65037058    -11.02178342
H      12.01715880      0.37108713      3.13284309
H      22.47188295      0.63744926     -0.70597153
H      -2.10366591     11.36206677     14.04164202
   94

C      -9.93453489     -1.68669438     -3.78392521
C      -8.45662526     -2.08521265     -2.99866060
H      -9.72328556     -1.00334108     -4.80692406
C     -11.26154114     -1.05256207     -2.89084880
H     -10.30337180     -2.61945623     -4.52584569
H      -7.73597563     -1.15348872     -2.60956420
C      -0.17566451     -1.64212042     -1.27743255
H      -8.47084295     -2.81377400     -1.99601364
H      -5.82376235     -4.70990601    -13.97211889
H      -5.81605132     -5.47930026    -13.84416175
C       0.97242385     -1.37430214     -2.31883892
H       0.18176473     -0.95483696     -3.16802472
C       2.38948191     -0.50942176     -1.89765204
H       1.03843902     -2.54732464     -2.69691114
H       2.37332380      0.58276302     -2.49278902
H       3.25991865     -0.83261867     -2.72994891
C       3.01026733     -0.36958172     -0.27986705
H       4.25737032     -0.39085196     -0.28504220
C       2.48585451      0.77100443      0.93179392
H       3.15867798     -1.52196199      0.15954995
H       1.97990538      1.76942023      0.39772826
H       3.36683412      1.63015460      1.13057890
C       1.67676144      0.38639140      2.43116119
H       2.37051357      0.79162117      3.38222971
C       3.10163315      3.65601134    -10.58678144
H       2.01619460     -0.71425982      2.90248886
H       2.45561761      4.46412583    -11.04617068
H       0.48348827      9.61048445     12.26115775
C      10.73462964     -4.86124612     -9.76322855
H     -11.15744024      0.07309693     -2.38041559
H     -11.70745938     -1.67617846     -1.91666781
C     -21.49938449     -1.47277886     -2.28151670
H     -12.37090970     -0.87149736     -3.41310713
C      -8.02629724      0.03021622     10.36022096
H     -22.17760566     -2.35779402     -2.28499007
H      -8.08629249      0.90418794      9.59421868
H      -7.96629650     -0.84373656     11.12624446
C      -0.02351761      0.60056588      2.73727824
H      -0.56259348      1.34413518      1.89878795
C      -0.77105770      1.04498989      4.22993620
H      -0.63174101     -0.38624741      2.28005926
H      -0.47008287      2.11855605      4.77487902
H      -0.68852947      0.30008180      5.21894607
H      -1.99915225      1.20176684      4.32806392
H      10.30530041     -3.78047421     -9.47077084
H      11.25693187     -5.03053682    -10.82927961
H      10.64156837     -5.77280318     -8.98971289
H       4.07189384     -3.30415554     17.74765550
H       1.24995966     -3.76141357     19.76542900
H       7.21837941     -8.80245054      8.56033889
H      17.35145230     -3.79031279     14.59922585
H      -8.64431636     -4.15917832     22.43918043
H       8.44350850      9.18278869      1.01884263
H      -1.20942637     10.01044844     14.99935515
H      10.17487959      8.86458119      4.08122317
H      14.86510619     -2.49656562      1.26484900
H      -1.20822722      8.78612966     12.28526068
H      17.31280473     -0.53924107      2.63453475
H      22.61047354     -0.08803567    -11.38838863
H      11.55234404     -1.61427568      3.54676127
H      23.20554437     -1.39014287     -0.57489194
H       8.73380916      7.70825749      3.64054388
C      15.50850689     -2.35804115     15.48380493
C       7.41948636     -7.70101883      8.25307797
C       2.91797648     -2.99339979     17.73781821
C       1.95386481     -3.43036225     18.89762419
C      16.82712869     -2.72452046     14.71011432
C       9.04100041      9.53815123      2.00799786
C       9.06944597      8.89005165      3.53462918
C      -0.69794063      9.89377726     12.50623416
C      -1.06506769     10.68940584     13.97257776
C      15.17904751     -1.68244520      2.13558235
C      16.44806781     -0.62337263      1.76231996
C      17.44911466     -0.78230386      0.52110298
C      22.62320636     -0.43211634     -1.03766571
C      13.73166079     -1.13054527      2.58888133
C      12.29730114     -0.77185207      3.13972147
H      22.50657249     -0.53726253     -2.23909509
H      -7.55464087     -2.73505738     -3.54597993
H      14.62450303     -2.01463390     16.16379613
H      -8.51603021     -3.48695501     22.81342432
H       7.30752178     -6.74632003      7.60191166
H      17.53116273     -1.92613222     14.17429951
H       2.53184821     -2.34042616     16.81422969
H       9.60704373     10.50927643      1.56220365
H      -0.26597387     11.52910149     14.41128501
H       8.32997834      9.47256470      4.33277512
H      15.39459250     -2.46571343      3.06375322
H      -0.98467911     10.45195098     11.43743492
H      16.14348385      0.55714138      1.59258086
H      22.50142137      0.68205212    -11.44731756
H      11.87388807      0.34325605      3.19615042
H      23.06185208      0.66637744     -0.76575425
H      -2.10415352     11.36141349     14.04196963
   94

C      -9.93751463     -1.68746740     -3.78480757
C      -8.45930302     -2.08567965     -2.99993847
H      -9.72608530     -1.00421949     -4.80784929
C     -11.26472377     -1.05294548     -2.89234500
H     -10.30680433     -2.62083890     -4.52575557
H      -7.73877211     -1.15470974     -2.60885404
C      -0.17460160     -1.64120774     -1.27699934
H      -8.47224021     -2.81382354     -1.99697218
H      -5.82363671     -4.71000592    -13.97243132
H      -5.81592586     -5.47940023    -13.84447454
C       0.97409485     -1.37352701     -2.31778881
H       0.18326630     -0.95452419     -3.16699931
C       2.39078559     -0.50795359     -1.89695286
H       1.04117319     -2.54678604     -2.69490998
H       2.37451026      0.58446034     -2.49163375
H       3.26159995     -0.82901444     -2.72965964
C       3.01071657     -0.36971996     -0.27880786
H       4.25775682     -0.39377141     -0.28235814
C       2.48653569      0.77193435      0.93182038
H       3.15731215     -1.52236840      0.16050573
H       1.98091318      1.77068664      0.39804243
H       3.36778506      1.63097166      1.12989953
C       1.67704825      0.38727618      2.43082834
H       2.37089603      0.79332849      3.38144434
C       3.10169169      3.65600999    -10.58675079
H       2.01647801     -0.71308121      2.90283769
H       2.45566877      4.46411593    -11.04614486
H       0.48331886      9.60975924     12.26163970
C      10.73501324     -4.86106461     -9.76297714
H     -11.16039379      0.07260476     -2.38173577
H     -11.71136028     -1.67665261     -1.91854869
C     -21.50292411     -1.47287127     -2.28125574
H     -12.37370195     -0.87124178     -3.41524690
C      -8.02634692      0.03022379     10.36024366
H     -22.18114621     -2.35788572     -2.28472899
H      -8.08634145      0.90419153      9.59423673
H      -7.96634852     -0.84372681     11.12626988
C      -0.02339294      0.60058872      2.73637045
H      -0.56397463      1.34249801      1.89733848
C      -0.76866116      1.04524937      4.23002710
H      -0.63207722     -0.38590964      2.27907374
H      -0.46664355      2.11903980      4.77394937
H      -0.68480999      0.29996494      5.21865719
H      -1.99646354      1.20239208      4.33054405
H      10.30567725     -3.78029558     -9.47052098
H      11.25732715     -5.03035057    -10.82902261
H      10.64191649     -5.77263185     -8.98947857
H       4.06446094     -3.28988815     17.77382267
H       1.24185110     -3.74698876     19.79170508
H       7.08755000     -8.97568697      8.64932828
H      17.34285038     -3.79647266     14.60340584
H      -8.65851631     -4.16000694     22.44482538
H       8.39751351      9.26823190      1.02232080
H      -1.20863616     10.01052398     14.99957103
H      10.12895009      8.94995346      4.08462583
H      14.71819485     -2.52472487      1.32751766
H      -1.20898741      8.78653402     12.28495234
H      17.17065176     -0.56156080      2.69696390
H      22.64624227     -0.05641929    -11.81342541
H      11.40345350     -1.64218377      3.61214405
H      23.79566341     -1.36920960     -0.63488332
H       8.68786822      7.79362873      3.64395561
C      15.51609503     -2.35711622     15.48689047
C       7.27061994     -7.87743351      8.31926833
C       2.91047492     -2.97935760     17.76443668
C       1.94647630     -3.41635579     18.92432500
C      16.83323076     -2.72289692     14.71086657
C       8.99503600      9.62358555      2.01145962
C       9.02350090      8.97542626      3.53806418
C      -0.69801963      9.89379418     12.50629859
C      -1.06512562     10.68943135     13.97264027
C      15.03042122     -1.71480203      2.20294148
C      16.29513603     -0.64979250      1.83620722
C      17.27916426     -0.81770538      0.58909543
C      23.24837733     -0.40600470     -1.12071083
C      13.58355376     -1.16349032      2.65656782
C      12.14971286     -0.80099976      3.20519448
H      23.08278546     -0.51479566     -2.31283252
H      -7.55826942     -2.73461098     -3.54999836
H      14.62481461     -2.01806870     16.15922100
H      -8.53023231     -3.48778361     22.81906997
H       7.17705389     -6.90880940      7.68552419
H      17.52828664     -1.91778605     14.17246812
H       2.52386923     -2.32641235     16.84103172
H       9.56101766     10.59476182      1.56569994
H      -0.26643176     11.52974512     14.41089510
H       8.28403616      9.55794062      4.33621153
H      15.24793758     -2.50282674      3.12640412
H      -0.98400982     10.45233917     11.43749194
H      15.99580930      0.53024735      1.65658784
H      22.53723649      0.71365679    -11.87258747
H      11.72992794      0.31552172      3.25973580
H      23.65200908      0.69623050     -0.82585080
H      -2.10463591     11.36075658     14.04229321
   94

C      -9.94049229     -1.68824095     -3.78568856
C      -8.46197873     -2.08614744     -3.00121449
H      -9.72888340     -1.00509861     -4.80877334
C     -11.26790444     -1.05332956     -2.89384044
H     -10.31023391     -2.62222183     -4.52566280
H      -7.74156585     -1.15593532     -2.60814555
C      -0.17353128     -1.64030070     -1.27655692
H      -8.47363626     -2.81387504     -1.99793147
H      -5.82350801     -4.71010532    -13.97274204
H      -5.81579739     -5.47949969    -13.84478563
C       0.97577669     -1.37275485     -2.31672504
H       0.18478174     -0.95421362     -3.16596231
C       2.39209831     -0.50648805     -1.89623561
H       1.04391907     -2.54624895     -2.69289419
H       2.37571139      0.58615402     -2.49046189
H       3.26329494     -0.82541491     -2.72934078
C       3.01116468     -0.36985926     -0.27772866
H       4.25813386     -0.39669081     -0.27965170
C       2.48721190      0.77286431      0.93186319
H       3.15594308     -1.52277431      0.16147954
H       1.98191811      1.77195399      0.39837316
H       3.36873020      1.63178880      1.12923918
C       1.67732399      0.38814961      2.43050597
H       2.37126111      0.79502421      3.38067303
C       3.10176792      3.65600684    -10.58670887
H       2.01674360     -0.71191464      2.90320021
H       2.45573630      4.46410268    -11.04610871
H       0.48315623      9.60903196     12.26211595
C      10.73547645     -4.86084390     -9.76270414
H     -11.16334563      0.07211189     -2.38305524
H     -11.71525946     -1.67712680     -1.92042920
C     -21.50646361     -1.47296370     -2.28099478
H     -12.37649135     -0.87098717     -3.41738608
C      -8.02639228      0.03022823     10.36026742
H     -22.18468668     -2.35797742     -2.28446792
H      -8.08638685      0.90419211      9.59425604
H      -7.96639546     -0.84372025     11.12629623
C      -0.02327813      0.60060262      2.73547552
H      -0.56535943      1.34085403      1.89590640
C      -0.76626810      1.04549678      4.23013092
H      -0.63242292     -0.38558003      2.27809978
H      -0.46321017      2.11951110      4.77303108
H      -0.68109526      0.29983374      5.21837781
H      -1.99377330      1.20300590      4.33303611
H      10.30612976     -3.78007966     -9.47024781
H      11.25782525     -5.03011511    -10.82873434
H      10.64233088     -5.77242312     -8.98922619
H       4.05704520     -3.27566874     17.79992513
H       1.23376576     -3.73256846     19.81794315
H       6.95710637     -9.14810876      8.73865596
H      17.33411549     -3.80253924     14.60753668
H      -8.67271385     -4.16083556     22.45046922
H       8.35149339      9.35358882      1.02580472
H      -1.20784103     10.01059637     14.99978160
H      10.08299491      9.03520794      4.08802362
H      14.57093354     -2.55294361      1.39014176
H      -1.20973934      8.78693578     12.28463902
H      17.02676006     -0.58347198      2.76072865
H      22.68220852     -0.02483682    -12.23858279
H      11.25416970     -1.67005783      3.67762884
H      24.38238248     -1.34989172     -0.69241375
H       8.64190876      7.87887539      3.64735115
C      15.52375240     -2.35617920     15.48991027
C       7.12067700     -8.05399373      8.38441682
C       2.90299376     -2.96535129     17.79100255
C       1.93911180     -3.40236475     18.95098491
C      16.83942034     -2.72132500     14.71151948
C       8.94904525      9.70892898      2.01492957
C       8.97752928      9.06068009      3.54149564
C      -0.69809129      9.89380821     12.50635821
C      -1.06517827     10.68945330     13.97269797
C      14.88125347     -1.74735873      2.27038832
C      16.14151998     -0.67609786      1.91064120
C      17.10950071     -0.85289785      0.65866119
C      23.88821387     -0.37956094     -1.21055334
C      13.43489213     -1.19657825      2.72418049
C      12.00172291     -0.83010941      3.27077969
H      23.65747573     -0.49249805     -2.38761474
H      -7.56189844     -2.73415887     -3.55401011
H      14.62522671     -2.02156678     16.15447516
H      -8.54443191     -3.48861221     22.82471446
H       7.04683527     -7.07113909      7.76969484
H      17.52527971     -1.90942740     14.17057029
H       2.51591048     -2.31244045     16.86777706
H       9.51495242     10.68016956      1.56921648
H      -0.26688530     11.53038488     14.41050102
H       8.23806803      9.64318983      4.33964952
H      15.10055403     -2.54019831      3.18909090
H      -0.98333360     10.45272390     11.43754459
H      15.84726316      0.50325489      1.72060612
H      22.57323783      0.74522562    -12.29798191
H      11.58566456      0.28784127      3.32344006
H      24.23842588      0.72757861     -0.88373417
H      -2.10511262     11.36009569     14.04261215
   94

C      -9.94346733     -1.68901512     -3.78656797
C      -8.46465181     -2.08661606     -3.00248848
H      -9.73167937     -1.00597850     -4.80969602
C     -11.27108270     -1.05371439     -2.89533501
H     -10.31366001     -2.62360507     -4.52556718
H      -7.74435624     -1.15716550     -2.60743860
C      -0.17244764     -1.63939794     -1.27610499
H      -8.47503050     -2.81392850     -1.99889130
H      -5.82337628     -4.71020419    -13.97305099
H      -5.81566596     -5.47959863    -13.84509494
C       0.97747624     -1.37198438     -2.31564642
H       0.18631794     -0.95390384     -3.16491264
C       2.39342815     -0.50502560     -1.89549822
H       1.04668265     -2.54571214     -2.69086258
H       2.37693571      0.58784333     -2.48927200
H       3.26501208     -0.82182106     -2.72898964
C       3.01162285     -0.36999816     -0.27662849
H       4.25851275     -0.39960934     -0.27691966
C       2.48789039      0.77379520      0.93192213
H       3.15458056     -1.52317812      0.16247281
H       1.98292875      1.77322362      0.39872001
H       3.36967764      1.63260571      1.12859911
C       1.67758990      0.38901530      2.43019132
H       2.37160906      0.79671150      3.37991398
C       3.10186022      3.65600200    -10.58665578
H       2.01699119     -0.71075682      2.90357383
H       2.45581887      4.46408631    -11.04606247
H       0.48300093      9.60830262     12.26258590
C      10.73599096     -4.86059421     -9.76241841
H     -11.16629533      0.07161824     -2.38437390
H     -11.71915646     -1.67760111     -1.92230923
C     -21.51000291     -1.47305617     -2.28073379
H     -12.37927742     -0.87073363     -3.41952457
C      -8.02643268      0.03022904     10.36029209
H     -22.18822698     -2.35806913     -2.28420682
H      -8.08642815      0.90418924      9.59427652
H      -7.96643656     -0.84371742     11.12632331
C      -0.02317225      0.60061031      2.73459047
H      -0.56674569      1.33920621      1.89448821
C      -0.76387928      1.04573367      4.23024442
H      -0.63277707     -0.38525558      2.27713371
H      -0.45978378      2.11997126      4.77212163
H      -0.67738705      0.29968944      5.21810460
H      -1.99108234      1.20360982      4.33553635
H      10.30663207     -3.77983606     -9.46995860
H      11.25839229     -5.02984221    -10.82842623
H      10.64278813     -5.77218567     -8.98896216
H       4.04964455     -3.26150028     17.82596336
H       1.22570212     -3.71815504     19.84414357
H       6.82695268     -9.31959248      8.82809637
H      17.32525269     -3.80850620     14.61164076
H      -8.68690883     -4.16166424     22.45611177
H       8.30544796      9.43886178      1.02929604
H      -1.20704068     10.01066543     14.99998634
H      10.03701180      9.12034894      4.09141952
H      14.42358825     -2.58113016      1.45266232
H      -1.21048241      8.78733488     12.28432011
H      16.88193670     -0.60519660      2.82512001
H      22.71830523      0.00673792    -12.66412498
H      11.10474069     -1.69790270      3.74309549
H      24.96169414     -1.33102896     -0.74609916
H       8.59592942      7.96400097      3.65073351
C      15.53146484     -2.35523347     15.49286627
C       6.96993382     -8.23059910      8.44881100
C       2.89553097     -2.95138384     17.81751575
C       1.93176942     -3.38839189     18.97760390
C      16.84568099     -2.71981092     14.71207021
C       8.90302679      9.79418466      2.01840983
C       8.93152915      9.14581673      3.54492588
C      -0.69815505      9.89381933     12.50641249
C      -1.06522528     10.68947156     13.97275033
C      14.73189307     -1.77996197      2.33778278
C      15.98770553     -0.70238050      1.98517795
C      16.94050580     -0.88792235      0.72918067
C      24.55053371     -0.35249868     -1.31015441
C      13.28601542     -1.22969411      2.79167187
C      11.85359937     -0.85918918      3.33637797
H      24.22631529     -0.47049347     -2.46039133
H      -7.56552731     -2.73370113     -3.55801499
H      14.62574240     -2.02512091     16.14957516
H      -8.55862885     -3.48944086     22.83035763
H       6.91678070     -7.23357025      7.85439298
H      17.52213991     -1.90106107     14.16863373
H       2.50796989     -2.29851294     16.89446602
H       9.46884591     10.76550319      1.57275535
H      -0.26733419     11.53102064     14.41010233
H       8.19207158      9.72831592      4.34309110
H      14.95283314     -2.57763246      3.25170161
H      -0.98264991     10.45310514     11.43759232
H      15.69840067      0.47611073      1.78439301
H      22.60936166      0.77678746    -12.72373668
H      11.44130813      0.26018747      3.38717329
H      24.81739445      0.75897419     -0.93775787
H      -2.10558335     11.35943064     14.04292596
   94

C      -9.94653549     -1.68996938     -3.78720534
C      -8.46723370     -2.08722077     -3.00381925
H      -9.73431201     -1.00690493     -4.81024235
C     -11.27455639     -1.05410020     -2.89704740
H     -10.31759448     -2.62558703     -4.52450317
H      -7.74691094     -1.15934149     -2.60519661
C      -0.16864670     -1.63821849     -1.27418344
H      -8.47521270     -2.81330396     -1.99930667
H      -5.82327299     -4.71031834    -13.97335978
H      -5.81556180     -5.47971233    -13.84540111
C       0.98218275     -1.37115738     -2.31282113
H       0.19040352     -0.95361569     -3.16172290
C       2.39805510     -0.50368741     -1.89349999
H       1.05284663     -2.54531625     -2.68637331
H       2.38135327      0.58953266     -2.48661354
H       3.26987575     -0.81663368     -2.72816007
C       3.01622126     -0.37151371     -0.27452943
H       4.26297596     -0.40616499     -0.27205957
C       2.49271636      0.77394109      0.93232887
H       3.15622376     -1.52508349      0.16441764
H       1.98857897      1.77421292      0.39983933
H       3.37522364      1.63227123      1.12781583
C       1.68108127      0.38943985      2.42973262
H       2.37529863      0.79844892      3.37868252
C       3.10166687      3.65598425    -10.58674141
H       2.02040618     -0.70986703      2.90421513
H       2.45566006      4.46411171    -11.04612010
H       0.48359399      9.60719097     12.26259760
C      10.73503642     -4.86111299     -9.76333211
H     -11.16945086      0.07110768     -2.38590816
H     -11.72378618     -1.67810958     -1.92462388
C     -21.51356975     -1.47315187     -2.28045991
H     -12.38209980     -0.87017336     -3.42234928
C      -8.02600585      0.03015509     10.36013751
H     -22.19178648     -2.35817040     -2.28393394
H      -8.08601750      0.90413702      9.59414833
H      -7.96599032     -0.84381824     11.12613618
C      -0.02006781      0.59980252      2.73261346
H      -0.56627448      1.33526709      1.89134989
C      -0.75768849      1.04533092      4.22958589
H      -0.63070746     -0.38525225      2.27472120
H      -0.45179202      2.11992418      4.76970984
H      -0.66928806      0.29840131      5.21662227
H      -1.98435566      1.20404116      4.33884764
H      10.30562423     -3.78036640     -9.47089741
H      11.25763177     -5.03029276    -10.82925818
H      10.64185328     -5.77267981     -8.98984073
H       4.04270976     -3.24752054     17.85171258
H       1.21780860     -3.70391082     19.87019475
H       6.69623601     -9.50107348      8.92591232
H      17.30909618     -3.81971051     14.62149565
H      -8.70101793     -4.16259184     22.46177845
H       8.25872919      9.53045194      1.03372725
H      -1.20547017     10.01047711     14.99962220
H       9.98988334      9.21202758      4.09616558
H      14.25879809     -2.60927400      1.51697997
H      -1.21064915      8.78765474     12.28325356
H      16.71887752     -0.62012965      2.89562350
H      22.75804914      0.03922184    -13.10207148
H      10.93217692     -1.72564220      3.80524110
H      25.57955124     -1.30123948     -0.80875813
H       8.54876765      8.05574838      3.65550448
C      15.54365658     -2.35559275     15.49418646
C       6.81209499     -8.41869075      8.51586859
C       2.88849627     -2.93772849     17.84404308
C       1.92467991     -3.37465421     19.00411723
C      16.85656317     -2.71773124     14.71019512
C       8.85608646      9.88576125      2.02298825
C       8.88444002      9.23753586      3.54958406
C      -0.69745919      9.89364132     12.50586130
C      -1.06468543     10.68923176     13.97220292
C      14.56123463     -1.81591267      2.41136887
C      15.80811644     -0.72532491      2.07491570
C      16.73099489     -0.92812363      0.81200931
C      25.27142579     -0.32303945     -1.43092745
C      13.11565613     -1.26537280      2.86156604
C      11.68348673     -0.88857819      3.40021765
H      24.83513233     -0.44778626     -2.53995785
H      -7.57023736     -2.73293633     -3.56454180
H      14.63009658     -2.03008487     16.14177843
H      -8.57271924     -3.49036836     22.83601772
H       6.78499036     -7.40355459      7.94852793
H      17.51608367     -1.88369999     14.16707779
H       2.50021071     -2.28475049     16.92138386
H       9.42230977     10.85678934      1.57719811
H      -0.26735058     11.53158358     14.40903692
H       8.14499746      9.81996554      4.34781829
H      14.78442876     -2.62181409      3.31708332
H      -0.98094658     10.45338669     11.43700787
H      15.52916772      0.45123143      1.85259602
H      22.64914649      0.80928420    -13.16160445
H      11.27626332      0.23270927      3.44650661
H      25.43615607      0.78310664     -0.99766534
H      -2.10559449     11.35831183     14.04268649
