   94

C      10.83148750     -8.23601126     -9.00267670
C      -0.01655938    -10.70209306     -9.72690632
H      10.93892436     -7.33953351     -8.15631233
C      -0.23664293     -0.97244553      8.27747989
H      -4.94895465      6.04397474     -1.74247483
H      -0.25046518     -9.91399499     -8.90327125
C       0.93735986     -1.05525131      9.41824082
H      10.01527430     -8.94448834     -8.39661844
H      -8.82389101     -7.11496087    -18.93572149
H      -8.81617982     -7.88435486    -18.80776282
C       6.50598000     -0.37760911     -2.73110779
H      16.07331130      6.48611777     13.52058838
C       8.31757268     -9.93532585      5.43549179
H       8.39791908     12.86147721      3.40416414
H       8.55207890     -9.32426740      4.46039122
H       2.50425844    -10.90118632     17.33758517
C       6.58249631    -10.70434127      7.47492304
H       5.47618552    -10.77352732      6.99576621
C       7.92033879     13.03324709      5.85610152
H       6.28841461    -10.55367527      8.63721186
H       9.57610839     13.93411951      7.14731375
H       6.83779598     13.57632281      5.68198581
C       8.45111577     12.24296788      4.47107722
H      16.85711207      2.91586041     -5.08188573
C      15.75328332      2.69589495     -4.97132326
H       4.37195220      0.38555743     -2.32678203
H       7.89681562     11.15753004      4.26619084
H      -2.21947149     10.71285114     11.84582056
C      12.21297949     -8.99330512     -9.67018020
H      -1.27776364     -0.61064764      8.79372715
H      -4.95527648      6.07625749     -1.62412858
C       2.91739175     -2.85411682     -1.93334435
H       0.87897959     -2.15122604      9.93833506
C       1.47819573    -10.71751696     17.93036419
H       2.17641751     -2.68393295     -1.01090509
H     -10.96213609    -12.27297242     15.66815272
H       1.07348491     -9.60107587     18.09678088
C      -6.58073908     -0.67092922     -9.27227797
H      -1.83650292      7.40780694     -1.72146008
C      -1.96943378      9.44270854     -1.90072804
H      -7.08490647      0.23564898     -9.79964541
H      -1.81637873     10.38346484     -1.12724460
H      -0.76176749      9.38978530     -2.15409492
H      -1.92366786     10.48626108     -2.53628902
H      12.48195669     -8.66803795    -10.83738336
H      12.04729159    -10.16319614    -10.05223683
H      14.01648898     -9.63643020     -7.87355941
H       3.40940040      1.24439208      7.83177091
H       1.44403326      1.02218569     10.41091004
H       0.85684386    -11.65028868     18.35672652
H       8.18659056      0.47343475     -4.22951999
H      -9.42675544     -2.95204824     23.99740376
H       6.85090182     13.27708507      9.28857956
H       9.03581165     12.10177810      7.65004507
H       3.07799992     -0.54638094     12.29172128
H      26.59603254      7.39406717     -2.17340260
H      -4.25326953      9.63372674     11.50538421
H      27.28620609      7.54244290     -1.84167305
H       0.56574980     -2.03131752      6.15797246
H       8.33851350    -11.97852200      6.44949904
H      10.06362218     -7.60566932     -9.74227481
H       4.37226476     -0.55440417     11.03949461
C      -0.26112939     -1.25253678      6.63586113
C     -10.36016020    -12.21606716     16.66242232
C       2.83240058      0.72739586      8.71496893
C       2.05612044      0.05418611      9.95485426
C       7.77566288      0.46237251     -3.10840246
C       7.89763469     13.78826647      8.86473215
C       3.18165275     -0.35773812     11.10255615
C      -3.23637051     10.17328894     11.67560239
C       8.58287432     13.22859851      7.39375473
C      -3.88627404      6.61352749     -1.78350181
C       4.14213205     -1.90640497     -2.18170217
C       4.99877773     -0.62111106     -2.40549283
C      13.62380280     -8.93887257     -8.78169094
C      -2.86196928      7.98236004     -1.81951431
C       8.06801863    -10.81825271      6.75772750
H       9.63087401     11.90710417      4.33208083
H       0.21718049    -11.49019735    -10.55058255
H      -1.28088695     -1.77106989      6.17505445
H      -9.29845674     -2.27982476     24.37164303
H      -9.75818431    -12.15916191     17.65669192
H      15.89747689      7.23957088     13.42164096
H       8.29098057      1.17898848     -2.30219176
H       8.56317563     13.71275016      9.91116573
H       7.56179277     14.97525898      8.98706487
H      -6.07657169     -1.57750739     -8.74491046
H      -3.27881515      5.54877101     -1.90096939
H      -7.59898053     21.21843440      9.78166394
H       2.65279516     -3.74217560     -2.68488085
H      -0.10887564     -0.23669162      5.95205608
H       9.00745792    -10.50324290      7.48638127
H      14.56213712     -8.17521496     -8.82872724
H      -7.73219206     21.22705360     10.55015623
   94

C      10.83202144     -8.23669713     -9.00308653
C      -0.03208881    -10.77335231     -9.76657840
H      10.93955850     -7.33869047     -8.15835668
C      -0.23549927     -0.97505665      8.28213223
H      -4.42658709      6.06916548     -3.73895262
H      -0.26526384     -9.98652565     -8.94156674
C       0.94135196     -1.05721784      9.41973863
H      10.01702894     -8.94502278     -8.39521558
H      -8.82447046     -7.11631769    -18.93752907
H      -8.81671441     -7.88568037    -18.80938484
C       6.30311199     -0.40397779     -2.88285237
H      16.07347169      6.48607910     13.52060132
C       8.31685473     -9.93587140      5.43642566
H       8.39369760     12.86481979      3.40579115
H       8.54570918     -9.32176902      4.46193909
H       2.50431954    -10.90138743     17.33773756
C       6.58322424    -10.70389526      7.47359087
H       5.47753545    -10.77261442      6.99289563
C       7.92409522     13.03310988      5.85872766
H       6.28777611    -10.55044350      8.63513132
H       9.58490839     13.93037614      7.15076018
H       6.84150365     13.57652143      5.68635448
C       8.44963810     12.24401279      4.47126009
H      16.85790728      2.91606969     -5.08196264
C      15.75407219      2.69615317     -4.97143776
H       4.21091597      0.40263164     -2.43465319
H       7.89333479     11.15950675      4.26687229
H      -2.21572072     10.71799409     11.86027307
C      12.21370830     -8.99358727     -9.67060119
H      -1.27633061     -0.61456993      8.80001491
H      -4.76983798      6.94049022      1.22584711
C       2.73006770     -2.86754398     -2.09845184
H       0.88880105     -2.15610589      9.93424649
C       1.47826131    -10.71772327     17.93052540
H       2.03865616     -2.71305299     -1.13637829
H     -10.96219598    -12.27311395     15.66826826
H       1.07356341     -9.60128521     18.09699161
C      -5.83271506     -0.75944851     -8.88144356
H      -2.00460728      7.38225907     -1.66631044
C      -2.08843550      9.44709468     -1.86958499
H      -6.42553811      0.06653522     -9.45222479
H      -1.93674423     10.38409629     -1.08764956
H      -0.88129428      9.38828896     -2.13108984
H      -2.06799516     10.47490277     -2.53807877
H      12.48304134     -8.66758832    -10.83751645
H      12.04798472    -10.16326934    -10.05327737
H      14.01678629     -9.63786645     -7.87395506
H       3.41420533      1.24145936      7.83399302
H       1.44610488      1.02179765     10.41286029
H       0.85689126    -11.65049478     18.35686085
H       8.11516795      0.40522558     -4.26833127
H      -9.42682978     -2.95220252     23.99773721
H       6.85019510     13.27535855      9.28329970
H       9.04738821     12.10331527      7.65254845
H       3.07774095     -0.54636926     12.29442416
H      26.59605533      7.39408853     -2.17338279
H      -4.25140773      9.63983507     11.52810236
H      27.28622978      7.54246332     -1.84165470
H       0.56978560     -2.03630244      6.16535476
H       8.34094238    -11.98024100      6.45141322
H      10.06274741     -7.60843762     -9.74298767
H       4.37159033     -0.56369814     11.04042199
C      -0.25879757     -1.25801052      6.64110490
C     -10.36021683    -12.21620963     16.66253612
C       2.83517115      0.72738725      8.71757461
C       2.05814217      0.05376084      9.95676353
C       7.62095868      0.39137790     -3.18240977
C       7.89718629     13.78872373      8.86268743
C       3.18220795     -0.36034819     11.10492964
C      -3.23354788     10.17890577     11.69414329
C       8.58912846     13.22781313      7.39535809
C      -4.08092935      6.67826882     -2.15957175
C       3.90003032     -1.89831166     -2.47122735
C       4.78155519     -0.62135089     -2.61715496
C      13.62427288     -8.93968929     -8.78168148
C      -3.01465254      7.98894825     -1.75604145
C       8.06950327    -10.81983898      6.75834326
H       9.62841654     11.90662667      4.32828683
H       0.20118838    -11.56065112    -10.59111565
H      -1.27740811     -1.77857307      6.18015792
H      -9.29853205     -2.27998211     24.37198239
H      -9.75823670    -12.15930248     17.65680321
H      15.89765229      7.23953698     13.42166360
H       8.14705361      1.07847393     -2.35810549
H       8.55707985     13.71671131      9.91280752
H       7.55958748     14.97569700      8.98063932
H      -5.32103211     -1.70118400     -8.38908437
H      -3.48585935      5.62875452     -2.36430524
H      -7.59933152     21.22016009      9.78247911
H       2.50555749     -3.83345078     -2.76266546
H      -0.10709639     -0.24305804      5.95589117
H       9.00955571    -10.50646345      7.48691381
H      14.56251026     -8.17585842     -8.82780310
H      -7.73253248     21.22864659     10.55097472
   94

C      10.83238060     -8.23716849     -9.00350370
C      -0.04854689    -10.84324553     -9.80640493
H      10.94004234     -7.33765297     -8.16039576
C      -0.23961017     -0.96864602      8.28151689
H      -5.05694765      6.30343163     -1.80473888
H      -0.28116372    -10.05781780     -8.97995397
C       0.93977235     -1.05271350      9.41612025
H      10.01860663     -8.94533814     -8.39382458
H      -8.82437442     -7.11565273    -18.93691290
H      -8.81666090     -7.88504116    -18.80892027
C       6.09792818     -0.44713482     -3.03219024
H      16.07326697      6.48606376     13.52052352
C       8.31615616     -9.93640659      5.43755095
H       8.38886533     12.86787066      3.40794007
H       8.53947705     -9.31934427      4.46369626
H       2.50428098    -10.90120237     17.33763947
C       6.58388800    -10.70329207      7.47242449
H       5.47882723    -10.77150752      6.99017651
C       7.92596519     13.03226197      5.86142274
H       6.28705020    -10.54692921      8.63318575
H       9.59180724     13.92601206      7.15439433
H       6.84296814     13.57527467      5.69076729
C       8.44712998     12.24449347      4.47180276
H      16.85838916      2.91610215     -5.08204955
C      15.75455473      2.69619138     -4.97153921
H       4.07329546      0.41056011     -2.52086370
H       7.88885097     11.16094512      4.26776729
H      -2.21951219     10.71317322     11.84644679
C      12.21425103     -8.99369011     -9.67101949
H      -1.27980822     -0.60694140      8.79993494
H      -5.04720529      6.37009509     -1.45393407
C       2.59743636     -2.89128224     -2.24565862
H       0.89274018     -2.15479269      9.92424740
C       1.47822064    -10.71753486     17.93042329
H       1.94396115     -2.73568465     -1.25712990
H     -10.96218978    -12.27303375     15.66828050
H       1.07351064     -9.60109420     18.09684532
C      -5.06302854     -0.75169741     -8.42854030
H      -1.85556763      7.51716152     -1.61879082
C      -2.06685651      9.59300831     -1.86036502
H      -5.74715660     -0.01808183     -9.02921560
H      -1.98682305     10.50671526     -1.04334815
H      -0.86159204      9.58926364     -2.12846786
H      -2.13475831     10.60703489     -2.54190350
H      12.48392494     -8.66695152    -10.83764778
H      12.04847092    -10.16315741    -10.05432516
H      14.01694558     -9.63921173     -7.87441490
H       3.41308673      1.24495187      7.83159236
H       1.44385245      1.02703464     10.41005497
H       0.85686806    -11.65030702     18.35678381
H       8.03499305      0.32263715     -4.29432237
H      -9.42676497     -2.95205315     23.99746052
H       6.84698910     13.27252871      9.27736334
H       9.05709980     12.10414314      7.65510029
H       3.07284362     -0.54307489     12.29234638
H      26.59613225      7.39410600     -2.17336468
H      -4.25335237      9.63408742     11.50613527
H      27.28630576      7.54248168     -1.84163506
H       0.56861245     -2.03115371      6.16771427
H       8.34329380    -11.98191337      6.45354683
H      10.06169537     -7.61096389     -9.74367539
H       4.36613014     -0.56972096     11.03676349
C      -0.26184096     -1.25325392      6.64085974
C     -10.36019962    -12.21611883     16.66254080
C       2.83327946      0.73284101      8.71579139
C       2.05558015      0.05860365      9.95425773
C       7.45668327      0.30846491     -3.25141250
C       7.89432499     13.78817937      8.86036951
C       3.17812212     -0.35884853     11.10262582
C      -3.23643262     10.17363024     11.67629353
C       8.59354019     13.22628333      7.39695038
C      -3.95378118      6.79227673     -1.74956819
C       3.55327205     -1.82337579     -2.88305243
C       4.56348462     -0.63091594     -2.80704443
C      13.62457749     -8.94037562     -8.78169426
C      -2.87787634      8.10265152     -1.75558300
C       8.07092873    -10.82137145      6.75916049
H       9.62496382     11.90562738      4.32511807
H       0.18445962    -11.62978411    -10.63170152
H      -1.27917623     -1.77657091      6.18033016
H      -9.29846531     -2.27982848     24.37169734
H      -9.75821094    -12.15920496     17.65680204
H      15.89743991      7.23951979     13.42158534
H       7.99527119      0.96171437     -2.40775185
H       8.54839931     13.71964683      9.91421504
H       7.55497845     14.97511368      8.97390444
H      -4.57147071     -1.75966772     -8.01233023
H      -3.38354933      5.70846818     -1.87897053
H      -7.59914580     21.21889036      9.78181416
H       2.40835639     -3.92770793     -2.81015734
H      -0.11217382     -0.23879854      5.95451578
H       9.01158780    -10.50962806      7.48765179
H      14.56273790     -8.17639711     -8.82691650
H      -7.73235172     21.22748104     10.55030771
   94

C      10.83286542     -8.23767559     -9.00382434
C      -0.06535544    -10.91372493     -9.84647363
H      10.94064494     -7.33664457     -8.16235042
C      -0.24101763     -0.96683994      8.28330366
H      -5.10866331      6.43671580     -1.83862344
H      -0.29764384    -10.12996467     -9.01840494
C       0.94094248     -1.05145409      9.41495164
H      10.02031271     -8.94568746     -8.39234000
H      -8.82446015     -7.11558721    -18.93689476
H      -8.81676149     -7.88498227    -18.80894094
C       5.87856527     -0.50142105     -3.19178114
H      16.07325320      6.48604760     13.52049686
C       8.31551639     -9.93707058      5.43869155
H       8.38431196     12.87095773      3.40978947
H       8.53333341     -9.31707871      4.46549825
H       2.50428604    -10.90121062     17.33766434
C       6.58458369    -10.70284049      7.47123356
H       5.48015791    -10.77053677      6.98742076
C       7.92873876     13.03169801      5.86400409
H       6.28636363    -10.54361281      8.63121406
H       9.59955674     13.92193472      7.15786266
H       6.84551435     13.57466880      5.69506748
C       8.44508774     12.24516687      4.47212056
H      16.85797838      2.91599264     -5.08195527
C      15.75414825      2.69607170     -4.97140077
H       3.93684120      0.37797505     -2.60220492
H       7.88483349     11.16256043      4.26851832
H      -2.21954052     10.71331927     11.84672070
C      12.21489595     -8.99382876     -9.67138345
H      -1.28078431     -0.60516383      8.80273800
H      -5.08690434      6.51927272     -1.37195966
C       2.50142750     -2.87638859     -2.39942373
H       0.89955312     -2.15649004      9.91707676
C       1.47822574    -10.71754327     17.93044828
H       1.87092428     -2.74628673     -1.38991066
H     -10.96220648    -12.27305031     15.66831522
H       1.07351608     -9.60110275     18.09687207
C      -4.30911793     -0.78381943     -8.01373256
H      -1.86781940      7.57205371     -1.56858144
C      -2.11781293      9.66770383     -1.84022664
H      -5.07803827     -0.15783113     -8.64098562
H      -2.07307598     10.56465784     -1.00145393
H      -0.91437592      9.68747100     -2.11503753
H      -2.24129985     10.66133368     -2.54470271
H      12.48490350     -8.66635225    -10.83772579
H      12.04905321    -10.16308088    -10.05531414
H      14.01720024     -9.64055557     -7.87481338
H       3.41492560      1.24535095      7.83166349
H       1.44366597      1.02941644     10.40963572
H       0.85687234    -11.65031566     18.35680707
H       7.93672748      0.22560972     -4.31036195
H      -9.42676933     -2.95205521     23.99747830
H       6.84507803     13.27021188      9.27170926
H       9.06763174     12.10532283      7.65756926
H       3.07018080     -0.54144367     12.29267859
H      26.59615593      7.39411788     -2.17334874
H      -4.25339746      9.63424749     11.50646197
H      27.28633013      7.54249438     -1.84162090
H       0.57021520     -2.03108832      6.17233395
H       8.34567897    -11.98370843      6.45566684
H      10.06077773     -7.61353880     -9.74427637
H       4.36293882     -0.57732132     11.03549326
C      -0.26205685     -1.25367754      6.64311131
C     -10.36021257    -12.21613305     16.66257309
C       2.83369371      0.73559812      8.71628550
C       2.05524173      0.06078130      9.95397934
C       7.27430154      0.21427797     -3.31897275
C       7.89267866     13.78809289      8.85810237
C       3.17628113     -0.35942156     11.10268851
C      -3.23646972     10.17378350     11.67659562
C       8.59880510     13.22509433      7.39847841
C      -3.99028454      6.88255187     -1.73186010
C       3.17294226     -1.72023771     -3.25089057
C       4.33089921     -0.66807129     -3.00299914
C      13.62498227     -8.94107359     -8.78165637
C      -2.88794976      8.16303789     -1.72405475
C       8.07239508    -10.82303242      6.75998301
H       9.62194345     11.90481401      4.32161179
H       0.16754478    -11.69940692    -10.67256896
H      -1.27811638     -1.77938359      6.18258900
H      -9.29846939     -2.27983028     24.37171455
H      -9.75822049    -12.15921705     17.65683213
H      15.89742801      7.23950437     13.42156101
H       7.82303137      0.83053189     -2.45371622
H       8.54100688     13.72303974      9.91557816
H       7.55162764     14.97498339      8.96724821
H      -3.83331001     -1.84199967     -7.65709717
H      -3.43763009      5.79049527     -1.86868177
H      -7.59922711     21.21910779      9.78187979
H       2.38313453     -3.97348602     -2.86459222
H      -0.11366479     -0.23989906      5.95553062
H       9.01365545    -10.51292924      7.48840111
H      14.56304002     -8.17691654     -8.82595919
H      -7.73243025     21.22768500     10.55037394
   94

C      10.83334319     -8.23813121     -9.00411749
C      -0.08316747    -10.98278616     -9.88641544
H      10.94125367     -7.33558740     -8.16428190
C      -0.24241233     -0.96505531      8.28500277
H      -5.15783809      6.57077574     -1.87583556
H      -0.31572826    -10.20040670     -9.05716735
C       0.94209188     -1.05019000      9.41372509
H      10.02201215     -8.94597678     -8.39082506
H      -8.82445292     -7.11542197    -18.93669929
H      -8.81677231     -7.88482376    -18.80878483
C       5.66343491     -0.54565831     -3.36141058
H      16.07324284      6.48603809     13.52047467
C       8.31489510     -9.93777914      5.43986441
H       8.37972095     12.87398848      3.41161698
H       8.52723319     -9.31488963      4.46735739
H       2.50428736    -10.90121781     17.33768463
C       6.58526855    -10.70241658      7.47005343
H       5.48148419    -10.76957451      6.98466457
C       7.93146896     13.03109353      5.86653684
H       6.28566506    -10.54031712      8.62924273
H       9.60723029     13.91784445      7.16128367
H       6.84801474     13.57401119      5.69931254
C       8.44299483     12.24579403      4.47241005
H      16.85729726      2.91583045     -5.08183372
C      15.75347359      2.69588847     -4.97123056
H       3.79046133      0.32433382     -2.69324806
H       7.88077276     11.16412876      4.26924739
H      -2.21957261     10.71344589     11.84694372
C      12.21552237     -8.99393048     -9.67172959
H      -1.28175737     -0.60339735      8.80542693
H      -5.12243294      6.66712039     -1.29319853
C       2.37752926     -2.84939928     -2.56338990
H       0.90632672     -2.15812001      9.90983505
C       1.47822661    -10.71755034     17.93046774
H       1.79765581     -2.75954963     -1.51814888
H     -10.96221657    -12.27305796     15.66833119
H       1.07351723     -9.60110990     18.09689268
C      -3.57515533     -0.81878213     -7.61352064
H      -1.88218063      7.62635605     -1.51987988
C      -2.17051505      9.74143535     -1.82044178
H      -4.41174405     -0.28879907     -8.25051921
H      -2.15998717     10.61924259     -0.95968094
H      -0.96918447      9.78390129     -2.10138811
H      -2.34813918     10.71115207     -2.54754754
H      12.48585521     -8.66571679    -10.83778756
H      12.04960494    -10.16296538    -10.05628535
H      14.01745393     -9.64187936     -7.87521768
H       3.41675599      1.24579263      7.83175542
H       1.44344220      1.03178894     10.40919169
H       0.85687224    -11.65032293     18.35682464
H       7.83276334      0.12451264     -4.32273385
H      -9.42677296     -2.95205671     23.99748857
H       6.84318618     13.26786640      9.26602268
H       9.07808021     12.10650166      7.65999829
H       3.06747745     -0.53982005     12.29299102
H      26.59617555      7.39412989     -2.17333423
H      -4.25344225      9.63438403     11.50672690
H      27.28635055      7.54250726     -1.84160842
H       0.57184562     -2.03100746      6.17687405
H       8.34804826    -11.98554047      6.45781940
H      10.05985165     -7.61605725     -9.74483611
H       4.35967441     -0.58488569     11.03424115
C      -0.26225240     -1.25409660      6.64527026
C     -10.36022107    -12.21613989     16.66258805
C       2.83409869      0.73837074      8.71677670
C       2.05487672      0.06295472      9.95367857
C       7.09193624      0.12046429     -3.38875927
C       7.89102717     13.78797676      8.85577824
C       3.17440136     -0.35999881     11.10273636
C      -3.23650861     10.17391537     11.67684145
C       8.60401587     13.22388595      7.39996025
C      -4.02821893      6.97189480     -1.71391268
C       2.86282406     -1.65959421     -3.51183785
C       4.10273449     -0.69061713     -3.22627464
C      13.62537835     -8.94174400     -8.78161467
C      -2.89975439      8.22274498     -1.69430083
C       8.07385417    -10.82472981      6.76083625
H       9.61886255     11.90396685      4.31809090
H       0.14994742    -11.76782292    -10.71302385
H      -1.27702055     -1.78218279      6.18472418
H      -9.29847285     -2.27983170     24.37172463
H      -9.75822747    -12.15922308     17.65684613
H      15.89741846      7.23949518     13.42153989
H       7.64471709      0.69758643     -2.49901421
H       8.53360119     13.72639501      9.91683400
H       7.54830209     14.97481343      8.96054065
H      -3.10948327     -1.91826398     -7.31095284
H      -3.49225872      5.87270681     -1.86109688
H      -7.59930465     21.21931162      9.78193445
H       2.37417889     -3.98738669     -2.94068965
H      -0.11511669     -0.24099244      5.95646414
H       9.01570857    -10.51627223      7.48918899
H      14.56333148     -8.17740675     -8.82499563
H      -7.73250526     21.22787670     10.55042917
   94

C      10.83375582     -8.23849757     -9.00437044
C      -0.10197233    -11.04948117     -9.92579298
H      10.94180886     -7.33444499     -8.16617503
C      -0.24380887     -0.96326689      8.28658699
H      -5.20337512      6.70431994     -1.91638289
H      -0.33539396    -10.26775708     -9.09619633
C       0.94320868     -1.04891167      9.41241191
H      10.02364314     -8.94616410     -8.38926607
H      -8.82439118     -7.11524321    -18.93645845
H      -8.81672598     -7.88464961    -18.80857093
C       5.45938086     -0.57677289     -3.53306910
H      16.07323744      6.48603593     13.52046235
C       8.31429264     -9.93851040      5.44105470
H       8.37509440     12.87700271      3.41343983
H       8.52116766     -9.31274640      4.46926176
H       2.50428549    -10.90122287     17.33769985
C       6.58595385    -10.70201050      7.46888244
H       5.48281465    -10.76862344      6.98191427
C       7.93415140     13.03047595      5.86903829
H       6.28497014    -10.53703663      8.62727186
H       9.61482744     13.91375964      7.16467627
H       6.85046278     13.57332492      5.70352014
C       8.44085441     12.24641210      4.47268663
H      16.85667015      2.91568542     -5.08173899
C      15.75285266      2.69572129     -4.97110015
H       3.64428896      0.26649501     -2.79442136
H       7.87667282     11.16568702      4.26996976
H      -2.21960887     10.71354632     11.84710076
C      12.21607176     -8.99396534     -9.67204260
H      -1.28273934     -0.60162080      8.80798289
H      -5.15326777      6.81179801     -1.21754992
C       2.25084211     -2.83292075     -2.71661632
H       0.91304517     -2.15967168      9.90249745
C       1.47822384    -10.71755495     17.93048123
H       1.72821889     -2.77377310     -1.63823929
H     -10.96222048    -12.27305692     15.66833026
H       1.07351460     -9.60111451     18.09690645
C      -2.87217767     -0.85540128     -7.23311882
H      -1.89851614      7.67955558     -1.47320613
C      -2.22490845      9.81373619     -1.80121548
H      -3.76115050     -0.40029166     -7.86465200
H      -2.24729082     10.66983723     -0.91809757
H      -1.02586213      9.87806420     -2.08764896
H      -2.45480454     10.75628986     -2.55046368
H      12.48672423     -8.66501860    -10.83781851
H      12.05006793    -10.16278141    -10.05722388
H      14.01765972     -9.64317167     -7.87562716
H       3.41856962      1.24626236      7.83183214
H       1.44318312      1.03415737     10.40869587
H       0.85686850    -11.65032771     18.35683633
H       7.72697892      0.02274114     -4.33188724
H      -9.42677534     -2.95205731     23.99749074
H       6.84130859     13.26550134      9.26031665
H       9.08844447     12.10769580      7.66240061
H       3.06473089     -0.53820237     12.29325867
H      26.59620276      7.39414580     -2.17332052
H      -4.25348524      9.63448830     11.50691004
H      27.28637839      7.54252373     -1.84159625
H       0.57346121     -2.03087771      6.18131299
H       8.35041023    -11.98738930      6.45998702
H      10.05885555     -7.61847838     -9.74533683
H       4.35633359     -0.59241443     11.03298174
C      -0.26246601     -1.25446779      6.64730530
C     -10.36022527    -12.21613941     16.66258735
C       2.83448978      0.74115287      8.71723602
C       2.05448135      0.06512481      9.95332978
C       6.91569551      0.02876480     -3.45879936
C       7.88936573     13.78784219      8.85341295
C       3.17247863     -0.36058086     11.10274384
C      -3.23654868     10.17401804     11.67701325
C       8.60917202     13.22267532      7.40141179
C      -4.06694567      7.05906488     -1.69634451
C       2.60597479     -1.63206912     -3.72130074
C       3.88903307     -0.70006171     -3.44144797
C      13.62571392     -8.94236840     -8.78156115
C      -2.91318238      8.28116110     -1.66716270
C       8.07531165    -10.82644454      6.76170463
H       9.61572529     11.90312574      4.31457187
H       0.13162596    -11.83426293    -10.75248596
H      -1.27592991     -1.78492035      6.18670406
H      -9.29847516     -2.27983239     24.37172694
H      -9.75823180    -12.15922301     17.65684555
H      15.89741300      7.23949301     13.42152765
H       7.46852550      0.56678036     -2.54450059
H       8.52617746     13.72972210      9.91799853
H       7.54499565     14.97461459      8.95379854
H      -2.41585880     -1.99279614     -6.98774829
H      -3.54656540      5.95399763     -1.85704866
H      -7.59937664     21.21949699      9.78197481
H       2.35968299     -3.98846797     -3.02267555
H      -0.11656152     -0.24204554      5.95727140
H       9.01775451    -10.51963554      7.48999675
H      14.56357253     -8.17786442     -8.82403012
H      -7.73257511     21.22805190     10.55047000
   94

C      10.83402402     -8.23873145     -9.00458267
C      -0.12137604    -11.11337690     -9.96414298
H      10.94223607     -7.33317705     -8.16802643
C      -0.24522588     -0.96147029      8.28798896
H      -5.24437737      6.83659407     -1.95952748
H      -0.35583202    -10.33136829     -9.13510238
C       0.94426330     -1.04761636      9.41096135
H      10.02512376     -8.94620193     -8.38766007
H      -8.82431806     -7.11510480    -18.93626235
H      -8.81666147     -7.88451287    -18.80838451
C       5.27043598     -0.59627632     -3.70071306
H      16.07323909      6.48604269     13.52046451
C       8.31372114     -9.93928506      5.44228644
H       8.37043461     12.88001707      3.41526464
H       8.51516883     -9.31067594      4.47123561
H       2.50427988    -10.90122514     17.33770966
C       6.58664529    -10.70163711      7.46773978
H       5.48415512    -10.76770238      6.97918934
C       7.93678611     13.02985724      5.87151563
H       6.28428374    -10.53378062      8.62531961
H       9.62234876     13.90968923      7.16804911
H       6.85285746     13.57262008      5.70769819
C       8.43866942     12.24703692      4.47295640
H      16.85624652      2.91559323     -5.08169629
C      15.75243331      2.69561298     -4.97104023
H       3.50643259      0.21157078     -2.89974316
H       7.87253770     11.16725062      4.27069101
H      -2.21964831     10.71361583     11.84718341
C      12.21646992     -8.99389514     -9.67231034
H      -1.28374933     -0.59983225      8.81034076
H      -5.17887220      6.95248832     -1.14426837
C       2.14410101     -2.82757033     -2.84943685
H       0.91967378     -2.16114062      9.89501853
C       1.47821676    -10.71755636     17.93048819
H       1.66403881     -2.78884221     -1.74937841
H     -10.96221713    -12.27304668     15.66831206
H       1.07350744     -9.60111582     18.09691241
C      -2.21089408     -0.89402423     -6.88088784
H      -1.91648159      7.73150320     -1.42881922
C      -2.28071185      9.88447398     -1.78261605
H      -3.14175753     -0.48494246     -7.49035982
H      -2.33445906     10.71622440     -0.87673359
H      -1.08404339      9.96977096     -2.07387022
H      -2.56065434     10.79688319     -2.55342389
H      12.48743764     -8.66422111    -10.83780712
H      12.05036784    -10.16249093    -10.05811860
H      14.01776181     -9.64442053     -7.87605306
H       3.42034155      1.24676841      7.83188971
H       1.44285899      1.03651117     10.40812947
H       0.85686050    -11.65032923     18.35684165
H       7.62134838     -0.07841173     -4.33854380
H      -9.42677596     -2.95205690     23.99748402
H       6.83944345     13.26312119      9.25459736
H       9.09872528     12.10891292      7.66478220
H       3.06191299     -0.53659326     12.29346504
H      26.59624295      7.39416752     -2.17330756
H      -4.25352407      9.63455398     11.50700022
H      27.28641889      7.54254553     -1.84158397
H       0.57501381     -2.03068644      6.18558411
H       8.35277157    -11.98927301      6.46219086
H      10.05770414     -7.62075209     -9.74576733
H       4.35289091     -0.59990636     11.03170332
C      -0.26274433     -1.25477317      6.64914404
C     -10.36022414    -12.21613106     16.66257064
C       2.83484020      0.74394054      8.71765082
C       2.05402585      0.06728094      9.95291414
C       6.74863216     -0.06110727     -3.52739778
C       7.88769265     13.78769467      8.85101397
C       3.17048408     -0.36117662     11.10269324
C      -3.23658822     10.17408597     11.67710107
C       8.61427414     13.22147057      7.40284026
C      -4.10594261      7.14348284     -1.67933518
C       2.38870499     -1.62683343     -3.89738418
C       3.69386051     -0.70646927     -3.63145513
C      13.62592299     -8.94292170     -8.78149276
C      -2.92792184      8.33810266     -1.64290249
C       8.07677452    -10.82819531      6.76261174
H       9.61253517     11.90230796      4.31106098
H       0.11275547    -11.89835607    -10.79050241
H      -1.27488602     -1.78757125      6.18843445
H      -9.29847584     -2.27983225     24.37172072
H      -9.75823254    -12.15921629     17.65683009
H      15.89741366      7.23949941     13.42152878
H       7.29964384      0.43878832     -2.59017427
H       8.51873392     13.73302581      9.91907969
H       7.54170562     14.97439217      8.94703001
H      -1.76825465     -2.06909313     -6.70473165
H      -3.59972332      6.03381486     -1.85588741
H      -7.59944170     21.21966114      9.78199914
H       2.33900940     -3.98615025     -3.10240772
H      -0.11803810     -0.24304472      5.95787444
H       9.01980047    -10.52303716      7.49084737
H      14.56371137     -8.17828233     -8.82307474
H      -7.73263856     21.22820821     10.55049468
   94

C      10.83405888     -8.23877894     -9.00473207
C      -0.14083053    -11.17484392    -10.00131838
H      10.94244774     -7.33173212     -8.16981081
C      -0.24665491     -0.95967230      8.28910319
H      -5.28043138      6.96750639     -2.00423834
H      -0.37598935    -10.39174982     -9.17346792
C       0.94524656     -1.04631067      9.40929028
H      10.02636121     -8.94603157     -8.38598352
H      -8.82425749     -7.11501942    -18.93613710
H      -8.81660223     -7.88442673    -18.80825476
C       5.09686202     -0.60629143     -3.85888439
H      16.07324735      6.48605793     13.52048187
C       8.31317076     -9.94009675      5.44355072
H       8.36574513     12.88303239      3.41709379
H       8.50922389     -9.30867222      4.47326798
H       2.50427063    -10.90122286     17.33771075
C       6.58733591    -10.70128981      7.46661681
H       5.48549938    -10.76680178      6.97647915
C       7.93937631     13.02923760      5.87397115
H       6.28359878    -10.53054248      8.62337719
H       9.62979640     13.90563360      7.17140528
H       6.85520232     13.57189775      5.71184997
C       8.43644316     12.24766869      4.47322151
H      16.85609993      2.91557365     -5.08171616
C      15.75228758      2.69558951     -4.97106183
H       3.37950057      0.16010381     -3.00330528
H       7.86837158     11.16881928      4.27141267
H      -2.21968720     10.71365246     11.84719286
C      12.21662877     -8.99367154     -9.67250688
H      -1.28478056     -0.59804202      8.81239679
H      -5.19916106      7.08948026     -1.07238261
C       2.05584775     -2.82680327     -2.96669633
H       0.92619356     -2.16253095      9.88732226
C       1.47820563    -10.71755290     17.93048560
H       1.59952594     -2.80484949     -1.85501484
H     -10.96220563    -12.27302746     15.66827748
H       1.07349596     -9.60111213     18.09690722
C      -1.58685197     -0.93827836     -6.56032581
H      -1.93581905      7.78256909     -1.38660539
C      -2.33755965      9.95398010     -1.76454655
H      -2.55792284     -0.54975014     -7.12542389
H      -2.42081446     10.75878817     -0.83557562
H      -1.14329084     10.05920431     -2.06000170
H      -2.66499950     10.83349565     -2.55634225
H      12.48790922     -8.66327804    -10.83772811
H      12.05041643    -10.16204569    -10.05894473
H      14.01769162     -9.64560627     -7.87649672
H       3.42205709      1.24730098      7.83188027
H       1.44244891      1.03883333     10.40744368
H       0.85684879    -11.65032577     18.35683815
H       7.51682662     -0.17851539     -4.34322243
H      -9.42677420     -2.95205551     23.99746820
H       6.83759170     13.26072570      9.24886744
H       9.10892466     12.11015251      7.66714536
H       3.05899753     -0.53499771     12.29356915
H      26.59629788      7.39419560     -2.17329520
H      -4.25355512      9.63457902     11.50699938
H      27.28647377      7.54257313     -1.84157131
H       0.57651055     -2.03042928      6.18956422
H       8.35512511    -11.99118709      6.46442595
H      10.05630521     -7.62281836     -9.74609803
H       4.34932509     -0.60736451     11.03036997
C      -0.26307617     -1.25501055      6.65067620
C     -10.36021663    -12.21611489     16.66253868
C       2.83513837      0.74672377      8.71797546
C       2.05349321      0.06940934      9.95238106
C       6.59142131     -0.14995085     -3.59334419
C       7.88600905     13.78753425      8.84858423
C       3.16839296     -0.36179907     11.10254238
C      -3.23662350     10.17411706     11.67710637
C       8.61932442     13.22027170      7.40424854
C      -4.14516768      7.22553094     -1.66254090
C       2.19622768     -1.63333277     -4.05105731
C       3.51568865     -0.71584475     -3.79560967
C      13.62592510     -8.94336784     -8.78139297
C      -2.94376024      8.39399876     -1.62109732
C       8.07823615    -10.82997665      6.76354969
H       9.60929568     11.90151370      4.30755983
H       0.09364951    -11.96038942    -10.82706979
H      -1.27387740     -1.79012694      6.18979507
H      -9.29847430     -2.27983131     24.37170577
H      -9.75822853    -12.15920282     17.65680044
H      15.89742006      7.23951394     13.42154402
H       7.14084495      0.31289875     -2.63571013
H       8.51127159     13.73630595      9.92008089
H       7.53843256     14.97414624      8.94023838
H      -1.15303410     -2.14439216     -6.45870155
H      -3.65131138      6.11244031     -1.85578385
H      -7.59949949     21.21980490      9.78200835
H       2.30985807     -3.98329404     -3.18007103
H      -0.11953316     -0.24398914      5.95816020
H       9.02183903    -10.52647339      7.49173474
H      14.56368414     -8.17864550     -8.82213256
H      -7.73269530     21.22834634     10.55050413
   94

C      10.83382159     -8.23860081     -9.00475852
C      -0.15997887    -11.23470618    -10.03754036
H      10.94239619     -7.33006981     -8.17146756
C      -0.24803755     -0.95790301      8.28980248
H      -5.31175716      7.09739539     -2.04966571
H      -0.39525490    -10.45002855     -9.21116498
C       0.94619722     -1.04501743      9.40729437
H      10.02731361     -8.94561312     -8.38417919
H      -8.82418957     -7.11495309    -18.93602385
H      -8.81653252     -7.88435895    -18.80813301
C       4.93106708     -0.61408397     -4.00413149
H      16.07325561      6.48607553     13.52050466
C       8.31258248     -9.94086566      5.44475399
H       8.36103188     12.88602848      3.41892440
H       8.50320937     -9.30663802      4.47526138
H       2.50425976    -10.90121245     17.33769424
C       6.58799566    -10.70090700      7.46543714
H       5.48681689    -10.76584840      6.97370712
C       7.94193008     13.02860119      5.87640083
H       6.28289073    -10.52727616      8.62137182
H       9.63717597     13.90158021      7.17474102
H       6.85750774     13.57114708      5.71597231
C       8.43418020     12.24828648      4.47347892
H      16.85610992      2.91559217     -5.08177123
C      15.75229566      2.69561108     -4.97112923
H       3.25734727      0.10849492     -3.10683905
H       7.86417835     11.17037238      4.27213084
H      -2.21972017     10.71365957     11.84714280
C      12.21649933     -8.99325883     -9.67258895
H      -1.28577576     -0.59628147      8.81402569
H      -5.21466270      7.22375975     -1.00113706
C       1.95933434     -2.82035584     -3.09077157
H       0.93263398     -2.16386339      9.87931072
C       1.47819327    -10.71754138     17.93046611
H       1.52284568     -2.81791457     -1.96959211
H     -10.96218603    -12.27300096     15.66823010
H       1.07348291     -9.60110024     18.09688349
C      -0.96434666     -0.98678610     -6.26103538
H      -1.95669181      7.83357816     -1.34617555
C      -2.39525011     10.02300292     -1.74679411
H      -1.99016047     -0.63411204     -6.75454968
H      -2.50579593     10.79848708     -0.79459365
H      -1.20332744     10.14686538     -2.04591466
H      -2.76732387     10.86708264     -2.55909717
H      12.48809131     -8.66215510    -10.83753854
H      12.05016373    -10.16140990    -10.05965939
H      14.01740365     -9.64670084     -7.87692462
H       3.42373597      1.24780823      7.83168811
H       1.44197027      1.04110431     10.40654983
H       0.85683685    -11.65031401     18.35681977
H       7.40760681     -0.27952217     -4.34726442
H      -9.42676937     -2.95205334     23.99744433
H       6.83575777     13.25830747      9.24312383
H       9.11904701     12.11140194      7.66948768
H       3.05598713     -0.53342286     12.29349767
H      26.59636020      7.39422667     -2.17328287
H      -4.25357507      9.63456908     11.50692617
H      27.28653586      7.54260343     -1.84155817
H       0.57805628     -2.03012553      6.19307852
H       8.35743853    -11.99306061      6.46661079
H      10.05462513     -7.62464054     -9.74627629
H       4.34564345     -0.61480375     11.02890982
C      -0.26335045     -1.25521691      6.65177199
C     -10.36020220    -12.21609214     16.66249467
C       2.83541393      0.74948056      8.71811884
C       2.05290658      0.07149481      9.95164070
C       6.43715758     -0.24100387     -3.65711689
C       7.88431987     13.78735276      8.84612021
C       3.16621192     -0.36246200     11.10221736
C      -3.23665012     10.17411575     11.67704532
C       8.62432815     13.21906668      7.40563386
C      -4.18521271      7.30636438     -1.64554677
C       2.00102743     -1.63202924     -4.19839696
C       3.34459536     -0.73109490     -3.94451542
C      13.62567088     -8.94367078     -8.78121974
C      -2.96092445      8.44981866     -1.60085017
C       8.07966205    -10.83171558      6.76442811
H       9.60601048     11.90071900      4.30406356
H       0.07455607    -12.02104859    -10.86256606
H      -1.27279935     -1.79262365      6.19066790
H      -9.29846985     -2.27982972     24.37168308
H      -9.75821872    -12.15918347     17.65675946
H      15.89742610      7.23953068     13.42156413
H       6.98620308      0.18567147     -2.68164132
H       8.50379469     13.73955514      9.92099954
H       7.53518125     14.97386891      8.93341967
H      -0.50976131     -2.20633315     -6.19993253
H      -3.70153278      6.19083569     -1.85484906
H      -7.59955138     21.21993368      9.78200653
H       2.26440496     -3.97166026     -3.27049409
H      -0.12095046     -0.24491006      5.95800231
H       9.02383577    -10.52987345      7.49256961
H      14.56344801     -8.17892685     -8.82117244
H      -7.73274659     21.22847110     10.55050246
   94

C      10.83132741     -8.23543351     -9.00302644
C      -0.18035251    -11.28947732    -10.07205865
H      10.94030737     -7.32500753     -8.17180638
C      -0.25011942     -0.95624498      8.29000297
H      -5.32206830      7.27030552     -2.15774216
H      -0.41418313    -10.50137643     -9.24840493
C       0.94837498     -1.04384692      9.40262608
H      10.02611857     -8.94191848     -8.38011585
H      -8.82389101     -7.11496087    -18.93572149
H      -8.81617982     -7.88435486    -18.80776282
C       4.58883108     -0.68097581     -4.21032383
H      16.07331130      6.48611777     13.52058838
C       8.30923951     -9.94038416      5.44566911
H       8.35347933     12.89162935      3.42243090
H       8.49346853     -9.30304428      4.47704613
H       2.50425844    -10.90118632     17.33758517
C       6.58863443    -10.69863645      7.46244627
H       5.48853563    -10.76312034      6.96818211
C       7.94552105     13.02731259      5.88064758
H       6.28140376    -10.52272980      8.61740572
H       9.64991925     13.89388581      7.18069174
H       6.86069456     13.56951637      5.72313737
C       8.43060311     12.24960946      4.47414538
H      16.85665692      2.91566089     -5.08201493
C      15.75282822      2.69569544     -4.97145247
H       2.95976039      0.01401798     -3.39801743
H       7.85786107     11.17302787      4.27343746
H      -2.21976954     10.71351786     11.84628660
C      12.21373542     -8.99046733     -9.67116541
H      -1.28710458     -0.59363167      8.81541405
H      -5.19210758      7.40755282     -0.87687116
C       1.62541216     -2.74187036     -3.46779282
H       0.94302912     -2.16652527      9.86553750
C       1.47819573    -10.71751696     17.93036419
H       1.32119785     -2.75112353     -2.29930609
H     -10.96213609    -12.27297242     15.66815272
H       1.07348491     -9.60107587     18.09678088
C       0.22422630     -1.01676872     -5.43814585
H      -1.96802182      7.86915052     -1.29232048
C      -2.46421647     10.09127456     -1.73162109
H      -0.81372898     -0.92936451     -6.03705123
H      -2.61538489     10.80311925     -0.73300890
H      -1.27493466     10.23896645     -2.03614471
H      -2.90900009     10.86182770     -2.58366344
H      12.48576102     -8.65857888    -10.83581180
H      12.04697613    -10.15833494    -10.05898157
H      14.01515923     -9.64676129     -7.87688577
H       3.42660631      1.24804624      7.83084159
H       1.44126646      1.04414457     10.40445585
H       0.85684386    -11.65028868     18.35672652
H       7.13381958     -0.41261160     -4.36091387
H      -9.42675544     -2.95204824     23.99740376
H       6.83253468     13.25442099      9.23338347
H       9.13703203     12.11423333      7.67354748
H       3.05104766     -0.53156724     12.29275860
H      26.59648769      7.39426669     -2.17327341
H      -4.25356759      9.63439347     11.50585025
H      27.28666125      7.54264242     -1.84154386
H       0.58212464     -2.03093847      6.19854357
H       8.36113600    -11.99501456      6.46942541
H      10.05017885     -7.62388446     -9.74453031
H       4.33993765     -0.62567171     11.02587637
C      -0.26244028     -1.25664215      6.65255239
C     -10.36016020    -12.21606716     16.66242232
C       2.83602612      0.75325412      8.71775910
C       2.05195799      0.07415814      9.94979971
C       6.09826743     -0.37265946     -3.77173269
C       7.88128925     13.78721397      8.84192388
C       3.16238653     -0.36518227     11.10091759
C      -3.23666856     10.17395567     11.67606843
C       8.63234258     13.21712306      7.40795692
C      -4.23049025      7.39541908     -1.63025913
C       1.52947454     -1.55162946     -4.60883032
C       2.98334217     -0.78509371     -4.28173581
C      13.62310681     -8.94232372     -8.77994140
C      -2.96562204      8.49756995     -1.57893782
C       8.08143770    -10.83345029      6.76469708
H       9.60080657     11.89988484      4.29860475
H       0.05346254    -12.07757879    -10.89571623
H      -1.26943871     -1.79743624      6.19016657
H      -9.29845674     -2.27982476     24.37164303
H      -9.75818431    -12.15916191     17.65669192
H      15.89747689      7.23957088     13.42164096
H       6.65196790      0.01089449     -2.77892645
H       8.49065691     13.74486894      9.92257091
H       7.53041810     14.97377943      8.92177837
H       0.82513468     -2.20485664     -5.31222314
H      -3.75348832      6.27816381     -1.86101028
H      -7.59941691     21.21952303      9.78151518
H       2.09628112     -3.85202869     -3.55957045
H      -0.12122476     -0.24764337      5.95665081
H       9.02688252    -10.53477485      7.49252008
H      14.56129420     -8.17804925     -8.81939534
H      -7.73262844     21.22814222     10.55000747
