   94

C       6.88063853     -7.05365943     -7.46560791
C       5.23138986     -7.39852908     -7.05743758
H       7.16432281     -6.43568354     -6.42329732
C     -10.16968116     -0.97812121      5.78662609
H     -18.89185999     -7.18329685     -1.80818867
H       4.49003798     -6.43091152     -6.78677309
C       9.97073992     -1.78066506      8.25928607
H       4.92246220     -8.16333820     -6.13145740
H      -7.45354005     -5.90431306    -16.97368978
H      -7.44582886     -6.67370706    -16.84573111
C       9.78027164      1.63843228      6.05917425
H      10.60934702      2.37299673      6.60052329
C       9.36866089     -2.69832379      7.02035018
H      10.86172278     -0.09058241      4.50641500
H      10.35959962     -3.34720662      7.23691003
H       0.32150499     -6.93137036     11.13961580
C       8.18766080     -3.13500157      5.82730885
H       7.30584844     -3.45183144      6.63009540
C       4.66763997      4.46702933     -3.73412969
H       8.78402120     -4.17718344      5.58544276
H       5.70213989      4.84534472     -4.30991685
H       4.12527092      5.52044672     -4.12217976
C       4.48346021      2.87418408     -6.20197147
H       5.09350514      4.12557278     -8.34788138
C       4.26139952      3.72094880     -7.57734568
H       5.17629218      1.90610633     -6.46097031
H       3.22961204      4.12596706     -8.04631998
H      -1.67522236     13.86417483     12.14530767
C       8.52435126     -7.43352847     -7.87627815
H     -10.56103991      0.14113743      5.63681892
H     -19.27118577     -7.16726916     -1.12682601
C       6.08980567     -2.11611294      3.41015217
H     -10.83134575     -1.85898474      5.32335166
C      -0.70363004     -6.68637719     11.73167768
H       4.94001063     -1.96175442      3.08176474
H      -2.93895700     -7.63588011     11.98707011
H      -0.70039288     -5.47997139     11.64755050
C       3.95287465      3.18179555     -4.64123255
H       5.61013137      5.54783913     -1.81312251
C       3.62170185      4.62301110     -0.92644720
H       2.71314149      3.14080475     -4.65957345
H       3.61593665      5.51388220     -0.06440712
H       3.28448645      3.66926224     -0.21342278
H       2.45089334      4.82823594     -1.26500075
H       8.81708694     -6.63530271     -8.78265140
H       8.50389924     -8.64463711     -8.15301632
H      10.88345432     -8.18759356     -6.83451068
H       8.03952776     -0.25831348      9.46036078
H      11.56814518     -0.70388249      9.08202718
H      -1.57102641     -8.91443516     12.38132549
H       8.00030433      0.25964865      6.68847808
H      -8.70101793     -4.16259184     22.46177845
H       8.20294144     13.22024184     11.17403155
H      -2.34916350     13.47718722     24.28698232
H      10.79906173     -0.06815473     11.93531502
H      10.41723170      1.98516296      2.29934328
H      -3.43227189     12.93183102     11.85119647
H      12.12684044      2.27806671      3.12997559
H       1.04808503      1.58576540    -14.88371638
H       6.92917388     -3.92344541      3.85720095
H       6.55204912     -6.76691427     -8.62851920
H      11.28156030      1.29200715     11.05856057
C      -8.83793724     -1.27961619      6.56198183
C      -1.79777092     -7.70452892     12.45119708
C       8.96184011      0.31907213      8.85411225
C      10.36606196     -0.52373240      9.28904584
C       8.96238610      0.76280325      7.23077494
C       9.13832464     13.77367503     11.58991039
C      10.84363711      0.19325461     10.74972864
C      -2.87735699     14.02780680     11.93502706
C      -1.82981241     14.44151727     23.89388281
C       6.09594578      3.41006219     -1.45434753
C      11.03695601      1.79960080      3.31650332
C      10.53899837      1.06450483      4.68272440
C      10.10143740     -7.38068069     -7.28853879
C       4.95245377      4.50602248     -2.01902746
C       7.35511322     -2.84771666      4.28634538
H       7.11541533      3.52366261     -0.80987912
H       4.43275796     -7.97142447     -7.81876812
H      -7.84953394     -1.50338191      7.13744095
H      -8.57271924     -3.49036836     22.83601772
H      -1.92086828     -7.53968177     13.66782299
H       8.91632529      2.44408441      5.70894621
H       8.41730886      1.28205978      9.40561969
H      10.07370782     14.32710824     12.00578923
H      -1.31046131     15.40584731     23.50078330
H       3.84070758      2.07710940     -4.09742350
H       6.21397147      2.20630643     -1.48875274
H      -3.02922606     14.64641905     10.88128340
H       5.71214987     -1.56096251      2.40523202
H       0.98833870      2.36018705    -14.95514105
H       8.20127889     -2.52383979      3.45078272
H      10.97545856     -6.53844144     -7.24226848
H      -3.37270765     14.66880232     12.86232070
   94

C       6.88326964     -7.04002596     -7.46947163
C       5.23970807     -7.40389944     -7.05506107
H       7.16862466     -6.41278618     -6.43329019
C     -10.16984776     -0.97811526      5.78665659
H     -18.89187527     -7.18330113     -1.80819092
H       4.48686866     -6.44683941     -6.77899277
C       9.90457489     -1.76901374      8.22766438
H       4.94497196     -8.17228751     -6.12751678
H      -7.45483086     -5.90556890    -16.97399981
H      -7.44711870     -6.67496270    -16.84604002
C       9.78151639      1.66001827      6.05965763
H      10.61737719      2.38339444      6.60529534
C       9.32468831     -2.66532948      6.96958682
H      10.87586513     -0.07701438      4.52043429
H      10.35779657     -3.25657770      7.15411583
H       0.32141570     -6.93146247     11.13986013
C       8.18135848     -3.24114127      5.82367953
H       7.29156058     -3.54153126      6.62393097
C       4.66633634      4.47170702     -3.74034846
H       8.76873255     -4.30097454      5.63861803
H       5.70204169      4.84779035     -4.31546158
H       4.12598963      5.52570021     -4.12955639
C       4.48023343      2.87745693     -6.20816564
H       5.09111436      4.13132594     -8.35217975
C       4.25832493      3.72261633     -7.58451688
H       5.17174588      1.90844564     -6.46718492
H       3.22572523      4.12136852     -8.05706370
H      -1.67524292     13.86420998     12.14532716
C       8.52095755     -7.43795474     -7.88588684
H     -10.56119599      0.14114564      5.63684143
H     -19.27120039     -7.16727326     -1.12682791
C       6.12830424     -1.98160672      3.60749982
H     -10.83149673     -1.85898131      5.32336548
C      -0.70374509     -6.68646117     11.73187152
H       4.97878385     -1.87694444      3.26345861
H      -2.93907726     -7.63596669     11.98721063
H      -0.70047918     -5.48005346     11.64779127
C       3.95059624      3.18694346     -4.64742979
H       5.60521294      5.55495427     -1.81772721
C       3.61806119      4.62897205     -0.93313012
H       2.71082104      3.14756159     -4.66576749
H       3.61239220      5.51705488     -0.06820045
H       3.27931276      3.67389798     -0.22265475
H       2.44791912      4.83747046     -1.27217049
H       8.82354123     -6.66677270     -8.81222294
H       8.49422695     -8.64859246     -8.16318382
H      10.86744351     -8.19144610     -6.81984685
H       8.01310019     -0.23146016      9.45524749
H      11.53176063     -0.72773313      9.05080524
H      -1.57115102     -8.91452881     12.38146581
H       7.95495690      0.33538477      6.69519281
H      -8.70102320     -4.16259312     22.46178567
H       8.20292414     13.22035431     11.17403246
H      -2.34916941     13.47719322     24.28698887
H      10.79256300     -0.10382366     11.90385448
H      10.41894056      1.98275080      2.30161524
H      -3.43229400     12.93186719     11.85121754
H      12.13023020      2.28152084      3.12905301
H       1.04727883      1.58586998    -14.89019679
H       6.96928359     -4.02697937      3.79145974
H       6.55122010     -6.71713185     -8.62197699
H      11.28571318      1.25698162     11.03886295
C      -8.83813360     -1.27961676      6.56205784
C      -1.79789742     -7.70462422     12.45134933
C       8.93653168      0.34022855      8.84530288
C      10.33308803     -0.52402779      9.25651657
C       8.94026120      0.80210472      7.22787070
C       9.13831460     13.77377501     11.58991198
C      10.82754764      0.16933664     10.72084758
C      -2.87737759     14.02784224     11.93504723
C      -1.82981836     14.44152334     23.89388946
C       6.09455834      3.41731722     -1.46147845
C      11.04088621      1.80279417      3.31838790
C      10.54319294      1.07626579      4.68908670
C      10.09139430     -7.38287523     -7.28114247
C       4.94946359      4.51216830     -2.02494246
C       7.46486472     -3.00021631      4.24869799
H       7.11626040      3.53101699     -0.82057457
H       4.44577630     -7.98339028     -7.81614333
H      -7.84976083     -1.50339517      7.13756331
H      -8.57272428     -3.49036946     22.83602455
H      -1.92099828     -7.53978325     13.66797510
H       8.93299155      2.47765572      5.70072141
H       8.40875228      1.30606889      9.40786220
H      10.07370458     14.32719606     12.00579210
H      -1.31046720     15.40585337     23.50078995
H       3.83816990      2.08243191     -4.10332858
H       6.21406361      2.21379334     -1.49799290
H      -3.02924709     14.64645540     10.88130421
H       5.76345276     -1.45360852      2.58397506
H       0.98753104      2.36029080    -14.96162943
H       8.28778111     -2.66742929      3.39986708
H      10.96118928     -6.53670142     -7.22661401
H      -3.37272744     14.66883711     12.86234173
   94

C       6.88606398     -7.02646248     -7.47284982
C       5.24828697     -7.40905000     -7.05302177
H       7.17301679     -6.39057612     -6.44250792
C     -10.16996094     -0.97811302      5.78666438
H     -18.89188218     -7.18330302     -1.80819251
H       4.48421394     -6.46260019     -6.77169604
C       9.83020180     -1.75868157      8.18727693
H       4.96723969     -8.18089439     -6.12418222
H      -7.45611416     -5.90682106    -16.97429883
H      -7.44840137     -6.67621474    -16.84633841
C       9.78531822      1.68525611      6.06118993
H      10.62930627      2.39522283      6.61153084
C       9.26470060     -2.62159150      6.90245204
H      10.88842645     -0.06047514      4.53294087
H      10.33408925     -3.15677355      7.05366150
H       0.32124857     -6.93157599     11.14013547
C       8.16591064     -3.34227872      5.81430481
H       7.27432938     -3.63171766      6.61661098
C       4.66508904      4.47554705     -3.74587401
H       8.75147365     -4.41255112      5.68840793
H       5.70200786      4.84946556     -4.32023854
H       4.12679588      5.53018503     -4.13608785
C       4.47699942      2.88036875     -6.21391198
H       5.08867002      4.13687886     -8.35598968
C       4.25526393      3.72408484     -7.59115459
H       5.16723635      1.91047970     -6.47304060
H       3.22189429      4.11655808     -8.06727076
H      -1.67527240     13.86425674     12.14535018
C       8.51730022     -7.44271411     -7.89524238
H     -10.56130209      0.14114953      5.63684585
H     -19.27120720     -7.16727513     -1.12682944
C       6.19908689     -1.87156147      3.81237300
H     -10.83159818     -1.85898150      5.32336198
C      -0.70393602     -6.68656213     11.73209542
H       5.04718589     -1.79682207      3.46727515
H      -2.93925688     -7.63608221     11.98737308
H      -0.70065135     -5.48015348     11.64806087
C       3.94839164      3.19136223     -4.65308227
H       5.60037442      5.56060332     -1.82147559
C       3.61443373      4.63333447     -0.93904179
H       2.70857858      3.15361083     -4.67141381
H       3.60880491      5.51871545     -0.07133123
H       3.27423623      3.67689348     -0.23112552
H       2.44497148      4.84508944     -1.27857574
H       8.82876389     -6.69897434     -8.84087163
H       8.48437047     -8.65290789     -8.17290215
H      10.85132020     -8.19475189     -6.80555582
H       7.98606320     -0.20353452      9.44965324
H      11.49024455     -0.76072392      9.01529116
H      -1.57132905     -8.91464902     12.38162915
H       7.91051627      0.42304465      6.70505311
H      -8.70103102     -4.16259453     22.46179576
H       8.20291236     13.22050866     11.17407032
H      -2.34917512     13.47720036     24.28699805
H      10.78633982     -0.14501785     11.86821271
H      10.42137516      1.98206646      2.30341816
H      -3.43232470     12.93191345     11.85124099
H      12.13466290      2.28615625      3.12730223
H       1.04648813      1.58597171    -14.89661536
H       7.00308566     -4.12894346      3.72669095
H       6.55135371     -6.66749368     -8.61396296
H      11.29196091      1.21484270     11.01440167
C      -8.83826806     -1.27962023      6.56209669
C      -1.79808606     -7.70474850     12.45152872
C       8.91166447      0.36148938      8.83663692
C      10.29614175     -0.53160698      9.22144404
C       8.92059674      0.84688227      7.22671311
C       9.13831796     13.77390614     11.58994661
C      10.81219664      0.13919464     10.68774818
C      -2.87740706     14.02788791     11.93506957
C      -1.82982414     14.44153059     23.89389879
C       6.09277289      3.42268810     -1.46802122
C      11.04535507      1.80859435      3.32002262
C      10.54821499      1.09135379      4.69565953
C      10.08121281     -7.38490767     -7.27455102
C       4.94647394      4.51693735     -2.03015182
C       7.55530916     -3.14908466      4.20767298
H       7.11670824      3.53648714     -0.83071990
H       4.45936178     -7.99479567     -7.81432814
H      -7.84991866     -1.50341083      7.13763632
H      -8.57273170     -3.49037071     22.83603421
H      -1.92118481     -7.53991249     13.66815411
H       8.95399606      2.51655961      5.69448070
H       8.40320525      1.32990816      9.41243106
H      10.07372050     14.32730764     12.00582436
H      -1.31047296     15.40586063     23.50079930
H       3.83571215      2.08696853     -4.10879250
H       6.21299104      2.21926997     -1.50548569
H      -3.02927655     14.64650113     10.88132663
H       5.84115660     -1.34945965      2.78298165
H       0.98673955      2.36039189    -14.96805437
H       8.36080008     -2.80376842      3.35213999
H      10.94637795     -6.53451831     -7.21197320
H      -3.37275658     14.66888198     12.86236474
   94

C       6.88901878     -7.01301378     -7.47579067
C       5.25709447     -7.41401771     -7.05134031
H       7.17748479     -6.36908271     -6.45098439
C     -10.17001563     -0.97811317      5.78665831
H     -18.89188320     -7.18330310     -1.80819326
H       4.48208073     -6.47816379     -6.76498683
C       9.74973319     -1.74782252      8.13843622
H       4.98923705     -8.18913529     -6.12139918
H      -7.45739328     -5.90807110    -16.97459200
H      -7.44968009     -6.67746473    -16.84663130
C       9.79120144      1.71349829      6.06378191
H      10.64418553      2.40832927      6.61913805
C       9.18773649     -2.56992387      6.82496875
H      10.90093611     -0.04112903      4.54490150
H      10.28848760     -3.04991778      6.94222877
H       0.32104938     -6.93168089     11.14037889
C       8.14697687     -3.43897000      5.80305199
H       7.25942331     -3.72678861      6.61072796
C       4.66391067      4.47875876     -3.75075708
H       8.74025827     -4.51053317      5.73285371
H       5.70204952      4.85056582     -4.32431170
H       4.12770532      5.53411134     -4.14182636
C       4.47378851      2.88309929     -6.21930109
H       5.08618356      4.14233841     -8.35942677
C       4.25222128      3.72548287     -7.59737121
H       5.16275812      1.91236218     -6.47862863
H       3.21812168      4.11164013     -8.07706495
H      -1.67530418     13.86430360     12.14537159
C       8.51343300     -7.44775388     -7.90431993
H     -10.56135335      0.14115030      5.63683977
H     -19.27120839     -7.16727527     -1.12683028
C       6.29343466     -1.78726717      4.01478226
H     -10.83164645     -1.85898336      5.32335060
C      -0.70415153     -6.68665096     11.73229827
H       5.13675342     -1.72039381      3.68165827
H      -2.93945054     -7.63619312     11.98752156
H      -0.70085549     -5.48024247     11.64829523
C       3.94625279      3.19531629     -4.65830908
H       5.59561512      5.56505462     -1.82441989
C       3.61089361      4.63629407     -0.94416026
H       2.70640463      3.15923770     -4.67663996
H       3.60526213      5.51902798     -0.07374151
H       3.26937489      3.67845001     -0.23878309
H       2.44211707      4.85127851     -1.28416978
H       8.83274915     -6.73157563     -8.86841867
H       8.47443567     -8.65750418     -8.18226699
H      10.83510463     -8.19755611     -6.79157362
H       7.95917155     -0.17491105      9.44393707
H      11.44420669     -0.80142346      8.97579860
H      -1.57151834     -8.91476202     12.38178032
H       7.86732454      0.52262435      6.71893208
H      -8.70103917     -4.16259564     22.46180555
H       8.20290349     13.22068755     11.17413508
H      -2.34918016     13.47720724     24.28700772
H      10.78037011     -0.19106098     11.82871223
H      10.42402060      1.98260232      2.30502099
H      -3.43235697     12.93195842     11.85126175
H      12.13966592      2.29198880      3.12473650
H       1.04570911      1.58607334    -14.90299328
H       7.02923508     -4.22436871      3.66784828
H       6.55246580     -6.61847042     -8.60466398
H      11.30001869      1.16637942     10.98548373
C      -8.83833386     -1.27962413      6.56210570
C      -1.79828871     -7.70486605     12.45169414
C       8.88764274      0.38277897      8.82825499
C      10.25592675     -0.54498410      9.18393375
C       8.90342862      0.89630076      7.22747464
C       9.13832927     13.77405509     11.59000536
C      10.79766456      0.10355930     10.65074920
C      -2.87743880     14.02793263     11.93508935
C      -1.82982929     14.44153763     23.89390867
C       6.09071867      3.42656555     -1.47397736
C      11.05005034      1.81672586      3.32157481
C      10.55409400      1.10934213      4.70263227
C      10.07096727     -7.38677994     -7.26869696
C       4.94350731      4.52058176     -2.03470384
C       7.62975454     -3.29048696      4.17157871
H       7.11676139      3.54038930     -0.84009856
H       4.47341013     -8.00569929     -7.81325789
H      -7.84999783     -1.50342354      7.13766391
H      -8.57273942     -3.49037170     22.83604365
H      -1.92138185     -7.54003258     13.66831903
H       8.97850342      2.55947217      5.68986685
H       8.40079451      1.35315471      9.41940682
H      10.07374820     14.32743239     12.00587801
H      -1.31047815     15.40586773     23.50080925
H       3.83329921      2.09098351     -4.11394573
H       6.21105192      2.22315682     -1.51153938
H      -3.02930798     14.64654533     10.88134611
H       5.93969886     -1.25513033      2.98860226
H       0.98596012      2.36049307    -14.97443678
H       8.41887050     -2.93242782      3.30929174
H      10.93113438     -6.53193542     -7.19824470
H      -3.37278852     14.66892588     12.86238496
   94

C       6.89212042     -6.99970752     -7.47832459
C       5.26609674     -7.41881846     -7.04997750
H       7.18201061     -6.34827024     -6.45877068
C     -10.17001748     -0.97811456      5.78664550
H     -18.89188036     -7.18330198     -1.80819323
H       4.48046815     -6.49348523     -6.75888374
C       9.66474208     -1.73496051      8.08209421
H       5.01095602     -8.19696906     -6.11905162
H      -7.45867013     -5.90932024    -16.97488234
H      -7.45095667     -6.67871386    -16.84692157
C       9.79828556      1.74353964      6.06715656
H      10.66053247      2.42217089      6.62780107
C       9.09385644     -2.51405619      6.74278888
H      10.91482355     -0.01967478      4.55738352
H      10.22189691     -2.93862627      6.82570565
H       0.32086256     -6.93175785     11.14054905
C       8.12924899     -3.52997781      5.79206558
H       7.24899485     -3.82506187      6.60588125
C       4.66280500      4.48153737     -3.75509457
H       8.73842079     -4.59491032      5.77271859
H       5.70216727      4.85126928     -4.32779622
H       4.12871906      5.53766385     -4.14689316
C       4.47061432      2.88576858     -6.22441648
H       5.08366192      4.14776941     -8.36259493
C       4.24919691      3.72688474     -7.60327322
H       5.15830222      1.91419360     -6.48401991
H       3.21440795      4.10667915     -8.08655882
H      -1.67533274     13.86434211     12.14538773
C       8.50939803     -7.45300413     -7.91308965
H     -10.56135498      0.14114912      5.63682897
H     -19.27120583     -7.16727424     -1.12683041
C       6.40528629     -1.72176682      4.21436676
H     -10.83164719     -1.85898545      5.32333786
C      -0.70434504     -6.68671092     11.73244494
H       5.24287440     -1.65229350      3.89882299
H      -2.93961896     -7.63627658     11.98763097
H      -0.70104327     -5.48030351     11.64845361
C       3.94417310      3.19900845     -4.66321543
H       5.59093563      5.56861414     -1.82668517
C       3.60748572      4.63815469     -0.94855643
H       2.70429191      3.16465131     -4.68155418
H       3.60182812      5.51826948     -0.07547254
H       3.26477832      3.67888763     -0.24567563
H       2.43939794      4.85634468     -1.28901145
H       8.83553164     -6.76425104     -8.89471946
H       8.46450123     -8.66228173     -8.19138269
H      10.81879919     -8.19992325     -6.77784163
H       7.93274017     -0.14609054      9.43806348
H      11.39398447     -0.84821752      8.93238787
H      -1.57168219     -8.91484545     12.38189417
H       7.82580977      0.63204798      6.73645487
H      -8.70104597     -4.16259620     22.46181295
H       8.20289642     13.22086674     11.17421336
H      -2.34918400     13.47721267     24.28701603
H      10.77433825     -0.24104604     11.78543888
H      10.42652030      1.98380312      2.30675931
H      -3.43238520     12.93199407     11.85127642
H      12.14483359      2.29877022      3.12162303
H       1.04493885      1.58617546    -14.90934615
H       7.04722930     -4.30976587      3.61652116
H       6.55451463     -6.57045562     -8.59426722
H      11.30915344      1.11268918     10.95224394
C      -8.83833716     -1.27962686      6.56209354
C      -1.79846407     -7.70495308     12.45181671
C       8.86436360      0.40385436      8.81976938
C      10.21293199     -0.56239085      9.14381755
C       8.88798087      0.94868954      7.22958799
C       9.13834414     13.77420225     11.59007630
C      10.78361289      0.06344522     10.60993900
C      -2.87746734     14.02796844     11.93510345
C      -1.82983326     14.44154324     23.89391722
C       6.08851093      3.42936761     -1.47939563
C      11.05478487      1.82642172      3.32322329
C      10.56079844      1.12924545      4.71009946
C      10.06071075     -7.38849889     -7.26348416
C       4.94058308      4.52338959     -2.03869650
C       7.69279754     -3.42363919      4.14264699
H       7.11645857      3.54310586     -0.84862232
H       4.48781190     -8.01614946     -7.81279670
H      -7.85000435     -1.50343035      7.13765517
H      -8.57274581     -3.49037221     22.83605080
H      -1.92155029     -7.54011928     13.66844103
H       9.00518675      2.60445578      5.68618356
H       8.40104326      1.37530677      9.42810777
H      10.07378074     14.32755420     12.00594232
H      -1.31048220     15.40587345     23.50081795
H       3.83091308      2.09468886     -4.11888051
H       6.20854114      2.22590365     -1.51649437
H      -3.02933604     14.64658032     10.88135969
H       6.05545719     -1.17527559      3.19381912
H       0.98518949      2.36059488    -14.98079264
H       8.46288045     -3.05258988      3.27064266
H      10.91555556     -6.52900881     -7.18529548
H      -3.37281762     14.66896091     12.86239926
   94

C       6.89534901     -6.98656497     -7.48048069
C       5.27526117     -7.42345991     -7.04886631
H       7.18657375     -6.32806384     -6.46594283
C     -10.16997890     -0.97811641      5.78663092
H     -18.89187521     -7.18330024     -1.80819261
H       4.47936795     -6.50852109     -6.75335329
C       9.57713562     -1.71963638      8.02001541
H       5.03240416     -8.20435511     -6.11700182
H      -7.45994561     -5.91056922    -16.97517146
H      -7.45223192     -6.67996284    -16.84721066
C       9.80537006      1.77371632      6.07087467
H      10.67650652      2.43590385      6.63701441
C       8.98607843     -2.45795134      6.66028628
H      10.93061871      0.00254729      4.57117570
H      10.13756662     -2.82606090      6.70868706
H       0.32072449     -6.93179744     11.14062405
C       8.11542830     -3.61228155      5.78253516
H       7.24284859     -3.92083117      6.60089339
C       4.66176875      4.48405991     -3.75902394
H       8.74497745     -4.66529589      5.81071443
H       5.70235502      4.85173432     -4.33084795
H       4.12982879      5.54100261     -4.15146382
C       4.46747886      2.88844738     -6.22934053
H       5.08110930      4.15320603     -8.36558891
C       4.24618778      3.72832443     -7.60896307
H       5.15386005      1.91603213     -6.48927616
H       3.21075205      4.10171130     -8.09585482
H      -1.67535352     13.86436657     12.14539648
C       8.50522966     -7.45839004     -7.92153069
H     -10.56131866      0.14114688      5.63681737
H     -19.27120099     -7.16727258     -1.12682995
C       6.53020002     -1.67007214      4.41151747
H     -10.83161182     -1.85898706      5.32332739
C      -0.70448041     -6.68673619     11.73251564
H       5.36210522     -1.59547385      4.11452150
H      -2.93973269     -7.63632086     11.98768657
H      -0.70117817     -5.48033037     11.64851703
C       3.94214437      3.20258913     -4.66790181
H       5.58633697      5.57160265     -1.82845076
C       3.60421976      4.63929410     -0.95238963
H       2.70223191      3.16999753     -4.68625693
H       3.59853347      5.51679206     -0.07665667
H       3.26042380      3.67860144     -0.25195904
H       2.43682513      4.86068090     -1.29325931
H       8.83718364     -6.79671076     -8.91968081
H       8.45462410     -8.66713704     -8.20035853
H      10.80239648     -8.20192964     -6.76431509
H       7.90692393     -0.11782401      9.43181197
H      11.34011736     -0.89907930      8.88520024
H      -1.57179258     -8.91488809     12.38195510
H       7.78659623      0.74650355      6.75616854
H      -8.70105030     -4.16259617     22.46181687
H       8.20289160     13.22101634     11.17428917
H      -2.34918608     13.47721576     24.28702155
H      10.76782835     -0.29382450     11.73853680
H      10.42851357      1.98494537      2.30899097
H      -3.43240500     12.93201541     11.85128330
H      12.14969700      2.30586799      3.11843183
H       1.04417510      1.58627750    -14.91568463
H       7.05915358     -4.38330718      3.57240058
H       6.55741730     -6.52375376     -8.58296107
H      11.31836589      1.05520507     10.91490852
C      -8.83829238     -1.27962778      6.56206866
C      -1.79858154     -7.70499764     12.45187948
C       8.84153914      0.42418186      8.81054463
C      10.16776225     -0.58210053      9.10099108
C       8.87296952      1.00168439      7.23203313
C       9.13835920     13.77432312     11.59014500
C      10.76949652      0.02014486     10.56547694
C      -2.87748812     14.02799026     11.93511024
C      -1.82983547     14.44154651     23.89392299
C       6.08624986      3.43151418     -1.48437911
C      11.05932803      1.83638765      3.32514425
C      10.56802024      1.14954899      4.71805911
C      10.05047795     -7.39007597     -7.25880392
C       4.93771506      4.52566523     -2.04227069
C       7.74880789     -3.54870099      4.12075313
H       7.11587769      3.54504884     -0.85634693
H       4.50246263     -8.02619148     -7.81278114
H      -7.84995427     -1.50343064      7.13762144
H      -8.57274985     -3.49037217     22.83605462
H      -1.92166157     -7.54016103     13.66850327
H       9.03220621      2.64904282      5.68265822
H       8.40309879      1.39573886      9.43726225
H      10.07381167     14.32765278     12.00600431
H      -1.31048452     15.40587686     23.50082390
H       3.82854478      2.09824931     -4.12367040
H       6.20573012      2.22795982     -1.52072161
H      -3.02935630     14.64660130     10.88136594
H       6.18488788     -1.11052858      3.39574633
H       0.98442514      2.36069668    -14.98713320
H       8.49566526     -3.16250987      3.23628207
H      10.89972389     -6.52580166     -7.17298221
H      -3.37283916     14.66898212     12.86240605
   94

C       6.89868255     -6.97360381     -7.48229343
C       5.28455966     -7.42794918     -7.04793225
H       7.19115347     -6.30837022     -6.47259705
C     -10.16991588     -0.97811828      5.78661787
H     -18.89186900     -7.18329840     -1.80819164
H       4.47876593     -6.52324024     -6.74833236
C       9.48989088     -1.70236543      7.95433754
H       5.05360213     -8.21126503     -6.11511606
H      -7.46122011     -5.91181853    -16.97546017
H      -7.45350614     -6.68121213    -16.84749929
C       9.81119128      1.80222644      6.07443014
H      10.69025754      2.44862787      6.64614684
C       8.87051019     -2.40556983      6.58077240
H      10.94767891      0.02374482      4.58653663
H      10.04126911     -2.71616205      6.59482926
H       0.32066057     -6.93179721     11.14059762
C       8.10615349     -3.68251492      5.77502156
H       7.23937365     -4.00764256      6.59489838
C       4.66079200      4.48647902     -3.76270623
H       8.75625855     -4.72121491      5.84939585
H       5.70260167      4.85209596     -4.33364221
H       4.13101982      5.54426209     -4.15574039
C       4.46437724      2.89117204     -6.23415685
H       5.07852829      4.15866432     -8.36849615
C       4.24318929      3.72981139     -7.61453948
H       5.14942490      1.91790730     -6.49445735
H       3.20715171      4.09675566     -8.10504705
H      -1.67536266     13.86437338     12.14539691
C       8.50095669     -7.46384059     -7.92963635
H     -10.56125951      0.14114420      5.63680749
H     -19.27119505     -7.16727080     -1.12682914
C       6.66355916     -1.62823760      4.60640567
H     -10.83155471     -1.85898803      5.32332077
C      -0.70453375     -6.68672804     11.73250356
H       5.49044894     -1.55017904      4.32573145
H      -2.93977299     -7.63632272     11.98768246
H      -0.70123634     -5.48032380     11.64848407
C       3.94015468      3.20616668     -4.67246812
H       5.58181507      5.57432115     -1.82992014
C       3.60107319      4.64009830     -0.95587424
H       2.70021265      3.17537470     -4.69084730
H       3.59537280      5.51495851     -0.07748516
H       3.25623464      3.67798936     -0.25786368
H       2.43437991      4.86469413     -1.29713439
H       8.83780711     -6.82871923     -8.94326417
H       8.44484365     -8.67197430     -8.20929980
H      10.78588400     -8.20365505     -6.75096210
H       7.88193877     -0.09125798      9.42486914
H      11.28381587     -0.95146196      8.83479318
H      -1.57183106     -8.91488713     12.38195569
H       7.75032816      0.85899311      6.77587960
H      -8.70105156     -4.16259563     22.46181700
H       8.20289060     13.22110320     11.17434538
H      -2.34918593     13.47721594     24.28702325
H      10.76046393     -0.34802165     11.68849329
H      10.42961284      1.98524764      2.31201541
H      -3.43241286     12.93201971     11.85128202
H      12.15372957      2.31238530      3.11572633
H       1.04341601      1.58637845    -14.92201655
H       7.06868533     -4.44378286      3.53465930
H       6.56106666     -6.47857667     -8.57092859
H      11.32655083      0.99571579     10.87408109
C      -8.83821829     -1.27962700      6.56203867
C      -1.79862189     -7.70499677     12.45187566
C       8.81896244      0.44292505      8.79997396
C      10.12143558     -0.60259561      9.05568624
C       8.85714844      1.05264037      7.23370085
C       9.13837181     13.77439058     11.59019593
C      10.75475315     -0.02478140     10.51789279
C      -2.87749727     14.02799519     11.93510934
C      -1.82983541     14.44154681     23.89392488
C       6.08400932      3.43338570     -1.48907309
C      11.06335363      1.84507624      3.32748686
C      10.57514723      1.16846661      4.72639788
C      10.04028797     -7.39152565     -7.25454550
C       4.93490609      4.52769720     -2.04559193
C       7.80132436     -3.66507515      4.10522474
H       7.11511602      3.54660991     -0.86344866
H       4.51727149     -8.03587113     -7.81304930
H      -7.84986916     -1.50342547      7.13757460
H      -8.57275096     -3.49037167     22.83605476
H      -1.92169807     -7.54015588     13.66849906
H       9.05743697      2.69061980      5.67865821
H       8.40585303      1.41367806      9.44531393
H      10.07383492     14.32770582     12.00604999
H      -1.31048457     15.40587730     23.50082596
H       3.82618647      2.10178827     -4.12838485
H       6.20283576      2.22972968     -1.52458997
H      -3.02936507     14.64660559     10.88136461
H       6.32424156     -1.05894795      3.59310314
H       0.98366499      2.36079737    -14.99346698
H       8.52117719     -3.25999119      3.20735849
H      10.88370554     -6.52237796     -7.16116426
H      -3.37284906     14.66898671     12.86240497
   94

C       6.90209901     -6.96083868     -7.48380727
C       5.29396914     -7.43229538     -7.04710891
H       7.19573010     -6.28909314     -6.47884434
C     -10.16984250     -0.97812004      5.78660792
H     -18.89186250     -7.18329684     -1.80819056
H       4.47864307     -6.53762730     -6.74374607
C       9.40630457     -1.68402555      7.88687701
H       5.07457911     -8.21768745     -6.11328359
H      -7.46249378     -5.91306846    -16.97574873
H      -7.45477945     -6.68246201    -16.84778762
C       9.81481855      1.82772704      6.07738282
H      10.70049219      2.45972902      6.65459394
C       8.75428291     -2.35977383      6.50621442
H      10.96450972      0.04225175      4.60319187
H       9.93962964     -2.61288116      6.48674215
H       0.32068315     -6.93175873     11.14047606
C       8.10031235     -3.73858239      5.76930374
H       7.23619039     -4.08078170      6.58732100
C       4.65986114      4.48889804     -3.76627935
H       8.76737075     -4.76320388      5.88970975
H       5.70289359      4.85244532     -4.33632512
H       4.13227452      5.54753095     -4.15989300
C       4.46130153      2.89395102     -6.23893117
H       5.07591977      4.16414646     -8.37138039
C       4.24019686      3.73133900     -7.62007695
H       5.14499264      1.91982578     -6.49960930
H       3.20360420      4.09181730     -8.11420383
H      -1.67535767     13.86436113     12.14538920
C       8.49660303     -7.46929374     -7.93741755
H     -10.56119085      0.14114139      5.63680049
H     -19.27118878     -7.16726927     -1.12682818
C       6.80095390     -1.59275893      4.79935792
H     -10.83148836     -1.85898854      5.32331804
C      -0.70449483     -6.68669066     11.73241256
H       5.62385227     -1.51439493      4.53080703
H      -2.93973251     -7.63628430     11.98762016
H      -0.70120713     -5.48028750     11.64836560
C       3.93819169      3.20980015     -4.67699192
H       5.57735874      5.57698936     -1.83126364
C       3.59800767      4.64086073     -0.95920466
H       2.69822186      3.18083073     -4.69540177
H       3.59231633      5.51304832     -0.07813935
H       3.25212267      3.67735037     -0.26360616
H       2.43202760      4.86869325     -1.30083984
H       8.83752212     -6.86010191     -8.96548285
H       8.43518450     -8.67671234     -8.21830337
H      10.76924800     -8.20517669     -6.73776643
H       7.85802825     -0.06754797      9.41695061
H      11.22674313     -1.00286343      8.78209461
H      -1.57179003     -8.91484503     12.38189593
H       7.71724009      0.96288147      6.79343457
H      -8.70104955     -4.16259470     22.46181353
H       8.20289511     13.22110070     11.17436848
H      -2.34918326     13.47721296     24.28702061
H      10.75202783     -0.40232504     11.63611123
H      10.42949398      1.98412703      2.31597748
H      -3.43240663     12.93200631     11.85127322
H      12.15648288      2.31748669      3.11397122
H       1.04266024      1.58647732    -14.92834677
H       7.08019942     -4.49158417      3.50240706
H       6.56534492     -6.43504950     -8.55834308
H      11.33283107      0.93599339     10.83070030
C      -8.83813156     -1.27962506      6.56200898
C      -1.79857787     -7.70495312     12.45180690
C       8.79658631      0.45932317      8.78773421
C      10.07518435     -0.62272720      9.00846588
C       8.83979291      1.09950969      7.23381009
C       9.13838021     13.77438306     11.59021677
C      10.73900803     -0.06982345     10.46805633
C      -2.87749231     14.02798239     11.93510128
C      -1.82983277     14.44154388     23.89392231
C       6.08182673      3.43525037     -1.49361569
C      11.06651246      1.85122998      3.33033291
C      10.58143170      1.18450830      4.73491626
C      10.03014765     -7.39286416     -7.25060823
C       4.93214808      4.52969718     -2.04880211
C       7.85225129     -3.77114809      4.09503057
H       7.11425990      3.54808070     -0.87014348
H       4.53216400     -8.04523314     -7.81346152
H      -7.84976837     -1.50341665      7.13752412
H      -8.57274897     -3.49037081     22.83605144
H      -1.92165350     -7.54010784     13.66843018
H       9.07911536      2.72726468      5.67382957
H       8.40821984      1.42852777      9.45099203
H      10.07384589     14.32769577     12.00606821
H      -1.31048201     15.40587444     23.50082351
H       3.82383210      2.10537666     -4.13307617
H       6.19998830      2.23149625     -1.52837806
H      -3.02936000     14.64659253     10.88135637
H       6.47010388     -1.01724209      3.78576475
H       0.98290757      2.36089592    -14.99979933
H       8.54374699     -3.34391464      3.18512443
H      10.86755074     -6.51879824     -7.14971733
H      -3.37284470     14.66897396     12.86239657
   94

C       6.90557743     -6.94828118     -7.48507746
C       5.30347088     -7.43651000     -7.04634686
H       7.20028571     -6.27014430     -6.48480330
C     -10.16976649     -0.97812173      5.78660116
H     -18.89185584     -7.18329566     -1.80818945
H       4.47897663     -6.55168193     -6.73952051
C       9.32850881     -1.66525767      7.81865428
H       5.09536783     -8.22362845     -6.11142661
H      -7.46376659     -5.91431904    -16.97603688
H      -7.45605178     -6.68371253    -16.84807538
C       9.81587232      1.84972654      6.07949443
H      10.70678022      2.46905210      6.66197181
C       8.64279688     -2.32119571      6.43673793
H      10.97952932      0.05715121      4.62055762
H       9.83794737     -2.51868915      6.38550326
H       0.32079119     -6.93168529     11.14027351
C       8.09587696     -3.78028428      5.76465379
H       7.23089213     -4.13817521      6.57784689
C       4.65896435      4.49135792     -3.76982088
H       8.77365276     -4.79312724      5.93100068
H       5.70321896      4.85281863     -4.33897723
H       4.13357756      5.55084136     -4.16401680
C       4.45824458      2.89677207     -6.24369455
H       5.07328324      4.16964372     -8.37426850
C       4.23720733      3.73289129     -7.62560915
H       5.14056243      1.92177717     -6.50475139
H       3.20010747      4.08688967     -8.12335374
H      -1.67533814     13.86433076     12.14537438
C       8.49218838     -7.47469872     -7.94490187
H     -10.56112001      0.14113848      5.63679637
H     -19.27118233     -7.16726809     -1.12682719
C       6.93980774     -1.56109425      4.99116683
H     -10.83141949     -1.85898891      5.32331839
C      -0.70436671     -6.68662834     11.73225349
H       5.75978448     -1.48525675      4.73024623
H      -2.93961465     -7.63621051     11.98750632
H      -0.70109262     -5.48022545     11.64817817
C       3.93624773      3.21349914     -4.68150922
H       5.57295420      5.57971232     -1.83257720
C       3.59498948      4.64172719     -0.96249669
H       2.69625210      3.18636584     -4.69995470
H       3.58932999      5.51120542     -0.07873423
H       3.24802614      3.67683185     -0.26931717
H       2.42973613      4.87282792     -1.30449811
H       8.83645612     -6.89074293     -8.98639270
H       8.42565976     -8.68128719     -8.22745443
H      10.75247661     -8.20656502     -6.72472800
H       7.83528357     -0.04727292      9.40792560
H      11.17023372     -1.05167945      8.72802013
H      -1.57167245     -8.91476685     12.38178157
H       7.68700272      1.05418766      6.80739507
H      -8.70104448     -4.16259351     22.46180703
H       8.20290618     13.22099810     11.17435307
H      -2.34917808     13.47720702     24.28701381
H      10.74250637     -0.45593040     11.58215944
H      10.42798256      1.98139389      2.32084127
H      -3.43238611     12.93197650     11.85125821
H      12.15771873      2.32073182      3.11337364
H       1.04190732      1.58657347    -14.93467639
H       7.09748115     -4.52951646      3.47465681
H       6.57013424     -6.39322387     -8.54536439
H      11.33686229      0.87717002     10.78563117
C      -8.83804147     -1.27962246      6.56198190
C      -1.79845332     -7.70487209     12.45168074
C       8.77443696      0.47307572      8.77385270
C      10.02988466     -0.64189633      8.95996615
C       8.82075284      1.14145485      7.23209766
C       9.13838393     13.77429214     11.59020253
C      10.72214572     -0.11401635     10.41680797
C      -2.87747282     14.02795307     11.93508724
C      -1.82982753     14.44153786     23.89391543
C       6.07970768      3.43722920     -1.49809319
C      11.06854174      1.85435175      3.33368347
C      10.58625782      1.19700012      4.74340628
C      10.02005512     -7.39410810     -7.24690838
C       4.92942888      4.53176574     -2.05198134
C       7.90147880     -3.86477255      4.08893191
H       7.11336539      3.54960947     -0.87660223
H       4.54708152     -8.05431868     -7.81391147
H      -7.84966301     -1.50340573      7.13747486
H      -8.57274405     -3.49036974     22.83604518
H      -1.92153207     -7.54002346     13.66830424
H       9.09636141      2.75831026      5.66812233
H       8.40949942      1.44019197      9.45373163
H      10.07384290     14.32761598     12.00605443
H      -1.31047681     15.40586844     23.50081665
H       3.82148108      2.10903077     -4.13776507
H       6.19723260      2.23338601     -1.53221934
H      -3.02934073     14.64656337     10.88134241
H       6.62033105     -0.98218260      3.97484296
H       0.98215237      2.36099163    -15.00613163
H       8.56735608     -3.41546882      3.16999200
H      10.85129573     -6.51511667     -7.13854095
H      -3.37282565     14.66894515     12.86238199
   94

C       6.91156870     -6.92986716     -7.48565443
C       5.31870701     -7.44442858     -7.04569154
H       7.20745177     -6.23873589     -6.49463109
C     -10.16968116     -0.97812121      5.78662609
H     -18.89185999     -7.18329685     -1.80818867
H       4.47974101     -6.57494279     -6.73502343
C       9.19925482     -1.63211787      7.68280342
H       5.12802964     -8.23214186     -6.10773588
H      -7.46506857     -5.91556660    -16.97636143
H      -7.45735738     -6.68496059    -16.84840276
C       9.80616287      1.87625609      6.07731940
H      10.70096520      2.48039857      6.66879444
C       8.44200772     -2.25265269      6.30208826
H      11.00228081      0.07113908      4.65156544
H       9.64509258     -2.35840822      6.20091967
H       0.32150055     -6.93137088     11.13960832
C       8.08263934     -3.82057572      5.75272305
H       7.20803283     -4.19948891      6.55323033
C       4.65812433      4.49463921     -3.77389292
H       8.75746789     -4.82278901      6.00634614
H       5.70440139      4.85268027     -4.34156056
H       4.13621761      5.55537156     -4.16919665
C       4.45379352      2.90005742     -6.24978309
H       5.07072912      4.17680726     -8.37703156
C       4.23349025      3.73402437     -7.63312487
H       5.13431979      1.92392973     -6.51138222
H       3.19612000      4.07960695     -8.13623961
H      -1.67522236     13.86417483     12.14530767
C       8.48523322     -7.48534648     -7.95577808
H     -10.56103991      0.14113743      5.63681892
H     -19.27118577     -7.16726916     -1.12682601
C       7.22754690     -1.50410844      5.36578610
H     -10.83134575     -1.85898474      5.32335166
C      -0.70363004     -6.68637720     11.73167766
H       6.04478585     -1.43919103      5.10436108
H      -2.93895578     -7.63588269     11.98706673
H      -0.70038860     -5.47997091     11.64755763
C       3.93403652      3.21850831     -4.68705956
H       5.56576794      5.58451994     -1.83290182
C       3.59075157      4.64328864     -0.96592806
H       2.69401064      3.19415644     -4.70539136
H       3.58495433      5.50837857     -0.07782361
H       3.24251716      3.67624522     -0.27632941
H       2.42663877      4.87960550     -1.30841604
H       8.83367593     -6.94659500     -9.02011351
H       8.41100907     -8.68940262     -8.24554606
H      10.72703107     -8.20853791     -6.70753596
H       7.79256247     -0.02679548      9.38722368
H      11.06586492     -1.13217795      8.62471177
H      -1.57102359     -8.91443488     12.38132992
H       7.63001723      1.18300956      6.82065917
H      -8.70101793     -4.16259184     22.46177845
H       8.20294145     13.22024184     11.17403155
H      -2.34916350     13.47718722     24.28698232
H      10.71868442     -0.52918281     11.47707777
H      10.42298306      1.97269251      2.33136112
H      -3.43227189     12.93183102     11.85119647
H      12.15716756      2.31923886      3.11686066
H       1.04104793      1.58673869    -14.94132023
H       7.14531150     -4.58857327      3.42791269
H       6.58094330     -6.32149710     -8.51841905
H      11.32478798      0.79420941     10.69046218
C      -8.83793724     -1.27961619      6.56198183
C      -1.79777092     -7.70452891     12.45119710
C       8.72784739      0.48759471      8.74207486
C       9.94433130     -0.67836953      8.86708288
C       8.77600501      1.20305166      7.22202558
C       9.13832463     13.77367504     11.58991039
C      10.68836333     -0.18090262     10.31327883
C      -2.87735699     14.02780680     11.93502706
C      -1.82981241     14.44151727     23.89388281
C       6.07729527      3.44080600     -1.50451262
C      11.07032737      1.84857790      3.34018403
C      10.59095332      1.20649179      4.75734887
C      10.00153910     -7.39356313     -7.23572439
C       4.92546702      4.53524358     -2.05545714
C       7.98450050     -4.00847232      4.08161507
H       7.11306770      3.55242015     -0.88650038
H       4.57136429     -8.06941784     -7.81581564
H      -7.84953394     -1.50338191      7.13744095
H      -8.57271924     -3.49036836     22.83601772
H      -1.92087216     -7.53967942     13.66782229
H       9.10920905      2.79355857      5.64897245
H       8.39592533      1.44991670      9.44634073
H      10.07370782     14.32710824     12.00578923
H      -1.31046131     15.40584731     23.50078330
H       3.81924548      2.11393734     -4.14352287
H       6.19420765      2.23688618     -1.53825366
H      -3.02922606     14.64641905     10.88128340
H       6.94131535     -0.92335469      4.33796146
H       0.98130135      2.36116026    -15.01274560
H       8.61815082     -3.53294785      3.15091631
H      10.82305205     -6.50616815     -7.12145538
H      -3.37270765     14.66880232     12.86232070
