   94

C      -5.69046808     -0.64197659     -0.93200048
C      -4.09427073     -0.95692053     -0.33888750
H      -5.70552745      0.11445684     -1.92348651
C      -6.96260547     -0.24677294      0.17948945
H      -5.99927093     -1.49212365     -1.78868186
H      -3.76753987      0.20022145     -0.05129154
C      -2.46042172     -1.37996484     -0.48101125
H      -4.33782133     -2.01600894      0.25533436
H      -6.00205515     -3.73483716    -11.08087905
H      -5.99434396     -4.50423116    -10.95292039
C      -1.23174554     -1.24979482     -1.62317608
H      -1.82233947     -0.72494190     -2.57847490
C       0.37349864     -0.59889118     -1.51310479
H      -1.26647279     -2.41963042     -2.04488605
H       0.44410912      0.34651364     -2.32400748
H       1.04359645     -1.32582073     -2.27919678
C       1.34939026     -0.16237749     -0.13152911
H       2.46291303      0.19664602     -0.57511456
C       0.96792050      0.85695690      1.24408816
H       1.92234946     -1.20001052      0.25388541
H       0.36534015      1.83909692      0.78455727
H       1.94548784      1.60724387      1.44687582
C       0.34628878      0.47581224      2.84086313
H       1.33898974      0.28334484      3.57020741
C       3.21464707      3.53390803    -10.57041464
H       0.20353751     -0.75256222      2.92839249
H       2.56864027      4.34203552    -11.02979339
H      10.23165007     -4.66149132     -9.26287682
C      11.32112282     -4.35886351     -8.77544829
H      -6.83695695      0.85856419      0.73362163
H      -6.96190409     -0.83371387      1.27463726
C      -8.58303412     -0.32333496     -0.21512056
H      -9.35277142      0.53798519     -0.57920527
C      -0.90336753      1.23535311      3.82026833
H      -9.36044986     -1.25231069     -0.21013786
H      -0.69801643      2.46432417      3.85131099
H      -0.58517665      1.18482552      5.02315635
C      -2.63390328      1.01446612      3.83114780
H      -3.02971301      1.63936727      2.83156913
C      -3.89020360      1.28093525      4.99365251
H      -2.85141047     -0.17306315      3.54486957
H      -3.93022320      2.33191973      5.64919362
H      -4.05184985      0.48583162      5.93366743
H      -5.09586946      1.32549902      4.69172902
H      11.26729523     -3.21217675     -8.33010226
H      12.19111437     -4.42116227     -9.64455968
H      11.59443163     -5.14062372     -7.86425439
H       6.02937168     -2.58934841     13.07359804
H       2.68378354     -2.40534393     14.58582544
H       6.28727184     -3.14898936     10.14119477
H       9.06307138     -2.86297051     10.95735783
H       3.29000469     -2.80868743     11.77115069
H       6.41823054      6.51428099      1.47111886
H      -1.41036776      7.68487576     15.37911418
H       7.94512993      6.11452053      4.87465021
H      14.47011887     -2.45926318      2.10626947
H      -1.13944665      6.37326531     12.68449444
H      17.19007906     -1.73858991      2.46690789
H      17.05346195     -1.95008296     -0.31642452
H      11.01515545     -1.29338114      4.48887194
H      19.97339145     -1.66853208      0.48978653
H       6.91105527      5.03542108      3.87119492
C       5.58764615     -1.84000170     12.18151685
C       6.53901474     -2.10375764     10.76358953
C       3.86335728     -1.83722410     12.29094186
C       3.11049971     -1.61720211     13.77036110
C       8.20936647     -2.01158660     10.83691685
C       7.02397792      6.88768205      2.45036299
C       7.11784147      6.24811202      3.97847463
C      -1.11831286      7.55839574     12.92215183
C      -1.26109520      8.36738503     14.36320609
C      14.96030297     -1.46989511      2.65605291
C      16.42577727     -1.01147570      1.81441776
C      17.42629011     -0.97709702      0.36606254
C      19.13710955     -0.87672578      0.02627675
C      13.43716283     -1.17862751      3.19021251
C      12.02462042     -1.16387924      3.91954543
H      19.59272232     -0.97245974     -1.12957224
H      -2.02490167     -1.99549528      0.48566330
H       5.99624567     -0.79827021     12.72832114
H       2.83717929     -0.61586204     14.39607748
H       6.22757511     -1.43690831      9.76276086
H       8.96704089     -1.06588088     10.81624819
H       3.27151427     -1.07428530     11.50893719
H       7.50721388      7.89921049      1.99963389
H      -0.27910308      9.05211246     14.66202832
H       6.60345553      7.05015946      4.75521193
H      15.18167992     -1.40377675      3.86989337
H      -0.96255224      7.98490854     11.80129344
H      16.28022563      0.20803280      2.00439227
H      16.98758101     -0.06000367     -0.35315689
H      10.99889560     -1.09188911      4.46809292
H      19.82554848      0.12294759      0.29149646
H      -2.23052063      9.12822081     14.42504280
   94

C      -5.69132544     -0.64336626     -0.93202416
C      -4.09493759     -0.95867101     -0.33933384
H      -5.70591351      0.11325349     -1.92335936
C      -6.96421231     -0.24752210      0.17849631
H      -6.00029152     -1.49390290     -1.78824543
H      -3.76771736      0.19806834     -0.05088922
C      -2.46131743     -1.38233079     -0.48363299
H      -4.33863641     -2.01658508      0.25688861
H      -6.00203581     -3.73483179    -11.08085258
H      -5.99432577     -4.50422606    -10.95289554
C      -1.23222216     -1.25116282     -1.62537881
H      -1.82265374     -0.72818707     -2.58185698
C       0.37243601     -0.59887818     -1.51226506
H      -1.26610047     -2.42038499     -2.04888135
H       0.44244641      0.34838454     -2.32101733
H       1.04400043     -1.32388016     -2.27883316
C       1.34788748     -0.16403589     -0.12975371
H       2.46323617      0.19248237     -0.57073486
C       0.96577200      0.85659812      1.24460437
H       1.91907901     -1.20226826      0.25654896
H       0.36124271      1.83732530      0.78466658
H       1.94083698      1.61055205      1.44584734
C       0.34640933      0.47424479      2.84181417
H       1.33973741      0.27956174      3.56977649
C       3.21451568      3.53391154    -10.57050682
H       0.20277679     -0.75401392      2.92944878
H       2.56851838      4.34204625    -11.02988639
H      10.23158131     -4.66144101     -9.26317796
C      11.32104782     -4.35881670     -8.77573509
H      -6.83885368      0.85802542      0.73228562
H      -6.96408819     -0.83350343      1.27415209
C      -8.58447069     -0.32443421     -0.21706108
H      -9.35432995      0.53645413     -0.58195422
C      -0.90227177      1.23479653      3.82142547
H      -9.36188438     -1.25342882     -0.21249572
H      -0.69651250      2.46369586      3.85283768
H      -0.58319891      1.18546694      5.02412338
C      -2.63275871      1.01389531      3.83165232
H      -3.02870826      1.63816182      2.83172324
C      -3.88858736      1.28086971      4.99445730
H      -2.85061170     -0.17346666      3.54487162
H      -3.92839220      2.33221110      5.64943588
H      -4.04942756      0.48604718      5.93483788
H      -5.09433859      1.32529480      4.69289110
H      11.26720207     -3.21215856     -8.33032094
H      12.19106947     -4.42108072     -9.64481793
H      11.59436380     -5.14062906     -7.86459007
H       6.03727251     -2.58707203     13.06961739
H       2.68623425     -2.41167455     14.57720219
H       6.28671152     -3.14868652     10.13823769
H       9.06668708     -2.86247423     10.95381903
H       3.22719672     -2.82729292     11.85834882
H       6.41036119      6.53735279      1.47109446
H      -1.41041423      7.68482133     15.37918937
H       7.93544061      6.14781293      4.87191071
H      14.41978776     -2.40379566      2.08516992
H      -1.13949732      6.37320922     12.68456048
H      17.13694734     -1.73568249      2.48449390
H      17.02984105     -1.95406037     -0.29839126
H      11.35487114     -3.14671836      4.54317780
H      19.94727083     -1.67647341      0.51166576
H       6.88704846      5.06783352      3.88247423
C       5.60630673     -1.83139068     12.17763191
C       6.54520756     -2.10222432     10.75573157
C       3.89160030     -1.79065422     12.28016424
C       3.09972621     -1.63913662     13.73876158
C       8.21490386     -2.01036425     10.82761499
C       7.01208515      6.91413397      2.45153515
C       7.10091837      6.27975585      3.98196957
C      -1.11840309      7.55833528     12.92224333
C      -1.26116354      8.36734263     14.36328723
C      14.87550615     -1.41340872      2.66373672
C      16.37890570     -1.00832302      1.82485571
C      17.40197497     -0.98140522      0.38557017
C      19.11417447     -0.88323021      0.04515428
C      13.33438002     -1.31423938      3.31167737
C      11.90723646     -0.81213375      3.98656440
H      19.57303689     -0.98059738     -1.10956664
H      -2.02546496     -1.99950504      0.48183099
H       6.01105533     -0.79193585     12.72939202
H       2.83388254     -0.64181032     14.37834090
H       6.23086932     -1.43683720      9.75507720
H       8.97205467     -1.06455315     10.80320482
H       3.28369465     -1.05517807     11.48778449
H       7.50170988      7.92136602      1.99817002
H      -0.27917335      9.05207567     14.66210226
H       6.57829117      7.07845588      4.75696224
H      15.13073586     -1.38761624      3.87277793
H      -0.96273631      7.98488387     11.80138654
H      16.26676306      0.21411758      2.01914809
H      16.96681001     -0.06962335     -0.34355045
H      11.42920185      0.27793048      4.10867568
H      19.80297285      0.11610241      0.31128761
H      -2.23059642      9.12816728     14.42514344
   94

C      -5.69261153     -0.64469840     -0.93219964
C      -4.09608241     -0.96037655     -0.33988577
H      -5.70670699      0.11211586     -1.92337561
C      -6.96614860     -0.24821510      0.17744088
H      -6.00171641     -1.49562732     -1.78796293
H      -3.76835320      0.19596996     -0.05064847
C      -2.46275405     -1.38469631     -0.48651786
H      -4.33992026     -2.01713781      0.25830042
H      -6.00204166     -3.73483728    -11.08086748
H      -5.99433158     -4.50423154    -10.95291040
C      -1.23338899     -1.25251617     -1.62797115
H      -1.82367973     -0.73144213     -2.58561563
C       0.37055538     -0.59862964     -1.51204342
H      -1.26634433     -2.42113760     -2.05321764
H       0.43996314      0.35047936     -2.31863481
H       1.04363273     -1.32170940     -2.27903873
C       1.34525085     -0.16521569     -0.12848560
H       2.46241303      0.18873536     -0.56689300
C       0.96254040      0.85667795      1.24467425
H       1.91450995     -1.20415908      0.25862908
H       0.35618883      1.83606551      0.78434234
H       1.93512364      1.61425067      1.44439999
C       0.34529718      0.47307971      2.84226472
H       1.33913851      0.27615169      3.56895963
C       3.21448752      3.53395385    -10.57049612
H       0.20072503     -0.75506417      2.93006571
H       2.56849002      4.34208683    -11.02987839
H      10.23150954     -4.66151818     -9.26336667
C      11.32097813     -4.35889651     -8.77592675
H      -6.84108637      0.85754824      0.73087554
H      -6.96660204     -0.83324084      1.27360127
C      -8.58621977     -0.32549887     -0.21905747
H      -9.35618675      0.53496615     -0.58475423
C      -0.90203937      1.23475972      3.82241984
H      -9.36360963     -1.25452587     -0.21490196
H      -0.69576399      2.46356466      3.85418476
H      -0.58206065      1.18658873      5.02491874
C      -2.63239807      1.01360277      3.83202017
H      -3.02849375      1.63725275      2.83175995
C      -3.88758030      1.28101556      4.99528438
H      -2.85058927     -0.17360062      3.54475739
H      -3.92712294      2.33270277      5.64971511
H      -4.04757187      0.48644371      5.93600984
H      -5.09341601      1.32529719      4.69409771
H      11.26713258     -3.21223525     -8.33052023
H      12.19099984     -4.42116108     -9.64500945
H      11.59429369     -5.14071159     -7.86478361
H       6.04203375     -2.58631860     13.06902928
H       2.68786579     -2.41666937     14.57142908
H       6.28438277     -3.14999736     10.13899083
H       9.06844479     -2.86433115     10.95335176
H       3.16452724     -2.83904254     11.95015484
H       6.41144639      6.54733736      1.47456067
H      -1.41043013      7.68485973     15.37919475
H       7.94469946      6.15700862      4.86703594
H      14.43628669     -2.41004381      2.07835512
H      -1.13953724      6.37326278     12.68454973
H      17.15022599     -1.73065389      2.48786937
H      17.02806730     -1.95592882     -0.30171924
H      11.39006349     -2.83251324      4.48483786
H      19.94591066     -1.67968218      0.51340092
H       6.88534258      5.07724075      3.88985648
C       5.62152698     -1.82432274     12.17743971
C       6.54923557     -2.10279361     10.75248394
C       3.91532474     -1.74957227     12.27071393
C       3.08756203     -1.66219255     13.70838639
C       8.21818009     -2.01128456     10.82527695
C       7.01332604      6.92366522      2.45507888
C       7.10101948      6.28903740      3.98549619
C      -1.11841863      7.55838715     12.92223705
C      -1.26117489      8.36737731     14.36329073
C      14.88815171     -1.41996687      2.66082503
C      16.38944915     -1.00772115      1.82621559
C      17.40232936     -0.98381332      0.38181903
C      19.11444881     -0.88559419      0.04544822
C      13.34562782     -1.31112639      3.30164767
C      11.82878730     -1.00759968      4.04784934
H      19.57461805     -0.98281387     -1.10853696
H      -2.02658320     -2.00353530      0.47772230
H       6.02229611     -0.78701503     12.73396458
H       2.83002091     -0.66761267     14.36020690
H       6.23174991     -1.43785967      9.75279321
H       8.97426658     -1.06475594     10.80173580
H       3.29381310     -1.03859785     11.46946416
H       7.50474788      7.92986835      2.00136029
H      -0.27917689      9.05210237     14.66209812
H       6.57084598      7.08302500      4.76063035
H      15.14195031     -1.39632108      3.87027573
H      -0.96274478      7.98493646     11.80138135
H      16.27589034      0.21418419      2.02328896
H      16.96259742     -0.07552444     -0.34890815
H      11.43858441      0.16166930      4.11373543
H      19.80087947      0.11455739      0.31428861
H      -2.23060964      9.12819880     14.42515504
   94

C      -5.69388424     -0.64602800     -0.93236957
C      -4.09721194     -0.96207843     -0.34043407
H      -5.70748955      0.11098142     -1.92338560
C      -6.96807304     -0.24890797      0.17638958
H      -6.00312891     -1.49734820     -1.78767513
H      -3.76897490      0.19387429     -0.05040270
C      -2.46417622     -1.38705471     -0.48939485
H      -4.34118283     -2.01768459      0.25971349
H      -6.00204647     -3.73484240    -11.08088079
H      -5.99433637     -4.50423666    -10.95292370
C      -1.23453570     -1.25386587     -1.63055127
H      -1.82467976     -0.73469184     -2.58936001
C       0.36869493     -0.59839016     -1.51180268
H      -1.26656809     -2.42188405     -2.05753870
H       0.43749237      0.35255547     -2.31623517
H       1.04328559     -1.31954691     -2.27921705
C       1.34264159     -0.16641320     -0.12720239
H       2.46160116      0.18498142     -0.56303103
C       0.95932611      0.85673866      1.24475514
H       1.90998429     -1.20605525      0.26072267
H       0.35115361      1.83478509      0.78403424
H       1.92941819      1.61791354      1.44295968
C       0.34421990      0.47190246      2.84273112
H       1.33857698      0.27273231      3.56814745
C       3.21445672      3.53399461    -10.57048888
H       0.19871358     -0.75612622      2.93069883
H       2.56845929      4.34212624    -11.02987363
H      10.23144009     -4.66158905     -9.26354019
C      11.32090988     -4.35896936     -8.77610174
H      -6.84330699      0.85707016      0.72947129
H      -6.96910254     -0.83297943      1.27305252
C      -8.58795744     -0.32656193     -0.22104795
H      -9.35803292      0.53348020     -0.58754390
C      -0.90178241      1.23470649      3.82341985
H      -9.36532437     -1.25562051     -0.21730019
H      -0.69499788      2.46341804      3.85553702
H      -0.58089451      1.18769400      5.02571707
C      -2.63201621      1.01330344      3.83239586
H      -3.02826110      1.63633684      2.83180589
C      -3.88655634      1.28115388      4.99611596
H      -2.85054523     -0.17374085      3.54464998
H      -3.92583853      2.33318547      5.65000050
H      -4.04569822      0.48683201      5.93718494
H      -5.09247680      1.32529279      4.69530942
H      11.26706421     -3.21230661     -8.33069883
H      12.19093119     -4.42123519     -9.64518472
H      11.59422545     -5.14078517     -7.86495900
H       6.04635731     -2.58595846     13.06785028
H       2.68981320     -2.42026537     14.56577122
H       6.28232570     -3.15114342     10.13936257
H       9.07018616     -2.86590091     10.95299377
H       3.10442938     -2.84447934     12.04267558
H       6.41223236      6.55769885      1.47789891
H      -1.41044217      7.68488662     15.37919960
H       7.95319851      6.16699811      4.86222082
H      14.44857814     -2.41585588      2.07354886
H      -1.13956419      6.37329898     12.68454205
H      17.16133020     -1.72623076      2.49183536
H      17.02565062     -1.95801263     -0.30428213
H      11.42270984     -2.60617226      4.43892567
H      19.94401038     -1.68298769      0.51543924
H       6.88284190      5.08745673      3.89732371
C       5.63568984     -1.81791799     12.17681656
C       6.55318083     -2.10328982     10.74910688
C       3.93709839     -1.71310082     12.26129054
C       3.07695845     -1.68575037     13.67806958
C       8.22137683     -2.01197238     10.82314860
C       7.01414591      6.93370704      2.45851994
C       7.10059608      6.29906335      3.98901946
C      -1.11842989      7.55842208     12.92223303
C      -1.26118311      8.36740021     14.36329347
C      14.89970176     -1.42643252      2.65845625
C      16.39802909     -1.00795365      1.82770040
C      17.40206862     -0.98653907      0.37898023
C      19.11412085     -0.88808656      0.04610774
C      13.35980058     -1.30538565      3.28982687
C      11.77416355     -1.17923210      4.09374281
H      19.57562811     -0.98513641     -1.10715740
H      -2.02768863     -2.00755502      0.47361993
H       6.03226638     -0.78260477     12.73794201
H       2.82701491     -0.69295921     14.34034719
H       6.23283847     -1.43868868      9.75036361
H       8.97637884     -1.06472153     10.80024298
H       3.30412762     -1.02421108     11.45206697
H       7.50751623      7.93877508      2.00439735
H      -0.27917846      9.05211883     14.66209366
H       6.56290346      7.08826082      4.76428461
H      15.15118742     -1.40555144      3.86876933
H      -0.96275157      7.98497304     11.80137847
H      16.28465880      0.21358073      2.02778862
H      16.95804553     -0.08176775     -0.35357408
H      11.44114792      0.10577499      4.11697024
H      19.79829479      0.11285352      0.31753566
H      -2.23061998      9.12821836     14.42516463
   94

C      -5.69514754     -0.64735776     -0.93253500
C      -4.09833095     -0.96377900     -0.34097853
H      -5.70826422      0.10984680     -1.92339092
C      -6.96998890     -0.24960215      0.17534136
H      -6.00453227     -1.49906899     -1.78738261
H      -3.76958710      0.19177905     -0.05015207
C      -2.46558958     -1.38940883     -0.49226656
H      -4.34242878     -2.01822792      0.26112781
H      -6.00205064     -3.73484730    -11.08089305
H      -5.99434052     -4.50424157    -10.95293598
C      -1.23566983     -1.25521276     -1.63312281
H      -1.82566101     -0.73793597     -2.59309338
C       0.36684490     -0.59815666     -1.51154854
H      -1.26677781     -2.42262479     -2.06184903
H       0.43502480      0.35461772     -2.31382189
H       1.04294949     -1.31738842     -2.27937481
C       1.34004580     -0.16762319     -0.12590753
H       2.46078758      0.18122207     -0.55915222
C       0.95612112      0.85678511      1.24484544
H       1.90548266     -1.20795584      0.26282411
H       0.34613060      1.83349040      0.78374103
H       1.92371309      1.62154442      1.44152536
C       0.34316526      0.47071544      2.84320923
H       1.33803894      0.26930493      3.56733842
C       3.21442415      3.53403459    -10.57048328
H       0.19672924     -0.75719751      2.93134488
H       2.56842699      4.34216505    -11.02987044
H      10.23137190     -4.66165626     -9.26370790
C      11.32084234     -4.35903802     -8.77626996
H      -6.84551889      0.85659015      0.72807093
H      -6.97159368     -0.83271977      1.27250523
C      -8.58968649     -0.32762547     -0.22303481
H      -9.35987034      0.53199366     -0.59032863
C      -0.90150767      1.23464073      3.82442721
H      -9.36703075     -1.25671530     -0.21969430
H      -0.69421798      2.46325928      3.85689645
H      -0.57970723      1.18878503      5.02652000
C      -2.63161862      1.01299748      3.83277921
H      -3.02801514      1.63541475      2.83186096
C      -3.88551826      1.28128513      4.99695393
H      -2.85048567     -0.17388713      3.54454955
H      -3.92454082      2.33366022      5.65029299
H      -4.04380869      0.48721305      5.93836554
H      -5.09152368      1.32528173      4.69652810
H      11.26699640     -3.21237482     -8.33086813
H      12.19086316     -4.42130546     -9.64535336
H      11.59415832     -5.14085355     -7.86512703
H       6.05038611     -2.58588670     13.06621001
H       2.69152579     -2.42283056     14.55969979
H       6.28052176     -3.15218147     10.13936541
H       9.07189301     -2.86721555     10.95266805
H       3.04689325     -2.84445714     12.13508143
H       6.41286501      6.56824662      1.48119185
H      -1.41045057      7.68490365     15.37920322
H       7.96127125      6.17735314      4.85743133
H      14.45675143     -2.42054026      2.07062208
H      -1.13957775      6.37331869     12.68453672
H      17.17063115     -1.72201360      2.49628224
H      17.02276922     -1.96014577     -0.30630365
H      11.43198882     -2.55404986      4.42633279
H      19.94173680     -1.68633895      0.51770169
H       6.87999855      5.09806817      3.90483579
C       5.64894298     -1.81210573     12.17583229
C       6.55701102     -2.10376323     10.74561442
C       3.95729982     -1.68049258     12.25239201
C       3.06807689     -1.70957066     13.64818748
C       8.22446064     -2.01247282     10.82117352
C       7.01475633      6.94400267      2.46192635
C       7.09992702      6.30944671      3.99255570
C      -1.11843596      7.55844106     12.92223003
C      -1.26118792      8.36741228     14.36329432
C      14.90754716     -1.43180919      2.65719696
C      16.40464228     -1.00877826      1.82958660
C      17.40127295     -0.98940004      0.37685422
C      19.11337165     -0.89064662      0.04703037
C      13.36826547     -1.30302252      3.28262568
C      11.76923161     -1.22122976      4.09947159
H      19.57629011     -0.98752122     -1.10551722
H      -2.02878686     -2.01156740      0.46952110
H       6.04106627     -0.77859342     12.74135407
H       2.82456206     -0.71788253     14.31936912
H       6.23398921     -1.43937912      9.74783737
H       8.97833058     -1.06447392     10.79877380
H       3.31467138     -1.01201108     11.43554825
H       7.51015015      7.94787768      2.00737044
H      -0.27917757      9.05212581     14.66208748
H       6.55477714      7.09381289      4.76792563
H      15.15696628     -1.41496345      3.86808960
H      -0.96275456      7.98499368     11.80137645
H      16.29282814      0.21251591      2.03260777
H      16.95323252     -0.08819004     -0.35775229
H      11.44186438      0.09565649      4.11605654
H      19.79538888      0.11104864      0.32096617
H      -2.23062705      9.12822705     14.42517091
   94

C      -5.69677292     -0.64865813     -0.93282704
C      -4.09984968     -0.96546515     -0.34161315
H      -5.70938527      0.10874662     -1.92351750
C      -6.97218892     -0.25026226      0.17423551
H      -6.00627977     -1.50076288     -1.78721748
H      -3.77058460      0.18970492     -0.05003435
C      -2.46745276     -1.39178772     -0.49535773
H      -4.34406532     -2.01877028      0.26242692
H      -6.00207344     -3.73486160    -11.08093943
H      -5.99436229     -4.50425564    -10.95298098
C      -1.23736975     -1.25656504     -1.63601372
H      -1.82723035     -0.74121190     -2.59713598
C       0.36432829     -0.59775263     -1.51178528
H      -1.26748444     -2.42337974     -2.06644043
H       0.43187133      0.35683991     -2.31189297
H       1.04199615     -1.31505353     -2.27997936
C       1.33652549     -0.16850125     -0.12499908
H       2.45902967      0.17776479     -0.55568304
C       0.95197768      0.85714258      1.24457244
H       1.89996884     -1.20958683      0.26449040
H       0.34025013      1.83255490      0.78309067
H       1.91706371      1.62546638      1.43974567
C       0.34110498      0.46981013      2.84330026
H       1.33641799      0.26612485      3.56621674
C       3.21447038      3.53410301    -10.57040159
H       0.19370878     -0.75798910      2.93164257
H       2.56846605      4.34222539    -11.02979285
H      10.23130469     -4.66180557     -9.26372375
C      11.32078004     -4.35918543     -8.77629620
H      -6.84802129      0.85614996      0.72660066
H      -6.97437031     -0.83242557      1.27189921
C      -8.59168643     -0.32867107     -0.22507635
H      -9.36196558      0.53052907     -0.59317435
C      -0.90195259      1.23495615      3.82530396
H      -9.36898932     -1.25780410     -0.22214222
H      -0.69409602      2.46346752      3.85811319
H      -0.57921217      1.19022712      5.02718243
C      -2.63188290      1.01289550      3.83305513
H      -3.02844649      1.63470905      2.83182640
C      -3.88499685      1.28157405      4.99781704
H      -2.85107905     -0.17383650      3.54435918
H      -3.92372321      2.33428411      5.65062217
H      -4.04239120      0.48772925      5.93955726
H      -5.09108867      1.32542276      4.69779652
H      11.26694961     -3.21250131     -8.33094363
H      12.19077153     -4.42148757     -9.64540744
H      11.59409261     -5.14095156     -7.86510848
H       6.05225321     -2.58675036     13.06751604
H       2.69115591     -2.42502571     14.55453531
H       6.27739699     -3.15461805     10.14238426
H       9.07224024     -2.87033227     10.95463005
H       2.99011530     -2.83989912     12.22865723
H       6.41990489      6.56956915      1.48684744
H      -1.41045009      7.68500307     15.37916399
H       7.98268200      6.17068488      4.85107150
H      14.50093916     -2.47678839      2.08925618
H      -1.13960636      6.37343126     12.68448375
H      17.22952531     -1.71778663      2.49194108
H      17.03711573     -1.96130548     -0.32371446
H      11.06482649     -1.40068712      4.47563295
H      19.96003763     -1.68588527      0.50272809
H       6.89201031      5.09270056      3.90956904
C       5.65967825     -1.80750086     12.17781724
C       6.55919228     -2.10594241     10.74574289
C       3.97456754     -1.65121786     12.24609078
C       3.05880618     -1.73380986     13.62035491
C       8.22584719     -2.01466115     10.82423950
C       7.02479704      6.94229052      2.46689363
C       7.11141459      6.30416177      3.99607263
C      -1.11840488      7.55855478     12.92216476
C      -1.26116447      8.36749514     14.36324672
C      14.98827983     -1.49251287      2.65096074
C      16.45253780     -1.01651497      1.82532343
C      17.42007585     -0.99206287      0.35865772
C      19.13123946     -0.89013321      0.03265293
C      13.46619879     -1.18254236      3.16750197
C      12.05525965     -1.16605295      3.89605139
H      19.59382750     -0.98507450     -1.11973091
H      -2.03033783     -2.01561801      0.46518991
H       6.04702999     -0.77551762     12.74742261
H       2.82092156     -0.74274694     14.29935366
H       6.23324570     -1.44118512      9.74943040
H       8.97825901     -1.06554179     10.80586175
H       3.32385176     -1.00217667     11.42150744
H       7.51906034      7.94730430      2.01359455
H      -0.27914141      9.05219346     14.66203327
H       6.55948878      7.08258785      4.77308446
H      15.20034928     -1.45100322      3.86752891
H      -0.96264678      7.98508460     11.80131242
H      16.31939248      0.20237270      2.03090125
H      16.96189320     -0.09296371     -0.37180850
H      11.03189261     -0.99629487      4.43683846
H      19.80922701      0.11324894      0.31003785
H      -2.23060082      9.12831364     14.42511926
   94

C      -5.69802276     -0.64999057     -0.93298553
C      -4.10095424     -0.96716477     -0.34215142
H      -5.71014811      0.10760864     -1.92351593
C      -6.97409235     -0.25096027      0.17319129
H      -6.00766933     -1.50248665     -1.78691703
H      -3.77118438      0.18760914     -0.04977573
C      -2.46885672     -1.39413454     -0.49822336
H      -4.34528487     -2.01930877      0.26384215
H      -6.00207676     -3.73486614    -11.08095025
H      -5.99436563     -4.50426019    -10.95299186
C      -1.23848710     -1.25790553     -1.63857199
H      -1.82818050     -0.74444307     -2.60085143
C       0.36248752     -0.59752503     -1.51151019
H      -1.26767347     -2.42410813     -2.07073443
H       0.42940238      0.35888240     -2.30945542
H       1.04167046     -1.31289634     -2.28010293
C       1.33394033     -0.16972076     -0.12368811
H       2.45819833      0.17400754     -0.55177636
C       0.94878616      0.85717324      1.24468048
H       1.89548630     -1.21148751      0.26659664
H       0.33524669      1.83124284      0.78282544
H       1.91135655      1.62904653      1.43832176
C       0.34007500      0.46861394      2.84379463
H       1.33590091      0.26269685      3.56541253
C       3.21443537      3.53414174    -10.57039781
H       0.19175455     -0.75906848      2.93231030
H       2.56843159      4.34226308    -11.02979168
H      10.23123649     -4.66186790     -9.26389075
C      11.32071236     -4.35924928     -8.77646340
H      -6.85022058      0.85566535      0.72520505
H      -6.97684846     -0.83216991      1.27135310
C      -8.59340230     -0.32973748     -0.22705903
H      -9.36378867      0.52903897     -0.59595496
C      -0.90165542      1.23487315      3.82632633
H      -9.37068254     -1.25890151     -0.22453243
H      -0.69329574      2.46329130      3.85948660
H      -0.57799727      1.19129740      5.02799539
C      -2.63146439      1.01257835      3.83345288
H      -3.02818213      1.63377678      2.83189816
C      -3.88393817      1.28169335      4.99866845
H      -2.85100045     -0.17399284      3.54427202
H      -3.92240552      2.33474586      5.65092827
H      -4.04047807      0.48809858      5.94075002
H      -5.09011491      1.32539967      4.69902927
H      11.26688147     -3.21256567     -8.33110956
H      12.19070373     -4.42155218     -9.64557472
H      11.59402572     -5.14101643     -7.86527677
H       6.05593341     -2.58692948     13.06538572
H       2.69164968     -2.42673683     14.54668380
H       6.27579264     -3.15553310     10.14198566
H       9.07371750     -2.87126329     10.95447662
H       2.93740477     -2.83053196     12.32017972
H       6.42024042      6.58053960      1.49003616
H      -1.41045367      7.68500370     15.37916804
H       7.98983870      6.18172237      4.84630152
H      14.50721511     -2.48042011      2.08588684
H      -1.13959769      6.37342226     12.68448529
H      17.23743191     -1.71361856      2.49680243
H      17.03392835     -1.96352069     -0.32516920
H      11.07107664     -1.38121341      4.47032992
H      19.95743203     -1.68934441      0.50527043
H       6.88840363      5.10413143      3.91725061
C       5.67158074     -1.80247786     12.17645375
C       6.56266489     -2.10640278     10.74220029
C       3.99265321     -1.62375294     12.23890886
C       3.05290456     -1.75810650     13.59135597
C       8.22858046     -2.01487546     10.82257052
C       7.02495244      6.95315699      2.47023722
C       7.11017635      6.31532044      3.99964878
C      -1.11840325      7.55854600     12.92216598
C      -1.26116466      8.36748870     14.36324654
C      14.99409875     -1.49719088      2.64987995
C      16.45798502     -1.01755296      1.82741435
C      17.41891937     -0.99505628      0.35720565
C      19.13013707     -0.89279179      0.03391951
C      13.47237109     -1.18311599      3.16276599
C      12.06180578     -1.16530655      3.89073734
H      19.59407705     -0.98757384     -1.11778280
H      -2.03143163     -2.01961719      0.46109413
H       6.05403116     -0.77191911     12.75000867
H       2.81906512     -0.76744198     14.27725835
H       6.23413190     -1.44168421      9.74695157
H       8.97975483     -1.06493899     10.80456087
H       3.33466680     -0.99411323     11.40631146
H       7.52141824      7.95683827      2.01639721
H      -0.27913720      9.05218408     14.66202571
H       6.55092821      7.08898144      4.77659666
H      15.20423071     -1.46046054      3.86692743
H      -0.96264533      7.98507707     11.80131399
H      16.32722118      0.20117775      2.03602156
H      16.95686990     -0.09954623     -0.37538508
H      11.04012388     -1.01879896      4.43452395
H      19.80602298      0.11131762      0.31370264
H      -2.23060357      9.12830371     14.42512221
   94

C      -5.69926837     -0.65132386     -0.93314140
C      -4.10205446     -0.96886322     -0.34268694
H      -5.71090727      0.10646942     -1.92351180
C      -6.97599148     -0.25165962      0.17214866
H      -6.00905428     -1.50421151     -1.78661340
H      -3.77178059      0.18551386     -0.04951390
C      -2.47025919     -1.39647718     -0.50108743
H      -4.34649410     -2.01984446      0.26525700
H      -6.00207991     -3.73487057    -11.08096067
H      -5.99436880     -4.50426464    -10.95300237
C      -1.23960048     -1.25924221     -1.64112605
H      -1.82911972     -0.74766688     -2.60456007
C       0.36064620     -0.59729852     -1.51122863
H      -1.26785644     -2.42482975     -2.07502264
H       0.42692779      0.36091723     -2.30700919
H       1.04134459     -1.31073784     -2.28021381
C       1.33135410     -0.17094181     -0.12237282
H       2.45735231      0.17025272     -0.54785974
C       0.94559748      0.85719884      1.24479481
H       1.89100415     -1.21338691      0.26870076
H       0.33025135      1.82992643      0.78257220
H       1.90564596      1.63260256      1.43690103
C       0.33905202      0.46741603      2.84429399
H       1.33538802      0.25927062      3.56460842
C       3.21440019      3.53418035    -10.57039351
H       0.18980849     -0.76014894      2.93298608
H       2.56839701      4.34230064    -11.02979007
H      10.23116843     -4.66192993     -9.26405781
C      11.32064478     -4.35931283     -8.77663056
H      -6.85241549      0.85517912      0.72381120
H      -6.97932210     -0.83191559      1.27080723
C      -8.59511336     -0.33080508     -0.22904014
H      -9.36560620      0.52754730     -0.59873438
C      -0.90135009      1.23478589      3.82735479
H      -9.37237077     -1.26000012     -0.22692137
H      -0.69248631      2.46311035      3.86086550
H      -0.57677167      1.19236134      5.02881196
C      -2.63103798      1.01225842      3.83385638
H      -3.02791077      1.63284243      2.83197683
C      -3.88287119      1.28180911      4.99952567
H      -2.85091529     -0.17415136      3.54419012
H      -3.92107935      2.33520361      5.65124019
H      -4.03855543      0.48846448      5.94194791
H      -5.08913277      1.32537311      4.70026810
H      11.26681338     -3.21262978     -8.33127533
H      12.19063614     -4.42161640     -9.64574184
H      11.59395891     -5.14108111     -7.86544511
H       6.05950321     -2.58714743     13.06313478
H       2.69154642     -2.42846276     14.53779004
H       6.27417577     -3.15640262     10.14149119
H       9.07505254     -2.87206870     10.95432561
H       2.88691762     -2.81695092     12.41129717
H       6.42056184      6.59151554      1.49323837
H      -1.41045325      7.68499617     15.37917071
H       7.99685623      6.19274473      4.84152047
H      14.51336917     -2.48394080      2.08251505
H      -1.13957643      6.37339996     12.68448832
H      17.24513827     -1.70944075      2.50164900
H      17.03067610     -1.96573043     -0.32655616
H      11.07934672     -1.38166693      4.46606453
H      19.95474304     -1.69281690      0.50787978
H       6.88483086      5.11560120      3.92494346
C       5.68300300     -1.79769475     12.17501032
C       6.56594252     -2.10685900     10.73867547
C       4.01006957     -1.59776443     12.23270807
C       3.04809110     -1.78283254     13.56252675
C       8.23112706     -2.01499674     10.82098344
C       7.02508460      6.96404452      2.47359434
C       7.10892753      6.32650924      4.00324861
C      -1.11839547      7.55852440     12.92216728
C      -1.26116071      8.36747314     14.36324434
C      14.99971693     -1.50172585      2.64880673
C      16.46328247     -1.01856917      1.82950277
C      17.41768985     -0.99804807      0.35582846
C      19.12896235     -0.89545707      0.03525503
C      13.47834097     -1.18387614      3.15833547
C      12.06805071     -1.16541482      3.88596771
H      19.59425098     -0.99008768     -1.11576560
H      -2.03252665     -2.02360946      0.45699836
H       6.06041450     -0.76841911     12.75231606
H       2.81743466     -0.79235916     14.25479464
H       6.23481239     -1.44211221      9.74454444
H       8.98102630     -1.06421753     10.80330483
H       3.34552625     -0.98800683     11.39156265
H       7.52376145      7.96637702      2.01920109
H      -0.27912941      9.05216646     14.66201611
H       6.54240962      7.09539303      4.78008837
H      15.20803065     -1.46983547      3.86629614
H      -0.96263787      7.98505623     11.80131541
H      16.33491447      0.20000071      2.04110431
H      16.95180459     -0.10613040     -0.37886905
H      11.04798335     -1.02084704      4.43028197
H      19.80274950      0.10937096      0.31742373
H      -2.23060228      9.12828465     14.42512205
   94

C      -5.70051065     -0.65265790     -0.93329515
C      -4.10315131     -0.97056047     -0.34322014
H      -5.71166363      0.10532909     -1.92350557
C      -6.97788707     -0.25236027      0.17110726
H      -6.01043549     -1.50593737     -1.78630713
H      -3.77237416      0.18341914     -0.04924944
C      -2.47166121     -1.39881565     -0.50395051
H      -4.34769401     -2.02037743      0.26667088
H      -6.00208292     -3.73487491    -11.08097077
H      -5.99437184     -4.50426899    -10.95301258
C      -1.24071106     -1.26057514     -1.64367661
H      -1.83004920     -0.75088346     -2.60826265
C       0.35880300     -0.59707288     -1.51094158
H      -1.26803437     -2.42554471     -2.07930559
H       0.42444628      0.36294453     -2.30455539
H       1.04101735     -1.30857789     -2.28031275
C       1.32876488     -0.17216369     -0.12105395
H       2.45648968      0.16650106     -0.54393405
C       0.94240952      0.85722003      1.24491467
H       1.88652034     -1.21528436      0.27080208
H       0.32526221      1.82860643      0.78233006
H       1.89992988      1.63613512      1.43548297
C       0.33803350      0.46621705      2.84479746
H       1.33487650      0.25584675      3.56380396
C       3.21436495      3.53421886    -10.57038858
H       0.18786805     -0.76122981      2.93366909
H       2.56836243      4.34233810    -11.02978794
H      10.23110046     -4.66199171     -9.26422452
C      11.32057726     -4.35937615     -8.77679730
H      -6.85460679      0.85469132      0.72241874
H      -6.98179197     -0.83166255      1.27026122
C      -8.59682035     -0.33187380     -0.23101997
H      -9.36741891      0.52605416     -0.60151277
C      -0.90103878      1.23469541      3.82838854
H      -9.37405472     -1.26109986     -0.22930924
H      -0.69166980      2.46292571      3.86224895
H      -0.57553767      1.19342012      5.02963135
C      -2.63060573      1.01193637      3.83426495
H      -3.02763441      1.63190660      2.83206169
C      -3.88179779      1.28192198      5.00038818
H      -2.85082554     -0.17431147      3.54411289
H      -3.91974659      2.33565799      5.65155736
H      -4.03662527      0.48882755      5.94315036
H      -5.08814415      1.32534372      4.70151244
H      11.26674533     -3.21269368     -8.33144060
H      12.19056867     -4.42168035     -9.64590850
H      11.59389213     -5.14114559     -7.86561306
H       6.06296304     -2.58736196     13.06083468
H       2.69106753     -2.43040469     14.52790609
H       6.27248184     -3.15722440     10.14097757
H       9.07621986     -2.87278360     10.95418059
H       2.83852954     -2.79930806     12.50209334
H       6.42087523      6.60248780      1.49645615
H      -1.41044905      7.68498068     15.37917261
H       8.00374958      6.20373453      4.83672781
H      14.51947325     -2.48742029      2.07914787
H      -1.13954398      6.37336544     12.68449315
H      17.25273733     -1.70526081      2.50646546
H      17.02740028     -1.96793459     -0.32790592
H      11.08882570     -1.39419396      4.46269112
H      19.95201743     -1.69629647      0.51052059
H       6.88130639      5.12709312      3.93264409
C       5.69401293     -1.79306617     12.17356057
C       6.56900892     -2.10730242     10.73521478
C       4.02697229     -1.57269575     12.22752337
C       3.04396550     -1.80823580     13.53357126
C       8.23347397     -2.01504843     10.81947558
C       7.02520318      6.97494069      2.47696618
C       7.10768017      6.33771214      4.00687207
C      -1.11838222      7.55849101     12.92216913
C      -1.26115297      8.36744892     14.36324090
C      15.00525780     -1.50620575      2.64772977
C      16.46851229     -1.01957957      1.83157730
C      17.41643267     -1.00104031      0.35449554
C      19.12775846     -0.89812429      0.03662759
C      13.48425118     -1.18471090      3.15404657
C      12.07419521     -1.16583982      3.88141591
H      19.59438862     -0.99260799     -1.11371258
H      -2.03362398     -2.02759486      0.45290205
H       6.06630825     -0.76496829     12.75444309
H       2.81605747     -0.81772316     14.23192035
H       6.23525807     -1.44247407      9.74225108
H       8.98207440     -1.06341141     10.80209400
H       3.35640893     -0.98371283     11.37720745
H       7.52609580      7.97591087      2.02200938
H      -0.27911833      9.05214097     14.66200523
H       6.53394206      7.10180548      4.78355983
H      15.21180949     -1.47916835      3.86563088
H      -0.96262523      7.98502327     11.80131720
H      16.34253385      0.19882293      2.04614156
H      16.94673279     -0.11271532     -0.38228127
H      11.05523882     -1.01061299      4.42483164
H      19.79944652      0.10741559      0.32117024
H      -2.23059729      9.12825694     14.42511981
   94

C      -5.70210790     -0.65414245     -0.93345764
C      -4.10440031     -0.97279353     -0.34426537
H      -5.71244325      0.10447124     -1.92315415
C      -6.98067476     -0.25307596      0.16947874
H      -6.01235592     -1.50801430     -1.78571545
H      -3.77261789      0.18041936     -0.04879132
C      -2.47345049     -1.40225947     -0.50915100
H      -4.34914435     -2.02041849      0.26928402
H      -6.00206960     -3.73485025    -11.08087940
H      -5.99435841     -4.50424425    -10.95292074
C      -1.24194725     -1.26274990     -1.64832756
H      -1.83084525     -0.75689280     -2.61528425
C       0.35627954     -0.59659646     -1.51023463
H      -1.26777936     -2.42660778     -2.08704601
H       0.42086932      0.36653288     -2.30006197
H       1.04127670     -1.30490588     -2.27996244
C       1.32482958     -0.17403756     -0.11852937
H       2.45570811      0.15993692     -0.53660568
C       0.93722571      0.85757128      1.24524039
H       1.87928721     -1.21823715      0.27488424
H       0.31693010      1.82655445      0.78193921
H       1.88994298      1.64305454      1.43299170
C       0.33677631      0.46443659      2.84583873
H       1.33443994      0.24964400      3.56248970
C       3.21431856      3.53425871    -10.57049664
H       0.18484012     -0.76278661      2.93505414
H       2.56831176      4.34238620    -11.02987539
H      10.23107847     -4.66210374     -9.26443298
C      11.32055404     -4.35948516     -8.77700505
H      -6.85796324      0.85424537      0.72039793
H      -6.98551497     -0.83083339      1.26943625
C      -8.59930657     -0.33321457     -0.23417678
H      -9.37035599      0.52412506     -0.60515443
C      -0.89982142      1.23507611      3.83033784
H      -9.37664065     -1.26237387     -0.23271038
H      -0.68952299      2.46313004      3.86487122
H      -0.57268587      1.19615975      5.03120980
C      -2.62917994      1.01189408      3.83510277
H      -3.02640443      1.63072089      2.83226030
C      -3.87937096      1.28240641      5.00193461
H      -2.84992063     -0.17403903      3.54389424
H      -3.91689847      2.33664532      5.65229369
H      -4.03278037      0.48955159      5.94511118
H      -5.08583377      1.32573443      4.70361167
H      11.26671684     -3.21279844     -8.33166007
H      12.19054918     -4.42179185     -9.64611227
H      11.59387167     -5.14124660     -7.86581486
H       6.06902949     -2.58793195     13.05672988
H       2.68750976     -2.43802357     14.50326987
H       6.26871996     -3.15831415     10.14042030
H       9.07787624     -2.87366143     10.95486704
H       2.74924472     -2.75316061     12.68096694
H       6.42271280      6.61584640      1.50039923
H      -1.41040914      7.68493062     15.37914975
H       8.01762374      6.21685832      4.82559056
H      14.52849349     -2.49123589      2.07285400
H      -1.13943357      6.37327069     12.68448747
H      17.26407796     -1.69536865      2.51486360
H      17.01932914     -1.96946860     -0.33122811
H      11.10482671     -1.41902828      4.45796884
H      19.94499727     -1.70127215      0.51652941
H       6.87522285      5.14200976      3.94552195
C       5.71474741     -1.78393939     12.17149737
C       6.57433810     -2.10787692     10.72927927
C       4.05948751     -1.52292561     12.22062312
C       3.03413211     -1.86340786     13.47267269
C       8.23737950     -2.01465129     10.81783650
C       7.02747897      6.98779820      2.48086214
C       7.10661592      6.35193370      4.01167280
C      -1.11830918      7.55840032     12.92214876
C      -1.26110263      8.36738019     14.36320694
C      15.01278897     -1.51131912      2.64513315
C      16.47574488     -1.01942890      1.83451204
C      17.41249749     -1.00455507      0.35171709
C      19.12409799     -0.90134262      0.03981774
C      13.49257632     -1.18426857      3.14658853
C      12.08394836     -1.16706406      3.87560337
H      19.59372809     -0.99576341     -1.10903081
H      -2.03500618     -2.03442173      0.44525618
H       6.07693042     -0.75830545     12.75954425
H       2.81620065     -0.87284951     14.18604779
H       6.23541614     -1.44252136      9.73888914
H       8.98325213     -1.06119207     10.80154040
H       3.37866705     -0.97755918     11.35064297
H       7.53082040      7.98718744      2.02513618
H      -0.27906171      9.05207028     14.66195641
H       6.51830580      7.10681588      4.78735476
H      15.21667156     -1.49274434      3.86368081
H      -0.96253030      7.98492932     11.80129836
H      16.35505447      0.19871069      2.05486647
H      16.93600643     -0.12298089     -0.38914208
H      11.06692101     -0.98992223      4.41587656
H      19.79178225      0.10546515      0.32912085
H      -2.23055190      9.12818223     14.42508342
