   94
energy=      0.00000000
C       7.14918359     -6.80274734     -7.69376504
C       5.71248393     -7.63540005     -7.24320535
H       7.41287041     -5.95968933     -6.81648974
C       3.60862814     -1.24471452      4.90745551
H     -18.89185999     -7.18329685     -1.80818867
H       4.70818232     -7.04364324     -6.82055152
C       4.82817670     -1.79069105      5.94336769
H       5.76841773     -8.46372327     -6.32167889
H      -7.81523282     -6.27941550    -16.91792814
H      -7.80752163     -7.04880949    -16.78996947
C       8.87971374      1.10592351      3.67497465
H      14.01585011      6.01792587     10.72756156
C       7.35592467     -3.12974079      3.85099496
H       6.86971475      6.21976491     -5.52309400
H       7.67001475     -2.62942114      2.83982811
H       2.84359232     -8.54986646     13.57064803
C       5.43830192     -3.43200889      5.93916904
H       4.58309955     -4.30527340      5.70450590
C       5.64097202      8.15741524     -5.80666733
H       5.41423262     -4.05816206      7.02098994
H       6.27979786      9.03485530     -6.33901573
H       4.66083437      8.67798266     -6.31189140
C       6.04504497      6.82235732     -4.84796378
H       8.11685107      1.29189459      0.98898017
C       7.32454909      1.22825630      1.89716267
H      10.44407532      2.81501287      4.33949195
H       5.11143750      6.07579188     -5.16919497
H      -3.00408555     13.84794160     10.96389429
C       8.54689855     -7.63579025     -8.26625699
H       2.76744727     -0.48216694      5.38661297
H     -19.27118577     -7.16726916     -1.12682601
C      -1.64604397     -8.76248572      0.36625630
H       3.95591769     -1.98734362      6.80783174
C       1.81749416     -8.36670803     14.16348096
H      -2.45704623     -9.23338234      1.05525334
H      -9.96862842    -12.03742337     15.59195479
H       1.41344015     -7.24997269     14.32949163
C      -3.95008094      0.02188444     -7.52418447
H       6.03989261      8.94395034     -2.69871392
C       3.88998341      7.67047579     -2.16723503
H      -4.45424832      0.92846258     -8.05155203
H       3.83852885      8.19243305     -1.06354478
H       3.36715266      6.55534504     -2.03939046
H       2.99688185      8.18565560     -2.84767995
H       8.82891809     -7.44633761     -9.46018033
H       8.44790942     -8.82861553     -8.58874065
H      10.36376163     -8.23985835     -6.46010743
H       5.81943638      1.59216934      4.74655771
H       5.27727306      0.46188887      6.90321411
H       1.19634424     -9.29969428     14.58973815
H       6.70114162      1.63368132      0.95465115
H      -9.42675544     -2.95204824     23.99740376
H       4.78383077     13.79203709     17.27394701
H       3.36713233     13.38598886     20.36018827
H       6.15917716     -0.98190448      8.90710534
H      18.06949782      4.47561687     -0.64462133
H      -4.76113507     12.91559780     10.66978309
H      18.75967138      4.62399260     -0.31289178
H       3.74302360     -2.26056132      2.58572534
H       7.08906982     -5.04538527      4.77586180
H       6.89049789     -5.83114846     -8.43021746
H       7.62019873     -1.15828506      8.26815194
C       3.20025488     -1.42430746      3.30144174
C      -9.36398366    -11.98103581     16.58463273
C       6.55426541      0.64325663      5.02986664
C       5.87068947     -0.42301439      6.27216373
C       7.32549340      0.88414087      3.51906554
C       5.07494459     14.28628275     18.35935228
C       6.56940753     -0.82707448      7.76748491
C      -4.20622018     14.01157358     10.75361368
C       4.08796833     13.76590189     19.51578233
C       6.50224465      6.68886624     -3.18199656
C      11.09573245      0.63433100      4.99263367
C      10.21239119      1.65397021      4.26562147
C       9.95373664     -7.55256624     -7.36905072
C       5.48216308      7.85467024     -2.61451787
C       6.90997903     -3.89447542      5.19134815
H       7.54280988      6.72662838     -2.49886655
H       5.09077887     -8.28394482     -8.09834337
H       2.03538346     -1.78280084      3.11861382
H      -9.29845674     -2.27982476     24.37164303
H      -8.76468144    -11.92361332     17.58048606
H      13.84001577      6.77137903     10.62861425
H       7.37403555      1.21798693      5.72183367
H       6.24044508     13.98951994     18.60566743
H       5.01553152     15.50701248     18.24350919
H      -3.44591357     -0.88469371     -6.99681691
H       6.67640904      5.65893026     -2.49686008
H      -4.35808925     14.63018583      9.69987001
H      -0.83504173     -8.29158915     -0.32274080
H       3.38855686     -0.43304935      2.59226297
H       7.96780675     -3.89959441      5.83487253
H      10.88052810     -6.77319867     -7.41306104
H      -4.70157084     14.65256910     11.68090732
   94
energy=      0.00000000
C       7.14900838     -6.80233250     -7.69456992
C       5.71323031     -7.63580054     -7.24260212
H       7.41268825     -5.95811604     -6.81840027
C       3.59620078     -1.26106883      4.89048416
H     -18.89185999     -7.18329685     -1.80818867
H       4.70915372     -7.04465796     -6.81857088
C       4.82250781     -1.77756068      5.93649444
H       5.77043191     -8.46430680     -6.32132831
H      -7.81523282     -6.27941550    -16.91792814
H      -7.80752163     -7.04880949    -16.78996947
C       8.91100740      1.09028669      3.73524520
H      14.01585013      6.01792589     10.72756160
C       7.36626725     -3.16402177      3.82324959
H       6.92992955      6.19188966     -5.57061982
H       7.69850733     -2.69086898      2.80414748
H       2.84368009     -8.55003590     13.57060725
C       5.43625978     -3.41656902      5.91398286
H       4.57998003     -4.28091274      5.65292936
C       5.68526741      8.13187329     -5.83745505
H       5.40311825     -4.03448336      6.99937047
H       6.33478826      9.02360909     -6.33092595
H       4.67837822      8.63062555     -6.30097923
C       6.07353952      6.78267596     -4.91083008
H       8.11167875      1.22676326      1.05355259
C       7.30985909      1.20291194      1.95555694
H      10.50561905      2.81826827      4.32494643
H       5.15631578      6.00238372     -5.20422974
H      -1.45165947      9.94286106     10.89471213
C       8.54694210     -7.63502599     -8.26700827
H       2.73365357     -0.52381052      5.36921361
H     -19.27118577     -7.16726916     -1.12682601
C      -1.64644565     -8.76288164      0.36603114
H       3.96838806     -1.96549183      6.82053345
C       1.81759845     -8.36663918     14.16341506
H      -2.45744790     -9.23377825      1.05502820
H      -9.96826813    -12.03749361     15.59173715
H       1.41323803     -7.25004102     14.32961514
C      -3.95008094      0.02188444     -7.52418447
H       5.98809275      8.99913196     -2.56242107
C       3.87410667      7.71034480     -2.11060939
H      -4.45424832      0.92846258     -8.05155203
H       3.76860922      8.19860853     -0.99088904
H       3.34773885      6.59738079     -2.00215632
H       2.98531141      8.20512932     -2.81125155
H       8.82982382     -7.44416883     -9.46049463
H       8.44816449     -8.82740064     -8.59125579
H      10.35962163     -8.23898627     -6.45672153
H       5.79392364      1.57970520      4.74346960
H       5.23132714      0.47086221      6.90084793
H       1.19635430     -9.29952535     14.58972132
H       6.59043078      1.61485265      1.08625715
H      -9.42675544     -2.95204824     23.99740376
H       4.95970837     13.86713807     17.45613312
H       3.54303172     13.46105583     20.54239489
H       6.20582223     -0.92729015      8.91113749
H      18.06949782      4.47561687     -0.64462133
H      -3.34019922      8.94081008     10.57859048
H      18.75967138      4.62399260     -0.31289178
H       3.73494210     -2.27413975      2.56927421
H       7.08557909     -5.06063471      4.78595661
H       6.88915465     -5.83146118     -8.43155745
H       7.67477587     -1.10916974      8.20505843
C       3.18389672     -1.44238445      3.28417131
C      -9.36470736    -11.98089562     16.58506287
C       6.55207838      0.66097504      5.06267702
C       5.85434457     -0.40688295      6.28465846
C       7.35528753      0.87472674      3.57426193
C       5.25081878     14.36136895     18.54154604
C       6.59386511     -0.79312983      7.76185150
C      -2.58606776      9.81191140     10.69947924
C       4.26384225     13.84098832     19.69797596
C       6.46642642      6.73790817     -3.23454803
C      11.14602976      0.62922447      4.98238249
C      10.25567447      1.65891551      4.27888590
C       9.95289734     -7.55322895     -7.36830542
C       5.46532324      7.88873061     -2.57462599
C       6.90725692     -3.90015430      5.17618824
H       7.55696021      6.76191770     -2.64194925
H       5.09102278     -8.28445106     -8.09729856
H       2.02104446     -1.80495693      3.09309498
H      -9.29845674     -2.27982476     24.37164303
H      -8.76431804    -11.92368327     17.58027356
H      13.84001578      6.77137904     10.62861427
H       7.36129552      1.26007974      5.75040333
H       6.41630702     14.06458925     18.78789881
H       5.19141976     15.58209677     18.42567562
H      -3.44591357     -0.88469371     -6.99681691
H       6.62502256      5.67853632     -2.60004518
H      -7.28761883     20.45158599      9.86680660
H      -0.83544342     -8.29198511     -0.32296600
H       3.35781215     -0.45116436      2.57160824
H       7.96107776     -3.90477473      5.82552882
H      10.88202777     -6.77672641     -7.41353538
H      -7.42083090     20.46020521     10.63530201
