   94
energy=      0.00000000
C      -8.28630164     -5.21845984     -5.51138060
C      -7.15051485     -5.74061257     -4.50163127
H      -9.11566337     -4.83714764     -6.24875430
C      -9.99438234     -1.09777831      5.88849918
H     -18.89185999     -7.18329685     -1.80818867
H      -6.60484805     -4.80311979     -3.92675242
C      10.05497544     -5.11400620      7.45826032
H      -7.62630997     -6.47987693     -3.64475445
H      -7.31887676     -5.77374912    -16.93688832
H      -7.31116557     -6.54314312    -16.80892965
C       6.73320955      1.08343861      9.78061231
H       5.56467421      1.46790929      9.71059020
C       9.95438502     -5.91532518      6.13797388
H       6.58960402     -0.14270250      9.84521771
H      10.09608107     -5.02095277      5.34747213
H       1.53527908     -5.84772649     10.81652048
C       9.74044352     -7.54133838      5.97290225
H       8.73007606     -7.73480954      5.29118355
C       5.37356069      3.10929760     -3.50654869
H       9.27285278     -8.07932439      6.98042956
H       6.44669809      2.66934225     -3.88281987
H       4.94792588      4.25531567     -3.74716570
C       4.79098313      2.21746737     -4.87644724
H       6.15605079      3.01583974     -7.09483443
C       5.25653922      3.07940437     -6.27103939
H       4.60971619      1.40750484     -5.78468467
H       4.93701928      4.08904925     -6.86969322
H      -0.88914472     13.61687686     12.12272325
C      19.17831068     -6.45770506     -9.28910106
H     -10.38828197      0.02030205      5.73707983
H     -19.27118577     -7.16726916     -1.12682601
C      -9.30897803      4.96232714    -10.51107341
H     -10.65813294     -1.97641206      5.42414327
C       0.50992158     -5.60395980     11.40861542
H     -10.40895073      4.90076610    -10.25089213
H      -1.71974756     -6.55521213     11.65293751
H       0.50977197     -4.39727290     11.32637376
C       3.98343590      0.97747239     -4.07249245
H       6.14975898      4.39018446     -1.62093744
C       4.31925640      3.38181129     -0.68733087
H       2.86283903      0.73264111     -3.68781949
H       4.12417251      4.39732601     -0.00004620
H       4.11220448      2.61157621      0.26010141
H       3.12782264      3.33068407     -1.01805471
H      18.20102334     -6.71902647     -9.90207200
H      18.41536002     -6.90613145    -10.07421592
H      20.01072859     -7.14154269     -7.62372206
H       8.32381434      2.07441913     13.29377545
H       6.12090446      4.37599329     12.80513864
H      -0.36959591     -7.83683549     12.06583771
H       8.92103645      1.58952709     10.65760309
H      -8.70101793     -4.16259184     22.46177845
H       6.58990799      7.19833494     11.17354666
H      -2.34926645     13.47707260     24.28447819
H       8.82140119      5.66207247     13.37838430
H       7.91291111      1.78585029     -1.94498357
H      -2.64619425     12.68453305     11.82861205
H      17.91526518      4.32244988     -3.56955349
H       1.15332687      1.56248792    -14.18199008
H      11.24606616     -9.14358969      4.56120536
H      21.31029529     -5.81909782     -7.50508551
H       9.20336785      5.26338639     11.58795539
C      -8.66253936     -1.39929650      6.66391261
C      -0.58278460     -6.62410515     12.12739014
C       7.49946821      2.43717962     12.44760981
C       7.27026480      4.09966332     12.50201119
C       7.74161472      1.71708747     10.95431365
C       7.60672275      6.91394977     11.76197672
C       8.22406923      5.46713156     12.31200726
C      -2.09127935     13.78050884     11.91244264
C      -1.82991536     14.44140264     23.89137868
C       7.00655290      2.26034220     -1.24360043
C      17.94113061      4.83060815     -4.64636263
C      18.60141076      4.05361595     -5.79991371
C      20.36481974     -6.13854405     -8.17430029
C       5.67070485      3.24233092     -1.77962904
C      11.09314688     -8.35604442      5.46503825
H       7.89221558      2.70113674     -0.49847561
H      -6.28250531     -6.37000489     -5.09959062
H      -7.67407657     -1.62306905      7.23940667
H      -8.57271924     -3.49036836     22.83601772
H      -0.69473885     -6.45853756     13.34503736
H       7.03109745      1.30695944      8.60431503
H       6.66515850      1.79801041     13.09641389
H       8.02462578      8.04920393     11.81061673
H      -1.31056426     15.40573269     23.49827917
H       4.32430752     -0.05914713     -3.53371480
H       6.83953796      1.15883502     -0.70217550
H      -2.24314843     14.39912108     10.85869898
H      17.48543037      5.90545491     -4.88184806
H       1.09358096      2.33690965    -14.25341364
H      12.22496831     -8.33923838      5.88892458
H      21.22377584     -5.54724068     -7.56622463
H      -2.58663002     14.42150435     12.83973628
   94
energy=      0.00000000
C      -8.28597393     -5.21916584     -5.51315387
C      -7.15018730     -5.74131867     -4.50340441
H      -9.11534893     -4.83786276     -6.25051735
C     -10.05551543     -1.06113272      5.85263059
H     -18.89185999     -7.18329685     -1.80818867
H      -6.60451038     -4.80383267     -3.92852412
C      10.23481595     -5.69103891      7.09762372
H      -7.62600430     -6.48058048     -3.64653754
H      -7.31887676     -5.77374913    -16.93688832
H      -7.31116557     -6.54314312    -16.80892965
C       6.79237791      0.29522516      9.98947454
H       5.62720366      0.69147660      9.92694198
C      10.12681648     -6.49349685      5.77861730
H       6.64695445     -0.93014077     10.05181016
H      10.26193394     -5.59946738      4.98660594
H       1.04393171     -6.44822221     10.86014941
C       9.91364863     -8.11987572      5.61622467
H       8.90272561     -8.31587072      4.93609692
C       5.46048627      3.12047412     -3.51975719
H       9.44667532     -8.65649395      6.62474004
H       6.61283895      2.99976189     -3.94058165
H       4.92248588      4.21883142     -3.74018231
C       4.81791463      2.19705529     -4.84403962
H       6.10931499      2.96385242     -7.07472616
C       5.19463175      3.03919402     -6.26813705
H       4.63121583      1.37481329     -5.73611818
H       4.74666233      4.00787241     -6.85399701
H      -1.67522236     13.86417483     12.14530767
C      19.17881947     -6.50264765     -9.27006443
H     -10.44736534      0.05789891      5.70251183
H     -19.27118577     -7.16726916     -1.12682601
C      -9.30897803      4.96232714    -10.51107341
H     -10.71758503     -1.94156433      5.38914609
C       0.01868142     -6.20375432     11.45219034
H     -10.40895073      4.90076610    -10.25089213
H      -2.21417198     -7.15397523     11.70271956
H       0.02038111     -4.99722383     11.36887734
C       3.95068239      0.97383215     -4.09038086
H       6.19125683      4.38803541     -1.63782573
C       4.35232498      3.37033314     -0.71215041
H       2.77891984      0.82772475     -3.81035128
H       4.16424498      4.38113049     -0.01540401
H       4.11630014      2.58086728      0.21181885
H       3.16527587      3.32398975     -1.05543663
H      18.05736656     -6.34797296     -9.64501179
H      18.84120732     -7.03176472    -10.28329125
H      20.05271809     -7.31017322     -7.38677952
H       8.38746051      1.22925873     13.52298024
H       6.21203063      3.70507664     12.88622664
H      -0.85402254     -8.43395041     12.10513115
H       8.98918690      0.80852660     10.85949458
H      -8.70101793     -4.16259184     22.46177845
H       8.19621031     13.30775194     11.15673484
H      -2.34916350     13.47718722     24.28698232
H       8.86038948      5.02706627     13.58203615
H       7.94600742      1.74144898     -1.82726418
H      -3.43227189     12.93183102     11.85119647
H      17.91127474      4.34681525     -3.56111878
H       1.15332686      1.56248793    -14.18199009
H      11.42339102     -9.70790620      4.19332133
H      21.41395811     -6.04318490     -7.66391858
H       9.16905596      4.65326057     11.72366634
C      -8.72375230     -1.36263247      6.62799752
C      -1.07482916     -7.22277978     12.17138268
C       7.55394016      1.57176064     12.67942846
C       7.31715513      3.21759963     12.73218301
C       7.80920649      0.90291046     11.16736642
C       9.20005750     13.62721484     11.64596529
C       8.46907993      4.36199589     12.65891051
C      -2.87735699     14.02780680     11.93502706
C      -1.82981241     14.44151727     23.89388281
C       7.01638013      2.24745085     -1.18447358
C      17.93713994      4.85497380     -4.63792778
C      18.59742032      4.07798092     -5.79147826
C      20.31049250     -6.32333773     -8.07401679
C       5.71762546      3.23535935     -1.78570914
C      11.26661253     -8.93406025      5.10827283
H       7.84772027      2.71196848     -0.38849872
H      -6.28216874     -6.37070865     -5.10135315
H      -7.73533716     -1.58639748      7.20346371
H      -8.57271924     -3.49036836     22.83601772
H      -1.19300698     -7.05759219     13.38847055
H       7.08608155      0.52840090      8.81405661
H       6.70930394      0.96052603     13.33764317
H      10.01870609     14.38605833     11.96703103
H      -1.31046131     15.40584731     23.50078330
H       4.30242798     -0.09164847     -3.61689961
H       6.79949622      1.14191765     -0.67227742
H      -3.02922606     14.64641905     10.88128340
H      17.48143955      5.92982066     -4.87341253
H       1.09358096      2.33690965    -14.25341365
H      12.39433056     -8.92998680      5.54330068
H      20.86571380     -5.26766877     -7.84537965
H      -3.37270766     14.66880232     12.86232070
