   94
energy=      0.00000000
C      -9.75561445     -1.64884042     -3.71935278
C      -8.28602464     -2.05648443     -2.92401046
H      -9.55818517     -0.96339711     -4.74337105
C     -11.07293115     -1.02388920     -2.80405227
H     -10.10481031     -2.56596129     -4.48906867
H      -7.56922880     -1.08792617     -2.62804976
C      -0.19341317     -1.70242202     -1.26599688
H      -8.35019738     -2.83101861     -1.95904663
H      -5.83149183     -4.70305512    -13.95103974
H      -5.82378064     -5.47244912    -13.82308107
C       0.93958963     -1.42909229     -2.32212343
H       0.16327306     -0.99920811     -3.18075696
C       2.36172885     -0.58137810     -1.87922316
H       0.97559425     -2.59343405     -2.73067182
H       2.34262161      0.50705414     -2.48169890
H       3.22407392     -0.96692916     -2.69359494
C       3.00575449     -0.39484895     -0.27217857
H       4.25100338     -0.33704502     -0.32708361
C       2.47774993      0.71629893      0.96889012
H       3.21205467     -1.53739753      0.17001234
H       1.96079132      1.70496103      0.42802830
H       3.35235568      1.57821526      1.18420260
C       1.68391534      0.33166644      2.48062795
H       2.37644746      0.71314518      3.44336678
C       3.18964520      3.55919449    -10.57476222
H       2.02338386     -0.78020465      2.92477145
H       2.54363838      4.36732196    -11.03414092
H       0.48554135      9.62602215     12.25078141
C      11.20979782     -4.55356762     -9.44258479
H     -10.98105034      0.10224616     -2.29189199
H     -11.49060704     -1.64754610     -1.81755207
C     -21.28676211     -1.46699077     -2.29644391
H     -12.19181208     -0.85321011     -3.30821684
C      -8.02604159      0.03007679     10.36005092
H     -21.96497884     -2.35200931     -2.29991794
H      -8.08599946      0.90417613      9.59419152
H      -7.96597244     -0.84377905     11.12617943
C      -0.00946377      0.56988630      2.81539666
H      -0.49767110      1.36686892      1.99670279
C      -0.83099502      1.01130917      4.27189759
H      -0.59873076     -0.43589993      2.37542048
H      -0.56910537      2.08133857      4.84355877
H      -0.79134636      0.28180257      5.27460838
H      -2.06618933      1.15459363      4.29264502
H      10.78038563     -3.47282103     -9.15015010
H      11.73239316     -4.72274738    -10.50851087
H      11.11661468     -5.46513444     -8.66909341
H       4.46227252     -3.45177744     17.30022740
H       1.67116909     -3.91378547     19.31396788
H      12.08920534     -4.90537066     10.85316351
H      15.05395673     -4.76129252     11.29244838
H      -8.15060748     -4.13466397     22.23418244
H       8.59082486      8.66443840      0.98123329
H      -1.22752359     10.00974931     14.99585473
H      10.32193897      8.34594168      4.04415163
H      15.73523940     -2.50917575      0.60580318
H      -1.19265089      8.77759560     12.29356301
H      18.35201954     -0.66624843      1.54182262
H      17.76167520     -1.74108044     -1.57176269
H      12.56549052     -1.61192637      2.68116686
H      20.62891707     -1.49081381     -0.81877342
H       8.88128837      7.18966205      3.60245371
C      12.03199689     -3.19755441     12.38732266
C      12.64403761     -3.82323694     11.03764090
C       3.31170908     -3.13068763     17.27081417
C       2.34348886     -3.56555593     18.42799818
C      14.29587394     -3.84330686     11.08935966
C       9.18833265      9.01973075      1.97041339
C       9.21677020      8.37155021      3.49702694
C      -0.69736828      9.89369614     12.50583756
C      -1.06480955     10.68920352     13.97220458
C      16.17151341     -1.57118906      1.27536016
C      17.47707993     -0.63369967      0.66036420
C      18.16668481     -0.75510353     -0.93017175
C      19.85399201     -0.63710103     -1.27908656
C      14.72175217     -0.99676554      1.70923778
C      13.27141268     -0.73203964      2.27948594
H      20.31201333     -0.68636513     -2.43127938
H      -7.32723646     -2.72685079     -3.32458007
H      11.63185306     -2.72467278     13.38380043
H      -8.02230878     -3.46244048     22.60842171
H      12.15780372     -3.23174653     10.07470679
H      15.08154330     -2.93547845     10.95420539
H       2.94731158     -2.47749786     16.33839900
H       9.75455319      9.99070920      1.52452152
H      -0.25694009     11.51524514     14.42057049
H       8.47749427      8.95422929      4.29523458
H      16.39915760     -2.24011359      2.28888566
H      -0.99997697     10.44442049     11.43756789
H      17.28229801      0.56199864      0.94667615
H      17.51303996     -0.04121215     -1.71750326
H      12.78392726      0.35382879      2.36678881
H      20.47492851      0.39745732     -0.98976157
H      -2.09483358     11.37554563     14.03588920
   94
energy=      0.00000000
C      -9.87962330     -1.67382623     -3.76652310
C      -8.40594769     -2.07655998     -2.97574811
H      -9.67274189     -0.98969656     -4.78972405
C     -11.20283066     -1.04464468     -2.86367356
H     -10.24060108     -2.59809698     -4.52247361
H      -7.68527398     -1.13053333     -2.62238975
C      -0.14163313     -1.70620514     -1.23269903
H      -8.44211899     -2.81832351     -1.98342728
H      -5.82565398     -4.70825757    -13.96702431
H      -5.81794279     -5.47765156    -13.83906564
C       0.99858995     -1.43624005     -2.28197182
H       0.21253165     -1.01107747     -3.13325620
C       2.41931474     -0.58017928     -1.85301469
H       1.04988014     -2.60548118     -2.67419210
H       2.40337467      0.50939298     -2.45329039
H       3.28536071     -0.93384902     -2.67774525
C       3.05094602     -0.41744334     -0.24006299
H       4.29800932     -0.39906343     -0.26902495
C       2.52417112      0.70822501      0.98633768
H       3.22604811     -1.56564864      0.20067419
H       2.01296992      1.70166450      0.44845166
H       3.40147004      1.56903814      1.19424621
C       1.72208662      0.32363566      2.49148441
H       2.41465362      0.71729950      3.44873290
C       3.10167032      3.65598037    -10.58674094
H       2.06172278     -0.78164158      2.95180460
H       2.45566351      4.46410784    -11.04611964
H       0.48498731      9.61934759     12.25545905
C      10.73503470     -4.86111106     -9.76333234
H     -11.10270488      0.08192198     -2.35419724
H     -11.63741262     -1.66738206     -1.88386067
C     -21.44161111     -1.47125103     -2.28573277
H     -12.31740132     -0.87088787     -3.37673234
C      -8.02601567      0.03013353     10.36011364
H     -22.11982784     -2.35626957     -2.28920680
H      -8.08601248      0.90414778      9.59416020
H      -7.96598540     -0.84380744     11.12614809
C       0.02462317      0.54987750      2.80849116
H      -0.49138789      1.31832602      1.97868324
C      -0.75667907      0.99192047      4.28550023
H      -0.57570804     -0.44359128      2.35546299
H      -0.47265429      2.06297813      4.84436323
H      -0.69381925      0.25372090      5.28077364
H      -1.98864871      1.14272450      4.34761600
H      10.30562250     -3.78036447     -9.47089764
H      11.25763004     -5.03029082    -10.82925841
H      10.64185156     -5.77267788     -8.98984096
H       4.20792801     -3.42468124     17.45865040
H       1.39786246     -3.88357704     19.47506375
H      12.02091771     -5.15664965     11.58506393
H      14.98542565     -5.01536855     12.02027928
H      -8.39907487     -4.14614902     22.33906395
H       8.66069183      8.74055554      0.99837594
H      -1.21943034     10.00979830     14.99714626
H      10.39185408      8.42210325      4.06100505
H      15.48941355     -2.42522547      1.08631442
H      -1.19932685      8.78128372     12.28956104
H      18.00316193     -0.54799607      2.27524192
H      22.37918902     -0.25661961     -9.15259292
H      12.23165988     -1.52430926      3.29444754
H      20.25824551     -1.51381974     -0.22164540
H       8.95094528      7.26579672      3.61991512
C      11.96143551     -3.45012731     13.11587579
C      12.57650919     -4.07449754     11.76693721
C       3.05529868     -3.10976467     17.44124126
C       2.08958206     -3.54576566     18.60008425
C      14.22846231     -4.09703731     11.81453624
C       9.25813754      9.09583694      1.98759513
C       9.28652403      8.44763004      3.51419829
C      -0.69742482      9.89366190     12.50584797
C      -1.06473267     10.68922166     13.97220745
C      15.83985558     -1.54822318      1.87698930
C      17.12886808     -0.54458455      1.41123794
C      18.12829041     -0.64671668      0.12654405
C      19.56946474     -0.58084964     -0.62222121
C      14.39637094     -0.97547680      2.32447154
C      12.95563637     -0.66152151      2.89016095
H      19.73302563     -0.66181633     -1.83391459
H      -7.48329292     -2.73765398     -3.47068853
H      11.55126489     -2.98228333     14.11067815
H      -8.27077617     -3.47392553     22.71330323
H      12.09172467     -3.48125082     10.80435802
H      15.01599662     -3.19219406     11.67064772
H       2.67752448     -2.45668655     16.51419866
H       9.82438928     10.06682306      1.54175375
H      -0.26073249     11.52129532     14.41639438
H       8.54713459      9.03014420      4.31242050
H      16.06521688     -2.25554605      2.86297056
H      -0.99325944     10.44740507     11.43723534
H      16.85338849      0.65618388      1.40004143
H      22.27028638      0.51344275     -9.21212595
H      12.49623740      0.43804929      2.96365704
H      20.10705726      0.50297169     -0.40869962
H      -2.09864228     11.36946443     14.03841739
