   94

C      -8.28409006     -5.22315561     -5.52297251
C      -7.14830358     -5.74530855     -4.51322294
H      -9.11347729     -4.84186094     -6.26032659
C     -10.16966046     -0.97813719      5.78663648
H     -18.89185999     -7.18329685     -1.80818867
H      -6.60261733     -4.80782878     -3.93834132
C      10.03992095     -2.00553877      9.45132511
H      -7.62414073     -6.48456800     -3.65636523
H      -7.31887678     -5.77374915    -16.93688833
H      -7.31116559     -6.54314314    -16.80892966
C       5.85841388      0.05581254      9.42711324
H       5.15562585      0.94783247      9.89510240
C      10.10385781     -3.26332048      8.33374916
H       5.14873159     -0.95581088      9.35793184
H      10.31976292     -2.58471122      7.37150503
H       0.32157625     -6.93123976     11.13964014
C       9.95129315     -4.84296705      7.66790651
H       9.00246627     -4.79974812      6.87926810
C       5.57013938      3.21446803     -3.52108228
H       9.59078661     -5.56116532      8.59848483
H       6.69447136      3.48298447     -3.97248460
H       4.95772607      4.27102054     -3.75009177
C       4.98195919      2.16271396     -4.77424425
H       5.82927788      2.98972476     -7.16103373
C       4.99125190      2.93126739     -6.27735752
H       5.50303564      1.19287733     -5.33440912
H       4.26287216      3.71197848     -6.85205802
H      -1.67522236     13.86417483     12.14530767
C      19.19157510     -6.52592924     -9.30291710
H     -10.56102212      0.14112010      5.63682747
H     -19.27118577     -7.16726916     -1.12682601
C      -9.30897803      4.96232714    -10.51107341
H     -10.83132775     -1.85899785      5.32336065
C      -0.70359284     -6.68628910     11.73165772
H     -10.40895073      4.90076610    -10.25089213
H      -2.93873544     -7.63582990     11.98669158
H      -0.70050210     -5.47987617     11.64755432
C       3.87474870      1.06303915     -4.17081581
H       6.29433844      4.35731162     -1.57599291
C       4.38616943      3.35777850     -0.74918108
H       2.66830530      1.05159250     -4.08928543
H       4.22219424      4.34669624     -0.01640089
H       4.07800056      2.52796157      0.11609450
H       3.20950037      3.36078800     -1.12621116
H      18.05071154     -6.13553108     -9.40510950
H      19.30049956     -7.12354069    -10.34778818
H      20.03818587     -7.07571839     -7.13215590
H       8.83424253     -0.87581403     12.45107286
H      10.71352369     -0.27115744      9.48345843
H      -1.57141489     -8.91451532     12.38153468
H       7.61234958     -1.00744564      9.16794479
H      -8.70101793     -4.16259184     22.46177845
H       8.20244717     13.22143323     11.17357981
H      -2.34916350     13.47718722     24.28698232
H      10.17295141      1.93963210     11.56605516
H       7.95967049      1.68830769     -1.77835690
H      -3.43227189     12.93183102     11.85119647
H      17.91126875      4.34685223     -3.56110614
H       1.15332685      1.56248793    -14.18199015
H      10.61363619     -6.74986848      5.82680565
H      21.48932126     -6.52028412     -8.19420654
H      10.04485267      2.26001183     10.21400670
C      -8.83791642     -1.27963225      6.56199229
C      -1.79768501     -7.70450832     12.45115164
C       8.45982107     -0.57749156     11.30929248
C       9.83286473     -0.51332689     10.28230694
C       7.26025015     -0.44517494     10.15661451
C       9.13932582     13.77129974     11.59081949
C      10.07605787      1.13384667     10.66010278
C      -2.87735699     14.02780680     11.93502706
C      -1.82981241     14.44151727     23.89388281
C       7.01522023      2.18243230     -1.15046795
C      17.93713385      4.85501091     -4.63791506
C      18.59741431      4.07801776     -5.79146531
C      20.28133959     -6.31199573     -8.07076197
C       5.78266780      3.23040847     -1.77963742
C      10.80806467     -5.99917927      6.76908601
H       7.77300952      2.59092122     -0.25430293
H      -6.28027672     -6.37469636     -5.11116190
H      -7.84951300     -1.50339758      7.13745151
H      -8.57271924     -3.49036836     22.83601772
H      -1.92037878     -7.53964623     13.66781805
H       5.98655520      0.59545381      8.31728343
H       7.76299206     -0.33775643     12.30339149
H      10.07320091     14.32829215     12.00533187
H      -1.31046131     15.40584731     23.50078330
H       4.03946864     -0.01845209     -3.63858357
H       6.75018588      1.05844460     -0.70648890
H      -3.02922606     14.64641905     10.88128340
H      17.48143339      5.92985781     -4.87339957
H       1.09358093      2.33690965    -14.25341374
H      11.86764890     -6.58379369      6.75846907
H      20.36866719     -5.13389879     -7.71557409
H      -3.37270765     14.66880232     12.86232070
   94

C      -8.28409064     -5.22315601     -5.52297304
C      -7.14830417     -5.74530898     -4.51322348
H      -9.11347790     -4.84186132     -6.26032707
C     -10.16966445     -0.97813546      5.78663497
H     -18.89186018     -7.18329690     -1.80818872
H      -6.60261798     -4.80782919     -3.93834186
C      10.04470802     -2.00360670      9.44914166
H      -7.62414138     -6.48456841     -3.65636579
H      -7.31887703     -5.77374927    -16.93688850
H      -7.31116583     -6.54314326    -16.80892981
C       5.85182551      0.05763557      9.42891983
H       5.15552556      0.95058265      9.90502105
C      10.11024793     -3.25680842      8.33080896
H       5.13134918     -0.94628260      9.36006154
H      10.33546443     -2.57881593      7.36997007
H       0.32155801     -6.93125650     11.13964433
C       9.94768871     -4.83684559      7.67473047
H       8.99303095     -4.79266531      6.89321311
C       5.57227961      3.21695799     -3.52057908
H       9.59086143     -5.55010325      8.61062298
H       6.69505356      3.49145269     -3.97258561
H       4.95907473      4.27289926     -3.75022951
C       4.98634829      2.16222387     -4.77207233
H       5.82160008      2.98793104     -7.16358078
C       4.98732859      2.92729159     -6.27677295
H       5.52208112      1.19385568     -5.32159334
H       4.25334552      3.70338045     -6.85052902
H      -1.67522219     13.86417505     12.14530793
C      19.22830392     -6.52708165     -9.29789056
H     -10.56102566      0.14112201      5.63682616
H     -19.27118595     -7.16726921     -1.12682606
C      -9.30897883      4.96232734    -10.51107379
H     -10.83133129     -1.85899648      5.32335924
C      -0.70360914     -6.68630275     11.73166341
H     -10.40895149      4.90076625    -10.25089238
H      -2.93875705     -7.63584046     11.98671241
H      -0.70051689     -5.47989055     11.64755770
C       3.87385692      1.06510486     -4.17399392
H       6.29611343      4.35686467     -1.57383176
C       4.38656363      3.35768464     -0.74964611
H       2.66710104      1.05661102     -4.09736373
H       4.22283902      4.34597189     -0.01596838
H       4.07717145      2.52702183      0.11437156
H       3.21016755      3.36189104     -1.12752175
H      18.08372023     -6.14371497     -9.40996756
H      19.31143872     -7.12608879    -10.34520570
H      20.03513132     -7.07228040     -7.08835189
H       8.83059812     -0.90009474     12.43524223
H      10.73026323     -0.28078710      9.49318025
H      -1.57141055     -8.91452100     12.38152998
H       7.59900322     -1.02960715      9.16032092
H      -8.70101826     -4.16259184     22.46177883
H       8.20247796     13.22135548     11.17360823
H      -2.34916326     13.47718703     24.28698219
H      10.19007053      1.92849537     11.56727226
H       7.96011462      1.68798131     -1.77858036
H      -3.43227184     12.93183137     11.85119675
H      17.91126714      4.34687352     -3.56110041
H       1.15332470      1.56248712    -14.18199428
H      10.61070926     -6.73734093      5.83255888
H      21.45984890     -6.55576883     -8.33754891
H      10.04665131      2.25321263     10.19820958
C      -8.83792071     -1.27963064      6.56199094
C      -1.79770156     -7.70451871     12.45115938
C       8.45760776     -0.58503729     11.29766841
C       9.83560345     -0.51426387     10.27887035
C       7.25633215     -0.45504074     10.14603066
C       9.13926384     13.77144419     11.59076333
C      10.08095210      1.13141380     10.65507600
C      -2.87735681     14.02780708     11.93502731
C      -1.82981217     14.44151707     23.89388267
C       7.01525654      2.18109031     -1.15051775
C      17.93713172      4.85503072     -4.63790989
C      18.59741394      4.07804540     -5.79146361
C      20.23378968     -6.28804507     -8.01435275
C       5.78378007      3.23059809     -1.77910852
C      10.80703070     -5.98951295      6.77633880
H       7.77224507      2.58769023     -0.25284088
H      -6.28027723     -6.37469678     -5.11116235
H      -7.84951755     -1.50339620      7.13745042
H      -8.57271953     -3.49036835     22.83601808
H      -1.92040922     -7.53965688     13.66782415
H       5.97634735      0.60125557      8.32085341
H       7.76437498     -0.34059135     12.29295037
H      10.07323259     14.32821629     12.00536068
H      -1.31046107     15.40584711     23.50078315
H       4.03252941     -0.01674663     -3.64104285
H       6.74929460      1.05656813     -0.70841888
H      -3.02922592     14.64641933     10.88128365
H      17.48142958      5.92987604     -4.87339740
H       1.09357878      2.33690884    -14.25341793
H      11.87054122     -6.56680319      6.77126303
H      20.36816878     -5.11404733     -7.67527154
H      -3.37270748     14.66880257     12.86232097
   94

C      -8.28409100     -5.22315640     -5.52297356
C      -7.14830452     -5.74530937     -4.51322402
H      -9.11347833     -4.84186171     -6.26032751
C     -10.16966825     -0.97813372      5.78663344
H     -18.89186032     -7.18329695     -1.80818876
H      -6.60261836     -4.80782957     -3.93834240
C      10.04938459     -2.00158712      9.44685892
H      -7.62414181     -6.48456877     -3.65636635
H      -7.31887714     -5.77374940    -16.93688863
H      -7.31116592     -6.54314339    -16.80892992
C       5.84533783      0.05940119      9.43075212
H       5.15553888      0.95319452      9.91492011
C      10.11654890     -3.25031518      8.32786843
H       5.11416551     -0.93671446      9.36227890
H      10.35106102     -2.57298088      7.36849643
H       0.32154030     -6.93127275     11.13964830
C       9.94411861     -4.83068271      7.68156991
H       8.98370744     -4.78549646      6.90718821
C       5.57442120      3.21944644     -3.52007679
H       9.59096130     -5.53897045      8.62273217
H       6.69561023      3.49989628     -3.97268166
H       4.96041933      4.27477098     -3.75037353
C       4.99074615      2.16173847     -4.76989847
H       5.81393240      2.98604704     -7.16606720
C       4.98341500      2.92326470     -6.27616054
H       5.54088100      1.19502780     -5.30875443
H       4.24388532      3.69473386     -6.84895280
H      -1.67522197     13.86417517     12.14530816
C      19.26754846     -6.52851450     -9.29086092
H     -10.56102903      0.14112390      5.63682485
H     -19.27118609     -7.16726925     -1.12682610
C      -9.30897951      4.96232750    -10.51107414
H     -10.83133466     -1.85899510      5.32335783
C      -0.70362496     -6.68631596     11.73166889
H     -10.40895215      4.90076637    -10.25089262
H      -2.93877827     -7.63585070     11.98673304
H      -0.70053094     -5.47990445     11.64756083
C       3.87300538      1.06716895     -4.17722129
H       6.29788725      4.35641288     -1.57168148
C       4.38695968      3.35758883     -0.75011520
H       2.66596542      1.06161664     -4.10543575
H       4.22348439      4.34524514     -0.01554140
H       4.07634505      2.52608337      0.11264371
H       3.21083791      3.36299041     -1.12883487
H      18.11922275     -6.15131591     -9.41179720
H      19.32077431     -7.12790555    -10.34131167
H      20.03510544     -7.06896333     -7.04776252
H       8.82677733     -0.92422938     12.41917264
H      10.74681733     -0.29050130      9.50319457
H      -1.57140589     -8.91452636     12.38152508
H       7.58554360     -1.05172551      9.15281439
H      -8.70101856     -4.16259184     22.46177919
H       8.20250878     13.22127759     11.17363662
H      -2.34916302     13.47718683     24.28698205
H      10.20715314      1.91726455     11.56836418
H       7.96056109      1.68765689     -1.77880102
H      -3.43227173     12.93183162     11.85119700
H      17.91126543      4.34689309     -3.56109549
H       1.15332323      1.56248618    -14.18199807
H      10.60775030     -6.72478292      5.83832171
H      21.41235102     -6.58722902     -8.47847785
H      10.04851330      2.24631816     10.18239949
C      -8.83792478     -1.27962903      6.56198957
C      -1.79771767     -7.70452874     12.45116687
C       8.45541829     -0.59258432     11.28595613
C       9.83832017     -0.51514857     10.27539986
C       7.25239113     -0.46490716     10.13537605
C       9.13920190     13.77158836     11.59070717
C      10.08585989      1.12902491     10.65006991
C      -2.87735658     14.02780728     11.93502753
C      -1.82981192     14.44151686     23.89388252
C       7.01529328      2.17975004     -1.15056933
C      17.93712959      4.85504855     -4.63790565
C      18.59741319      4.07807002     -5.79146244
C      20.19505402     -6.26647528     -7.96090826
C       5.78489281      3.23078440     -1.77858445
C      10.80601403     -5.97984508      6.78360299
H       7.77147751      2.58446159     -0.25138522
H      -6.28027750     -6.37469714     -5.11116279
H      -7.84952188     -1.50339480      7.13744929
H      -8.57271979     -3.49036834     22.83601842
H      -1.92043931     -7.53966725     13.66783001
H       5.96625199      0.60701817      8.32448444
H       7.76588159     -0.34351807     12.28247187
H      10.07326420     14.32814031     12.00538943
H      -1.31046083     15.40584690     23.50078300
H       4.02566729     -0.01501329     -3.64357782
H       6.74840605      1.05469723     -0.71034972
H      -3.02922573     14.64641952     10.88128387
H      17.48142596      5.92989247     -4.87339587
H       1.09357728      2.33690791    -14.25342171
H      11.87338281     -6.54977309      6.78406962
H      20.37042760     -5.09673203     -7.63753306
H      -3.37270725     14.66880273     12.86232120
   94

C      -8.28409121     -5.22315675     -5.52297404
C      -7.14830469     -5.74530971     -4.51322454
H      -9.11347862     -4.84186209     -6.26032791
C     -10.16967187     -0.97813200      5.78663192
H     -18.89186044     -7.18329699     -1.80818881
H      -6.60261853     -4.80782991     -3.93834291
C      10.05395878     -1.99948224      9.44447913
H      -7.62414205     -6.48456908     -3.65636689
H      -7.31887720     -5.77374952    -16.93688873
H      -7.31116596     -6.54314350    -16.80893000
C       5.83894661      0.06110820      9.43260932
H       5.15566409      0.95566762      9.92480310
C      10.12275899     -3.24383667      8.32492512
H       5.09717627     -0.92710824      9.36458243
H      10.36656103     -2.56720223      7.36708385
H       0.32152310     -6.93128854     11.13965203
C       9.94058127     -4.82447578      7.68842764
H       8.97449178     -4.77824109      6.92119774
C       5.57656502      3.22193423     -3.51957548
H       9.59108718     -5.52776278      8.63481763
H       6.69614212      3.50831714     -3.97277289
H       4.96176025      4.27663632     -3.75052349
C       4.99515371      2.16125759     -4.76772247
H       5.80627332      2.98407631     -7.16849445
C       4.97951205      2.91918960     -6.27551892
H       5.55943974      1.19638734     -5.29589495
H       4.23448667      3.68603606     -6.84732935
H      -1.67522167     13.86417518     12.14530834
C      19.30686867     -6.53081394     -9.28240995
H     -10.56103225      0.14112578      5.63682354
H     -19.27118621     -7.16726929     -1.12682615
C      -9.30898014      4.96232765    -10.51107446
H     -10.83133789     -1.85899371      5.32335642
C      -0.70364030     -6.68632875     11.73167413
H     -10.40895274      4.90076647    -10.25089283
H      -2.93879909     -7.63586066     11.98675349
H      -0.70054428     -5.47991791     11.64756370
C       3.87219410      1.06923333     -4.18049396
H       6.29966103      4.35595609     -1.56954112
C       4.38735802      3.35749106     -0.75058849
H       2.66489732      1.06661177     -4.11350404
H       4.22413098      4.34451552     -0.01511945
H       4.07552108      2.52514570      0.11091007
H       3.21151195      3.36408705     -1.13015099
H      18.15527436     -6.15800515     -9.41129621
H      19.32814055     -7.12879091    -10.33658474
H      20.03721962     -7.06467038     -7.01112975
H       8.82278874     -0.94821480     12.40286176
H      10.76316781     -0.30030167      9.51349060
H      -1.57140090     -8.91453141     12.38151998
H       7.57197601     -1.07379329      9.14542047
H      -8.70101882     -4.16259183     22.46177952
H       8.20253969     13.22119941     11.17366496
H      -2.34916276     13.47718661     24.28698189
H      10.22420256      1.90593591     11.56933223
H       7.96101031      1.68733408     -1.77901905
H      -3.43227154     12.93183177     11.85119720
H      17.91126441      4.34690715     -3.56109256
H       1.15332210      1.56248529    -14.18200160
H      10.60476126     -6.71218814      5.84409787
H      21.35441863     -6.61416771     -8.61111606
H      10.05044055      2.23931939     10.16656941
C      -8.83792865     -1.27962740      6.56198818
C      -1.79773334     -7.70453844     12.45117411
C       8.45325129     -0.60013711     11.27415025
C       9.84102356     -0.51598774     10.27190348
C       7.24842561     -0.47477463     10.12464572
C       9.13913997     13.77173228     11.59065094
C      10.09078924      1.12667574     10.64508465
C      -2.87735627     14.02780737     11.93502771
C      -1.82981166     14.44151663     23.89388235
C       7.01533065      2.17841066     -1.15062280
C      17.93712826      4.85506108     -4.63790336
C      18.59741265      4.07808692     -5.79146219
C      20.16433777     -6.24797316     -7.91344413
C       5.78600681      3.23096756     -1.77806510
C      10.80501543     -5.97017058      6.79088291
H       7.77070667      2.58123325     -0.24993517
H      -6.28027758     -6.37469745     -5.11116320
H      -7.84952597     -1.50339336      7.13744812
H      -8.57272002     -3.49036833     22.83601872
H      -1.92046906     -7.53967735     13.66783564
H       5.95626177      0.61274351      8.32817703
H       7.76750618     -0.34654765     12.27194956
H      10.07329576     14.32806408     12.00541809
H      -1.31046057     15.40584667     23.50078282
H       4.01887910     -0.01325142     -3.64618469
H       6.74752001      1.05283066     -0.71228278
H      -3.02922546     14.64641962     10.88128407
H      17.48142357      5.92990404     -4.87339538
H       1.09357615      2.33690703    -14.25342515
H      11.87617524     -6.53269642      6.79689275
H      20.37427784     -5.08278782     -7.60271232
H      -3.37270696     14.66880281     12.86232139
   94

C      -8.28409131     -5.22315709     -5.52297447
C      -7.14830473     -5.74530999     -4.51322501
H      -9.11347882     -4.84186246     -6.26032826
C     -10.16967533     -0.97813027      5.78663040
H     -18.89186054     -7.18329702     -1.80818885
H      -6.60261854     -4.80783020     -3.93834338
C      10.05843903     -1.99729439      9.44200530
H      -7.62414218     -6.48456934     -3.65636739
H      -7.31887728     -5.77374964    -16.93688882
H      -7.31116603     -6.54314362    -16.80893007
C       5.83264776      0.06275536      9.43449058
H       5.15589910      0.95800125      9.93467278
C      10.12887602     -3.23736933      8.32197708
H       5.08037763     -0.91746599      9.36697072
H      10.38197177     -2.56147689      7.36573270
H       0.32150637     -6.93130391     11.13965552
C       9.93707524     -4.81822265      7.69530616
H       8.96538052     -4.77089905      6.93524534
C       5.57871155      3.22442188     -3.51907532
H       9.59123972     -5.51647680      8.64688379
H       6.69664969      3.51671663     -3.97285947
H       4.96309770      4.27849574     -3.75067914
C       4.99957143      2.16078103     -4.76554452
H       5.79862170      2.98202262     -7.17086397
C       4.97562071      2.91506936     -6.27484702
H       5.57776119      1.19792816     -5.28301779
H       4.22514548      3.67728516     -6.84565881
H      -1.67522130     13.86417508     12.14530849
C      19.34553061     -6.53408702     -9.27303296
H     -10.56103531      0.14112765      5.63682223
H     -19.27118631     -7.16726932     -1.12682619
C      -9.30898072      4.96232779    -10.51107475
H     -10.83134096     -1.85899232      5.32335501
C      -0.70365519     -6.68634116     11.73167914
H     -10.40895329      4.90076657    -10.25089302
H      -2.93881953     -7.63587035     11.98677377
H      -0.70055695     -5.47993097     11.64756632
C       3.87142290      1.07129968     -4.18380798
H       6.30143555      4.35549423     -1.56740994
C       4.38775888      3.35739141     -0.75106610
H       2.66389560      1.07159835     -4.12157057
H       4.22477921      4.34378272     -0.01470208
H       4.07469915      2.52420848      0.10916992
H       3.21218998      3.36518185     -1.13147047
H      18.19117660     -6.16397495     -9.40927440
H      19.33422523     -7.12878378    -10.33121116
H      20.04052093     -7.05917557     -6.97796686
H       8.81864150     -0.97204657     12.38630861
H      10.77929589     -0.31018862      9.52405552
H      -1.57139557     -8.91453618     12.38151469
H       7.55830624     -1.09580248      9.13813495
H      -8.70101904     -4.16259181     22.46177980
H       8.20257072     13.22112085     11.17369326
H      -2.34916248     13.47718636     24.28698169
H      10.24122096      1.89450656     11.57017824
H       7.96146233      1.68701268     -1.77923458
H      -3.43227126     12.93183181     11.85119737
H      17.91126444      4.34691431     -3.56109195
H       1.15332110      1.56248454    -14.18200493
H      10.60174357     -6.69955131      5.84989092
H      21.29036245     -6.63718166     -8.73480378
H      10.05243445      2.23220785     10.15071348
C      -8.83793232     -1.27962576      6.56198677
C      -1.79774861     -7.70454782     12.45118111
C       8.45110542     -0.60769946     11.26224638
C       9.84372219     -0.51678807     10.26839039
C       7.24443402     -0.48464292     10.11383553
C       9.13907803     13.77187600     11.59059459
C      10.09574780      1.12436266     10.64012076
C      -2.87735589     14.02780736     11.93502786
C      -1.82981138     14.44151638     23.89388214
C       7.01536855      2.17707160     -1.15067820
C      17.93712806      4.85506718     -4.63790322
C      18.59741263      4.07809462     -5.79146285
C      20.13990942     -6.23222187     -7.87192082
C       5.78712255      3.23114778     -1.77755042
C      10.80403556     -5.96048522      6.79818247
H       7.76993212      2.57800358     -0.24849004
H      -6.28027753     -6.37469772     -5.11116357
H      -7.84952985     -1.50339190      7.13744690
H      -8.57272020     -3.49036831     22.83601898
H      -1.92049847     -7.53968720     13.66784104
H       5.94637000      0.61843331      8.33193165
H       7.76924264     -0.34969001     12.26137777
H      10.07332731     14.32798752     12.00544667
H      -1.31046029     15.40584642     23.50078261
H       4.01216177     -0.01146046     -3.64885961
H       6.74663605      1.05096749     -0.71421915
H      -3.02922513     14.64641961     10.88128423
H      17.48142281      5.92990969     -4.87339598
H       1.09357520      2.33690630    -14.25342830
H      11.87891966     -6.51556758      6.80973600
H      20.37883681     -5.07181921     -7.57050254
H      -3.37270660     14.66880278     12.86232154
   94

C      -8.28409133     -5.22315739     -5.52297485
C      -7.14830466     -5.74531023     -4.51322544
H      -9.11347895     -4.84186283     -6.26032855
C     -10.16967863     -0.97812855      5.78662888
H     -18.89186062     -7.18329705     -1.80818889
H      -6.60261843     -4.80783046     -3.93834381
C      10.06283375     -1.99502587      9.43944258
H      -7.62414219     -6.48456956     -3.65636785
H      -7.31887739     -5.77374976    -16.93688891
H      -7.31116611     -6.54314373    -16.80893015
C       5.82643893      0.06434097      9.43639398
H       5.15624043      0.96019325      9.94452772
C      10.13489483     -3.23091220      8.31902477
H       5.06377041     -0.90779255      9.36944131
H      10.39729491     -2.55580405      7.36444541
H       0.32149013     -6.93131886     11.13965879
C       9.93360091     -4.81192348      7.70220496
H       8.95637327     -4.76347189      6.94932999
C       5.58086027      3.22690818     -3.51857681
H       9.59141889     -5.50511267      8.65893028
H       6.69713279      3.52509296     -3.97294179
H       4.96443188      4.28034857     -3.75084055
C       5.00399760      2.16030825     -4.76336619
H       5.79097913      2.97989099     -7.17317650
C       4.97174297      2.91090862     -6.27414460
H       5.59584512      1.19964366     -5.27012877
H       4.21586161      3.66848348     -6.84394208
H      -1.67522085     13.86417487     12.14530859
C      19.38399529     -6.53816849     -9.26318505
H     -10.56103823      0.14112952      5.63682092
H     -19.27118639     -7.16726935     -1.12682623
C      -9.30898127      4.96232793    -10.51107502
H     -10.83134390     -1.85899091      5.32335361
C      -0.70366963     -6.68635318     11.73168394
H     -10.40895381      4.90076666    -10.25089319
H      -2.93883960     -7.63587978     11.98679387
H      -0.70056893     -5.47994362     11.64756869
C       3.87069127      1.07336865     -4.18715838
H       6.30321080      4.35502723     -1.56528833
C       4.38816229      3.35729004     -0.75154800
H       2.66295897      1.07657593     -4.12963420
H       4.22542919      4.34304688     -0.01428923
H       4.07387920      2.52327190      0.10742331
H       3.21287199      3.36627516     -1.13279321
H      18.22719543     -6.16963046     -9.40634664
H      19.34003953     -7.12811671    -10.32529254
H      20.04429898     -7.05271515     -6.94743462
H       8.81434743     -0.99571228     12.36951850
H      10.79517771     -0.32015816      9.53487081
H      -1.57138992     -8.91454066     12.38150920
H       7.54454424     -1.11774030      9.13095629
H      -8.70101922     -4.16259179     22.46178006
H       8.20260188     13.22104190     11.17372151
H      -2.34916219     13.47718609     24.28698147
H      10.25820468      1.88297708     11.57090676
H       7.96191692      1.68669260     -1.77944776
H      -3.43227088     12.93183174     11.85119750
H      17.91126550      4.34691503     -3.56109337
H       1.15332019      1.56248394    -14.18200807
H      10.59869750     -6.68687203      5.85570168
H      21.22130961     -6.65701869     -8.85096311
H      10.05449454      2.22497766     10.13482877
C      -8.83793581     -1.27962411      6.56198535
C      -1.79776346     -7.70455688     12.45118788
C       8.44898005     -0.61527277     11.25024466
C       9.84642552     -0.51755557     10.26487400
C       7.24041582     -0.49450901     10.10294500
C       9.13901608     13.77201952     11.59053811
C      10.10074279      1.12208459     10.63518087
C      -2.87735543     14.02780725     11.93502798
C      -1.82981108     14.44151610     23.89388191
C       7.01540684      2.17573282     -1.15073562
C      17.93712895      4.85506735     -4.63790491
C      18.59741314      4.07809395     -5.79146424
C      20.12014272     -6.21858507     -7.83508363
C       5.78823992      3.23132501     -1.77704069
C      10.80307556     -5.95078870      6.80550194
H       7.76915369      2.57477246     -0.24704986
H      -6.28027738     -6.37469795     -5.11116388
H      -7.84953351     -1.50339040      7.13744565
H      -8.57272035     -3.49036827     22.83601922
H      -1.92052755     -7.53969681     13.66784622
H       5.93657298      0.62408749      8.33574721
H       7.77108370     -0.35295225     12.25075430
H      10.07335885     14.32791062     12.00547518
H      -1.31045999     15.40584614     23.50078238
H       4.00551406     -0.00964075     -3.65159787
H       6.74575403      1.04910766     -0.71615895
H      -3.02922472     14.64641951     10.88128436
H      17.48142359      5.92990988     -4.87339746
H       1.09357439      2.33690574    -14.25343118
H      11.88161645     -6.49838739      6.82259955
H      20.38357899     -5.06300981     -7.54040612
H      -3.37270616     14.66880266     12.86232166
   94

C      -8.28409126     -5.22315767     -5.52297519
C      -7.14830448     -5.74531041     -4.51322583
H      -9.11347901     -4.84186319     -6.26032880
C     -10.16968176     -0.97812682      5.78662737
H     -18.89186068     -7.18329708     -1.80818893
H      -6.60261818     -4.80783068     -3.93834421
C      10.06715146     -1.99267926      9.43679780
H      -7.62414210     -6.48456974     -3.65636827
H      -7.31887749     -5.77374987    -16.93688900
H      -7.31116620     -6.54314385    -16.80893021
C       5.82031882      0.06586311      9.43831689
H       5.15668365      0.96224078      9.95436388
C      10.14080878     -3.22446588      8.31607013
H       5.04735804     -0.89809442      9.37199105
H      10.41252880     -2.55018440      7.36322562
H       0.32147439     -6.93133337     11.13966184
C       9.93015974     -4.80557994      7.70912161
H       8.94747145     -4.75596222      6.96344767
C       5.58301010      3.22939087     -3.51808066
H       9.59162417     -5.49367286      8.67095372
H       6.69759106      3.53344241     -3.97302034
H       4.96576307      4.28219352     -3.75100794
C       5.00842927      2.15983848     -4.76118986
H       5.78334887      2.97768730     -7.17543239
C       4.96788138      2.90671288     -6.27341198
H       5.61368940      1.20152700     -5.25723523
H       4.20663729      3.65963591     -6.84218057
H      -1.67522033     13.86417454     12.14530866
C      19.42296119     -6.54283965     -9.25333089
H     -10.56104101      0.14113139      5.63681961
H     -19.27118646     -7.16726938     -1.12682627
C      -9.30898178      4.96232806    -10.51107527
H     -10.83134670     -1.85898948      5.32335223
C      -0.70368358     -6.68636479     11.73168852
H     -10.40895430      4.90076675    -10.25089335
H      -2.93885929     -7.63588893     11.98681381
H      -0.70058020     -5.47995584     11.64757082
C       3.86999841      1.07544015     -4.19053969
H       6.30498633      4.35455500     -1.56317731
C       4.38856821      3.35718711     -0.75203408
H       2.66208606      1.08154264     -4.13769196
H       4.22608092      4.34230840     -0.01388108
H       4.07306145      2.52233644      0.10567075
H       3.21355781      3.36736698     -1.13411876
H      18.26382720     -6.17529414     -9.40287841
H      19.34631018     -7.12711110    -10.31896457
H      20.04818160     -7.04559377     -6.91886018
H       8.80992036     -1.01919503     12.35250095
H      10.81078694     -0.33020320      9.54591304
H      -1.57138394     -8.91454484     12.38150352
H       7.53070274     -1.13959126      9.12388438
H      -8.70101937     -4.16259176     22.46178028
H       8.20263314     13.22096258     11.17374973
H      -2.34916187     13.47718580     24.28698122
H      10.27514653      1.87135017     11.57152410
H       7.96237370      1.68637374     -1.77965883
H      -3.43227043     12.93183156     11.85119760
H      17.91126740      4.34691050     -3.56109632
H       1.15331944      1.56248347    -14.18201100
H      10.59562265     -6.67415299      5.86152925
H      21.14720537     -6.67418154     -8.96090896
H      10.05661880      2.21762457     10.11891460
C      -8.83793911     -1.27962245      6.56198392
C      -1.79777788     -7.70456561     12.45119441
C       8.44687493     -0.62285679     11.23814825
C       9.84914305     -0.51829585     10.26137019
C       7.23637109     -0.50436833     10.09197608
C       9.13895412     13.77216283     11.59048153
C      10.10578101      1.11984193     10.63026874
C      -2.87735489     14.02780703     11.93502808
C      -1.82981076     14.44151580     23.89388165
C       7.01544540      2.17439456     -1.15079518
C      17.93713068      4.85506277     -4.63790793
C      18.59741409      4.07808665     -5.79146610
C      20.10377199     -6.20651148     -7.80176619
C       5.78935850      3.23149902     -1.77653635
C      10.80213687     -5.94108312      6.81283921
H       7.76837146      2.57154066     -0.24561516
H      -6.28027712     -6.37469813     -5.11116416
H      -7.84953697     -1.50338887      7.13744437
H      -8.57272046     -3.49036824     22.83601942
H      -1.92055628     -7.53970615     13.66785118
H       5.92686905      0.62970489      8.33962159
H       7.77302131     -0.35633920     12.24007923
H      10.07339037     14.32783340     12.00550361
H      -1.31045968     15.40584584     23.50078212
H       3.99893567     -0.00779314     -3.65439420
H       6.74487403      1.04725161     -0.71810170
H      -3.02922424     14.64641931     10.88128447
H      17.48142557      5.92990567     -4.87339955
H       1.09357377      2.33690531    -14.25343377
H      11.88426552     -6.48116065      6.83548140
H      20.38827937     -5.05568438     -7.51198474
H      -3.37270565     14.66880245     12.86232174
   94

C      -8.28409109     -5.22315793     -5.52297551
C      -7.14830418     -5.74531055     -4.51322619
H      -9.11347898     -4.84186354     -6.26032902
C     -10.16968474     -0.97812510      5.78662588
H     -18.89186073     -7.18329710     -1.80818896
H      -6.60261779     -4.80783086     -3.93834458
C      10.07140098     -1.99025763      9.43407856
H      -7.62414189     -6.48456987     -3.65636868
H      -7.31887757     -5.77374999    -16.93688908
H      -7.31116627     -6.54314396    -16.80893027
C       5.81428610      0.06732004      9.44025661
H       5.15722412      0.96414131      9.96417690
C      10.14661173     -3.21803110      8.31311531
H       5.03114358     -0.88837803      9.37461675
H      10.42767177     -2.54461903      7.36207701
H       0.32145921     -6.93134740     11.13966467
C       9.92675310     -4.79919389      7.71605353
H       8.93867645     -4.74837280      6.97759416
C       5.58515998      3.23186758     -3.51758760
H       9.59185484     -5.48216016      8.68295050
H       6.69802414      3.54176116     -3.97309560
H       4.96709161      4.28402922     -3.75118160
C       5.01286350      2.15937089     -4.75901797
H       5.77573413      2.97541749     -7.17763212
C       4.96403834      2.90248747     -6.27264965
H       5.63129259      1.20357146     -5.24434396
H       4.19747482      3.65074753     -6.84037572
H      -1.67521973     13.86417411     12.14530870
C      19.46298762     -6.54791555     -9.24391456
H     -10.56104364      0.14113325      5.63681832
H     -19.27118650     -7.16726940     -1.12682630
C      -9.30898224      4.96232818    -10.51107549
H     -10.83134937     -1.85898805      5.32335086
C      -0.70369703     -6.68637597     11.73169288
H     -10.40895473      4.90076683    -10.25089348
H      -2.93887856     -7.63589779     11.98683358
H      -0.70059071     -5.47996761     11.64757270
C       3.86934344      1.07751395     -4.19394668
H       6.30676167      4.35407746     -1.56107797
C       4.38897658      3.35708279     -0.75252423
H       2.66127545      1.08649657     -4.14574081
H       4.22673434      4.34156770     -0.01347784
H       4.07224614      2.52140258      0.10391280
H       3.21424726      3.36845722     -1.13544669
H      18.30146121     -6.18110587     -9.39898621
H      19.35327754     -7.12611843    -10.31234371
H      20.05201499     -7.03803616     -6.89186781
H       8.80537470     -1.04247840     12.33526645
H      10.82609855     -0.34031568      9.55715639
H      -1.57137760     -8.91454871     12.38149765
H       7.51679474     -1.16134036      9.11691900
H      -8.70101948     -4.16259172     22.46178048
H       8.20266450     13.22088296     11.17377791
H      -2.34916154     13.47718548     24.28698094
H      10.29203911      1.85962873     11.57203693
H       7.96283229      1.68605601     -1.77986803
H      -3.43226989     12.93183128     11.85119767
H      17.91126992      4.34690206     -3.56110033
H       1.15331892      1.56248306    -14.18201369
H      10.59251855     -6.66139724      5.86737260
H      21.06809888     -6.68892299     -9.06536695
H      10.05880443      2.21014460     10.10297135
C      -8.83794222     -1.27962077      6.56198248
C      -1.79779185     -7.70457399     12.45120070
C       8.44478977     -0.63045085     11.22596080
C       9.85188344     -0.51901454     10.25789487
C       7.23229976     -0.51421652     10.08093128
C       9.13889217     13.77230589     11.59042488
C      10.11086879      1.11763522     10.62538798
C      -2.87735429     14.02780672     11.93502814
C      -1.82981043     14.44151548     23.89388137
C       7.01548410      2.17305708     -1.15085701
C      17.93713300      4.85505470     -4.63791184
C      18.59741538      4.07807447     -5.79146818
C      20.08979108     -6.19561902     -7.77124910
C       5.79047785      3.23166957     -1.77603786
C      10.80122082     -5.93137072      6.82019188
H       7.76758554      2.56830902     -0.24418652
H      -6.28027674     -6.37469827     -5.11116441
H      -7.84954023     -1.50338731      7.13744307
H      -8.57272053     -3.49036819     22.83601959
H      -1.92058465     -7.53971522     13.66785591
H       5.91725707      0.63528437      8.34355261
H       7.77504722     -0.35985446     12.22935303
H      10.07342185     14.32775592     12.00553196
H      -1.31045936     15.40584552     23.50078183
H       3.99242620     -0.00591858     -3.65724331
H       6.74399618      1.04539979     -0.72004689
H      -3.02922369     14.64641902     10.88128455
H      17.48142841      5.92989822     -4.87340201
H       1.09357341      2.33690495    -14.25343603
H      11.88686667     -6.46389255      6.84837935
H      20.39286336     -5.04944714     -7.48493423
H      -3.37270508     14.66880214     12.86232178
   94

C      -8.28409081     -5.22315816     -5.52297579
C      -7.14830375     -5.74531064     -4.51322653
H      -9.11347885     -4.84186388     -6.26032921
C     -10.16968757     -0.97812339      5.78662440
H     -18.89186075     -7.18329712     -1.80818899
H      -6.60261724     -4.80783100     -3.93834494
C      10.07559127     -1.98776449      9.43129293
H      -7.62414156     -6.48456996     -3.65636906
H      -7.31887760     -5.77375011    -16.93688915
H      -7.31116628     -6.54314407    -16.80893032
C       5.80833920      0.06871019      9.44221049
H       5.15785717      0.96589272      9.97396255
C      10.15229844     -3.21160854      8.31016235
H       5.01512926     -0.87864935      9.37731536
H      10.44272270     -2.53910923      7.36100306
H       0.32144461     -6.93136093     11.13966731
C       9.92338207     -4.79276717      7.72299834
H       8.92998931     -4.74070622      6.99176549
C       5.58730890      3.23433607     -3.51709833
H       9.59211009     -5.47057726      8.69491734
H       6.69843181      3.55004565     -3.97316801
H       4.96841789      4.28585437     -3.75136177
C       5.01729756      2.15890459     -4.75685286
H       5.76813775      2.97308738     -7.17977629
C       4.96021599      2.89823740     -6.27185822
H       5.64865436      1.20577056     -5.23146090
H       4.18837620      3.64182320     -6.83852892
H      -1.67521908     13.86417357     12.14530871
C      19.50467952     -6.55319798     -9.23540236
H     -10.56104614      0.14113510      5.63681703
H     -19.27118653     -7.16726942     -1.12682634
C      -9.30898264      4.96232828    -10.51107569
H     -10.83135191     -1.85898660      5.32334950
C      -0.70370995     -6.68638670     11.73169703
H     -10.40895511      4.90076689    -10.25089360
H      -2.93889741     -7.63590633     11.98685317
H      -0.70060044     -5.47997890     11.64757433
C       3.86872545      1.07958980     -4.19737445
H       6.30853636      4.35359452     -1.55899134
C       4.38938732      3.35697725     -0.75301834
H       2.66052565      1.09143600     -4.15377802
H       4.22738944      4.34082516     -0.01307972
H       4.07143350      2.52047078      0.10214999
H       3.21494017      3.36954584     -1.13677659
H      18.34047415     -6.18708854     -9.39457339
H      19.36085876     -7.12556641    -10.30543062
H      20.05566016     -7.03017031     -6.86630528
H       8.80072502     -1.06554745     12.31782562
H      10.84108986     -0.35048705      9.56857344
H      -1.57137090     -8.91455224     12.38149158
H       7.50283289     -1.18297367      9.11005957
H      -8.70101955     -4.16259168     22.46178064
H       8.20269594     13.22080307     11.17380605
H      -2.34916120     13.47718515     24.28698065
H      10.30887539      1.84781558     11.57245185
H       7.96329232      1.68573931     -1.78007565
H      -3.43226928     12.93183090     11.85119771
H      17.91127287      4.34689098     -3.56110500
H       1.15331874      1.56248269    -14.18201609
H      10.58938479     -6.64860765      5.87323080
H      20.98437686     -6.70134627     -9.16474689
H      10.06104812      2.20253386     10.08700021
C      -8.83794515     -1.27961908      6.56198104
C      -1.79780534     -7.70458199     12.45120674
C       8.44272416     -0.63805407     11.21368596
C       9.85465430     -0.51971723     10.25446335
C       7.22820144     -0.52404972     10.06981332
C       9.13883025     13.77244869     11.59036818
C      10.11601203      1.11546483     10.62054176
C      -2.87735362     14.02780632     11.93502819
C      -1.82981009     14.44151514     23.89388107
C       7.01552285      2.17172063     -1.15092127
C      17.93713570      4.85504428     -4.63791629
C      18.59741692      4.07805901     -5.79147034
C      20.07715905     -6.18561433     -7.74313246
C       5.79159755      3.23183640     -1.77554565
C      10.80032862     -5.92165355      6.82755769
H       7.76679603      2.56507830     -0.24276449
H      -6.28027622     -6.37469837     -5.11116463
H      -7.84954328     -1.50338572      7.13744173
H      -8.57272057     -3.49036814     22.83601973
H      -1.92061264     -7.53972399     13.66786040
H       5.90773602      0.64082493      8.34753822
H       7.77715321     -0.36350067     12.21857623
H      10.07345328     14.32767821     12.00556023
H      -1.31045902     15.40584518     23.50078153
H       3.98598490     -0.00401794     -3.66014008
H       6.74312058      1.04355263     -0.72199408
H      -3.02922309     14.64641863     10.88128461
H      17.48143178      5.92988860     -4.87340469
H       1.09357340      2.33690464    -14.25343793
H      11.88941970     -6.44658801      6.86129138
H      20.39722896     -5.04411349     -7.45902962
H      -3.37270446     14.66880175     12.86232180
   94

C      -8.28408938     -5.22315670     -5.52297546
C      -7.14830290     -5.74530964     -4.51322589
H      -9.11347720     -4.84186243     -6.26032909
C     -10.16967887     -0.97812292      5.78662710
H     -18.89185999     -7.18329685     -1.80818867
H      -6.60261620     -4.80783018     -3.93834421
C      10.08304673     -1.98248884      9.42897658
H      -7.62414104     -6.48456898     -3.65636863
H      -7.31887679     -5.77374915    -16.93688833
H      -7.31116560     -6.54314315    -16.80892966
C       5.80021714      0.07046733      9.44399455
H       5.15677228      0.96671609      9.98597247
C      10.15796558     -3.20321078      8.30869351
H       4.99265648     -0.86478504      9.38042393
H      10.46231110     -2.53162392      7.36229073
H       0.32152093     -6.93131892     11.13966354
C       9.92027893     -4.78392586      7.73113091
H       8.91832643     -4.72830068      7.01135603
C       5.58990214      3.23633947     -3.51655772
H       9.59165325     -5.45381453      8.70994368
H       6.69831011      3.56107820     -3.97355864
H       4.97121021      4.28774286     -3.75206771
C       5.02225915      2.15759907     -4.75470818
H       5.75801011      2.97101053     -7.18249531
C       4.95438757      2.89271519     -6.27139944
H       5.67520410      1.20927175     -5.21134896
H       4.17692415      3.63169511     -6.83617319
H      -1.67522236     13.86417483     12.14530767
C      19.59943638     -6.55467683     -9.22528930
H     -10.56103864      0.14113525      5.63681929
H     -19.27118577     -7.16726916     -1.12682601
C      -9.30897803      4.96232714    -10.51107341
H     -10.83134450     -1.85898534      5.32335213
C      -0.70364398     -6.68635242     11.73168295
H     -10.40895073      4.90076610    -10.25089213
H      -2.93886237     -7.63587261     11.98686629
H      -0.70050433     -5.47994335     11.64755506
C       3.86678950      1.08206632     -4.20209561
H       6.31086132      4.35262368     -1.55661368
C       4.38995522      3.35688313     -0.75366091
H       2.65859047      1.09715967     -4.16424098
H       4.22829855      4.34014038     -0.01287672
H       4.07056489      2.51948043      0.10008025
H       3.21585918      3.37074024     -1.13842996
H      18.42272042     -6.20848264     -9.38900932
H      19.39123560     -7.12198925    -10.29314824
H      20.05632379     -7.01715927     -6.82193838
H       8.79638123     -1.09650078     12.29366879
H      10.86018295     -0.36375559      9.58254673
H      -1.57130290     -8.91451244     12.38145952
H       7.48356689     -1.21651604      9.10107052
H      -8.70101793     -4.16259184     22.46177845
H       8.20272217     13.22076571     11.17383187
H      -2.34916350     13.47718722     24.28698232
H      10.33214843      1.82982298     11.57801511
H       7.96385441      1.68520744     -1.78065231
H      -3.43227189     12.93183102     11.85119647
H      17.91126875      4.34685223     -3.56110614
H       1.15332685      1.56248793    -14.18199017
H      10.58142544     -6.63163452      5.87972333
H      20.80728290     -6.72769645     -9.33552764
H      10.06239419      2.19151607     10.05932333
C      -8.83793492     -1.27961795      6.56198287
C      -1.79775552     -7.70454486     12.45118692
C       8.44010815     -0.64920889     11.19714098
C       9.86192914     -0.51974328     10.25428829
C       7.22256197     -0.53901703     10.05378932
C       9.13876565     13.77262874     11.59031084
C      10.12612191      1.11539597     10.61467231
C      -2.87735699     14.02780680     11.93502706
C      -1.82981241     14.44151727     23.89388281
C       7.01571769      2.16995112     -1.15111637
C      17.93713385      4.85501092     -4.63791506
C      18.59741432      4.07801776     -5.79146531
C      20.04266194     -6.16430403     -7.68929204
C       5.79296237      3.23169593     -1.77494175
C      10.79972986     -5.90892722      6.83527387
H       7.76598382      2.56121046     -0.24127213
H      -6.28027563     -6.37469735     -5.11116437
H      -7.84953155     -1.50338340      7.13744203
H      -8.57271924     -3.49036836     22.83601772
H      -1.92060137     -7.53969362     13.66783879
H       5.89420289      0.64829194      8.35215286
H       7.77973661     -0.36707579     12.20316872
H      10.07348609     14.32763066     12.00558846
H      -1.31046131     15.40584731     23.50078330
H       3.97646312     -0.00168712     -3.66413923
H       6.74210516      1.04134086     -0.72412313
H      -3.02922606     14.64641905     10.88128340
H      17.48143339      5.92985781     -4.87339957
H       1.09358092      2.33690965    -14.25341377
H      11.89345430     -6.42309231      6.88051714
H      20.40063906     -5.03258958     -7.41430834
H      -3.37270765     14.66880232     12.86232070
