   94
energy=      0.00000000
C      10.83137502     -8.23501779     -9.00323688
C      -0.18161430    -11.29358944    -10.07451831
H      10.94136101     -7.31332995     -8.18458836
C      -0.23145847     -0.86890614      8.33303276
H      -5.13933323      7.53145952     -2.45749103
H      -0.41543830    -10.50548830     -9.25086295
C       0.90446384     -0.69356395      9.54231601
H      10.03556687     -8.93978898     -8.36642379
H      -8.82389101     -7.11496087    -18.93572149
H      -8.81617982     -7.88435486    -18.80776282
C       4.76300345     -0.68612216     -4.33251630
H      16.26525229      6.32974144     13.57266113
C       8.30629707     -9.94107598      5.45125321
H       8.56671304     12.65359943      2.14429891
H       8.46795029     -9.29280713      4.48601329
H       2.50425844    -10.90118632     17.33758517
C       6.59145210    -10.69603856      7.45691483
H       5.49409825    -10.76545339      6.95703955
C       8.18496480     12.76807324      4.58040285
H       6.27875348    -10.50215027      8.60736186
H       9.99391875     13.61118483      5.97097702
H       7.08148711     13.28581424      4.49919567
C       8.65857741     11.99024230      3.18066299
H      16.85665692      2.91566089     -5.08201493
C      15.75282822      2.69569544     -4.97145247
H       2.86211024      0.24577505     -3.61890984
H       8.07455588     10.91768953      2.99675404
H      -2.53866815     10.59090038     11.83149567
C      12.21436013     -8.98820373     -9.67222791
H      -1.32854958     -0.60537700      8.79838357
H      -4.98711061      7.49414587     -0.64500872
C       1.65820519     -2.79306342     -3.41152804
H       0.94367918     -1.89412880      9.85619495
C       1.47819573    -10.71751696     17.93036419
H       1.19457813     -2.74504070     -2.29678679
H     -10.96213609    -12.27297242     15.66815272
H       1.07348491     -9.60107587     18.09678088
C       0.43503654     -0.97067809     -5.19297435
H      -1.89884331      7.80278247     -1.20409542
C      -2.51111140     10.04713827     -1.73287184
H      -0.56281182     -0.63932470     -5.73720332
H      -2.70293785     10.73932914     -0.72804049
H      -1.35093691     10.31211896     -2.06247655
H      -3.06834164     10.70433887     -2.61366143
H      12.48877929     -8.65102899    -10.83480857
H      12.04685289    -10.15429538    -10.06510379
H      14.01329994     -9.65467507     -7.87901507
H       3.48466183      1.31351208      7.77285100
H       0.75566744      0.37175602     10.13104064
H       0.85684386    -11.65028868     18.35672652
H       5.62055621     -0.84314648     -5.15161031
H      -9.42675544     -2.95204824     23.99740376
H       6.31473543     15.06791887     16.37398524
H       9.27597952     11.92104592      6.59058576
H       3.05230731     -0.48943795     12.34838680
H      26.59648769      7.39426669     -2.17327341
H      -4.57246620      9.51177598     11.49105931
H      27.28666125      7.54264242     -1.84154386
H       0.58422016     -2.02050089      6.23864677
H       8.36920065    -12.00217896      6.47611941
H      10.03949904     -7.63875398     -9.74583297
H       4.42895684     -0.68757789     11.04723877
C      -0.25403534     -1.24342908      6.70159163
C     -10.36016020    -12.21606716     16.66242232
C       2.97024692      0.81443085      8.68700513
C       2.37742903     -0.05331889      9.86647142
C       5.91241679     -0.29859770     -3.32041387
C       8.18367301     13.80474674      7.20311523
C       3.28391659     -0.37677646     11.17069052
C      -3.55556718     10.05133818     11.66127749
C       8.94243940     12.97689447      6.04874085
C      -4.23734898      7.44188950     -1.62403900
C       1.78437022     -1.66638729     -4.61677651
C       3.12857347     -0.73571437     -4.26542133
C      13.62233029     -8.94509939     -8.77849244
C      -2.89148852      8.43155984     -1.53276841
C       8.08717612    -10.84018631      6.76752128
H       9.82782577     11.63670696      3.01568457
H       0.05220737    -12.08169066    -10.89817425
H      -1.24720581     -1.80489704      6.22889338
H      -9.29845674     -2.27982476     24.37164303
H      -9.75818431    -12.15916191     17.65669192
H      16.08941789      7.08319455     13.47371370
H       6.68690959      0.05203705     -2.51685745
H       7.01095348     15.27452786     16.65857820
H       7.66172054     14.56457685      7.93206049
H       1.70233914     -2.31453908     -5.65194632
H      -3.94414409      6.26771069     -1.86652913
H      -7.60020280     21.22156798      9.78123602
H       2.07873331     -3.92605577     -3.41884702
H      -0.13187023     -0.25751209      5.97115941
H       9.03581011    -10.55126412      7.49516848
H      14.56054053     -8.18056614     -8.81193048
H      -7.73341433     21.23018717     10.54972831
   94
energy=      0.00000000
C       7.70676234     -7.29943840    -11.29294025
C      -2.90896215    -12.74921023    -10.23131789
H       8.38333812     -6.56877026    -10.62512066
C      -0.26794095     -0.82005214      8.32655757
H      -5.49491423      8.40709347     -2.36880680
H      -3.14278516    -11.96110905     -9.40766228
C       0.85101148     -0.65487091      9.56095988
H       7.36976468     -8.36662347    -10.86188514
H      -8.98114088     -6.99585102    -19.14432246
H      -8.97342969     -7.76524501    -19.01636379
C       3.97330752     -0.10145441     -3.35845766
H      16.26525229      6.32974144     13.57266113
C       8.30480595     -9.94054529      5.45525875
H       8.56165129     12.65057506      2.13611998
H       8.45351480     -9.28527916      4.49275312
H       2.50425844    -10.90118632     17.33758517
C       6.59310753    -10.69452437      7.45359107
H       5.49723451    -10.77278008      6.95163646
C       8.19720646     12.76939869      4.57448541
H       6.27765676    -10.48364234      8.60020003
H      10.02634537     13.59156780      5.96337458
H       7.08368651     13.26489921      4.50101885
C       8.66003241     11.98755579      3.17245353
H      16.85665692      2.91566089     -5.08201493
C      15.75282822      2.69569544     -4.97145247
H       2.06130583      0.96574326     -2.70337170
H       8.07324681     10.91694010      2.98541547
H      -2.53866815     10.59090038     11.83149567
C      18.21528337    -11.54996963    -10.49227721
H      -1.41774997     -0.62462096      8.70092575
H      -5.37925158      8.25435560     -0.47221252
C       0.91027285     -2.23209489     -2.42616908
H       0.89436479     -1.82724028      9.94790516
C       1.47819573    -10.71751696     17.93036419
H       0.37653844     -2.13890482     -1.34654521
H     -10.96213609    -12.27297242     15.66815272
H       1.07348491     -9.60107587     18.09678088
C      -0.24731795     -0.44390803     -4.15075626
H      -2.30448056      8.53360720     -1.02974434
C      -2.96966215     10.78962486     -1.59002115
H      -1.24413494      0.00818401     -4.58481504
H      -3.17870683     11.47996157     -0.58738249
H      -1.82737846     11.10206667     -1.93627612
H      -3.56461790     11.40237133     -2.47878000
H      17.95476549    -10.83991249    -11.42637654
H      17.48129618    -12.49697961    -10.58536201
H      19.56890555    -11.97233191     -8.39281464
H       3.54438463      1.37980301      7.81044563
H       0.36480307      0.23693101     10.26004325
H       0.85684386    -11.65028868     18.35672652
H       4.60006136     -0.35642329     -4.34922640
H      -9.42675544     -2.95204824     23.99740376
H       6.31473425     15.06792036     16.37399236
H       9.23996160     11.95186242      6.61763358
H       3.13135933     -0.36034082     12.25793348
H      26.59648769      7.39426669     -2.17327341
H      -4.57246620      9.51177598     11.49105931
H      27.28666125      7.54264242     -1.84154386
H       0.62394925     -2.00455115      6.30218111
H       8.37290978    -12.00664970      6.47843406
H       7.36043866     -6.95163893    -12.38700228
H       4.53456075     -0.73533668     11.07531363
C      -0.23585401     -1.21849941      6.70450102
C     -10.36016020    -12.21606716     16.66242232
C       3.08878378      0.74869501      8.67929198
C       2.41621850     -0.15441797      9.79023660
C       5.05348495      0.25968891     -2.26694822
C       8.19313382     13.85504568      7.18246161
C       3.38077385     -0.40507844     11.07903033
C      -3.55556718     10.05133818     11.66127749
C       8.94868938     13.00191333      6.04303883
C      -4.66431865      8.21519052     -1.47850655
C       1.12497304     -1.12159591     -3.63335813
C       2.35449361     -0.07699115     -3.24092119
C      19.35055618    -11.30472553     -9.36818699
C      -3.29386294      9.16547159     -1.36912592
C       8.09034680    -10.84454984      6.76887078
H       9.82539434     11.62320318      3.00407935
H      -2.67513949    -13.53731141    -11.05497358
H      -1.20846426     -1.81682726      6.23423945
H      -9.29845674     -2.27982476     24.37164303
H      -9.75818431    -12.15916191     17.65669192
H      16.08941789      7.08319455     13.47371370
H       5.86970567      0.59465305     -1.50107413
H       7.01095230     15.27452935     16.65858531
H       7.64250960     14.51761027      7.98238298
H       1.29604081     -1.68885253     -4.71207616
H      -4.47906913      7.01879537     -1.71571400
H      -7.60020280     21.22156798      9.78123602
H       1.28603558     -3.37775263     -2.36388049
H      -0.10777060     -0.23932012      5.96433885
H       9.04116192    -10.56318394      7.49664764
H      20.17331540    -10.42894099     -9.35669922
H      -7.73341433     21.23018717     10.54972831
