   94
energy=      0.00000000
C     -11.23742416     -2.26444694     -4.66790328
C      -9.74423442     -2.63298795     -3.89671024
H     -11.03561152     -1.61461336     -5.71435336
C     -12.55788119     -1.59396225     -3.79214269
H     -11.62143755     -3.23269709     -5.35535684
H      -9.06181628     -1.70882669     -3.42956454
C       7.95931124      2.14472705      5.98685668
H      -9.72668376     -3.40685404     -2.92825852
H      -6.67718412     -4.85834250    -16.03748284
H      -6.66947293     -5.62773649    -15.90952417
C      -0.02710262     -6.14714591     -6.01562593
H      -0.45847284     -5.11346127     -6.33122199
C       7.84530123      1.36957316      4.44936271
H       0.40292309     -7.18196082     -5.70190463
H       8.32363486      2.26146638      3.75156660
H       6.68782266      1.71051867      4.25365660
C       8.05040017     -0.13811026      3.55541323
H       7.50402477     -1.23063498      3.43470037
C       7.45133783      0.25858537      1.17135810
H       7.54462701     -0.93335384      4.36033922
H       7.26558049      0.72700948      0.04613536
H       7.83980625      1.38953089      0.84155279
C       5.74347323     -0.09156108      1.46199884
H       5.10547026      0.21995797      2.47255919
C       3.13812541      4.60698930    -11.60438981
H       5.39750903     -1.27753028      1.51428336
H       2.49211858      5.41511674    -12.06376844
H      -0.84169931     12.05954180     11.17249877
C      11.40295965     -5.30910995    -10.95545314
H     -12.42809781     -0.48436050     -3.25392950
H     -13.04475757     -2.22516944     -2.84242946
C     -22.67728078     -1.47257526     -2.13778811
H     -13.64184985     -1.34598162     -4.34043447
C      -1.93283846     -5.34869054     12.12156455
H     -23.35549751     -2.35759379     -2.14126214
H      -0.55959182     -5.48843749     10.22357344
H      -2.90997096     -4.97468457     12.65287578
C       4.27894938      0.33699864      0.90329948
H      -2.59812200      2.87372915      2.63238028
C      -3.39862337      2.87111323      3.56795926
H       3.11437481      0.46264867      0.71889183
H      -3.29778082      3.92522578      4.19628885
H      -3.15526817      1.92346294      4.31552767
H      -4.54332044      2.76204016      3.12762767
H      10.97354746     -4.22836335    -10.66301845
H      11.92555499     -5.47828973    -12.02137921
H      11.30977650     -6.22067676    -10.18196175
H       8.82209636      3.09881653     11.45058371
H       7.22734730      1.57027456      9.17195349
H      -0.53297336     -7.08795215     11.39818624
H      10.85854002      0.56838219     11.81598994
H      -8.70101793     -4.16259184     22.46177845
H       5.95413397      3.81829653      6.31716374
H      -2.36605172     13.36006174     23.16941063
H       9.82128852      2.64401991      7.27296345
H       9.90080143     -0.70204213     -0.42222510
H      -2.59828260     11.12763743     10.88037860
H      12.63958704     -0.67740155      1.69295202
H      22.75026404      0.04130417    -13.13509705
H       9.99080815     -2.61307966      3.32100855
H      25.95114173     -1.25922372     -0.91414506
H       9.42403772      0.91856659      7.38283580
C      17.30322965     -4.04092092     16.91429424
C      -0.59595747     -5.86192981     11.39246670
C       8.93705255      2.06778451     10.76288959
C       8.29898296      2.20234789      9.14230227
C      10.44047808      1.60094426     11.33697200
C       7.10229868      3.56438395      6.02550233
C       8.79893858      1.97631380      7.47812641
C      -2.04389078     12.22395780     10.96315703
C      -1.84677972     14.32436800     22.77614832
C      10.11319235     -0.82163703      0.79284734
C      11.80566099     -0.42400188      0.82092724
C      12.91678346     -1.07285544     -0.10842782
C      25.65424051     -0.29178792     -1.55745192
C       8.86290716     -0.46940124      2.02763439
C       9.84865146     -1.41633329      3.06886965
H      25.20112132     -0.42093169     -2.66014452
H      -8.81939701     -3.19038965     -4.50587167
H      16.35524261     -3.75935044     17.46515405
H      -8.57271924     -3.49036836     22.83601772
H       0.40845101     -5.43335660     11.95337605
H      11.47343982      2.19889659     11.54959075
H       8.21580186      1.38710873     11.51221091
H       7.46741461      4.67922394      5.72411598
H      -1.32734954     15.28872180     22.38321162
H       7.90604390      3.37676968      9.20770317
H      10.01739710     -1.97242406      0.31872277
H      -2.19530246     12.84357683      9.90993925
H      12.13562959      0.75847235      0.71566511
H      22.64136139      0.81136653    -13.19463002
H      10.62682811     -1.20982029      3.99631166
H      25.81045847      0.80479166     -1.09806617
H      -2.54027874     12.86507514     11.88981148
   94
energy=      0.00000000
C     -11.52769958     -2.35018627     -4.56958546
C     -10.03388869     -2.71538051     -3.79801668
H     -11.32963428     -1.70794338     -5.62133533
C     -12.84467702     -1.67633590     -3.69110500
H     -11.91237473     -3.31900030     -5.25581046
H      -9.35333980     -1.79224398     -3.32618404
C       7.98833795      2.20747235      6.01078407
H     -10.01518395     -3.48994888     -2.83024837
H      -6.77018387     -4.92871189    -16.15995449
H      -6.76247268     -5.69810588    -16.03199582
C       0.26445250    -10.60581774     -4.91107738
H      -0.16651381     -9.57179278     -5.22611009
C       7.89403303      1.41299560      4.49029997
H       0.69488272    -11.64029337     -4.59679218
H       8.56216119      2.21897700      3.83509192
H       6.70999046      1.68997049      4.31862549
C       8.05021282     -0.12717872      3.66125784
H       7.41765652     -1.18086320      3.76853798
C       7.44547461      0.20916274      1.18384083
H       7.62593459     -0.81902554      4.59353909
H       7.32327869      0.54624516      0.00210065
H       7.74543422      1.37904305      0.89447372
C       5.74234333     -0.15343858      1.37448163
H       5.10755954      0.19769440      2.36801790
C       5.46761137      8.13045934    -14.67258779
H       5.48377466     -1.36102515      1.30107365
H       4.82160468      8.93858636    -15.13196615
H      -0.82621874     12.15848128     11.22307637
C      11.40297649     -5.30925746    -10.95548074
H     -12.71398822     -0.56795948     -3.15043293
H     -13.33138271     -2.30631323     -2.74048677
C      -0.85884590      0.99614332     -7.56058367
H     -13.92755891     -1.42598747     -4.24022639
C      -1.91761129     -5.40222009     12.17039878
H      -2.01939808      0.93146780     -7.28619674
H      -0.54409922     -5.54228707     10.27231509
H      -2.89442015     -5.02793333     12.70210714
C       4.30271669      0.32650043      0.78605000
H      -2.72592986      2.90708788      2.86630816
C      -3.52654360      2.90473098      3.80179272
H       3.15944830      0.54292051      0.55723161
H      -3.42599482      3.95889042      4.43009097
H      -3.28294125      1.95701674      4.54919954
H      -4.67130674      2.79593172      3.36156462
H      10.97346841     -4.22855827    -10.66302034
H      11.92559206     -5.47834968    -12.02141286
H      11.30981436     -6.22079590    -10.18195298
H       8.79407656      3.08899268     11.43964605
H       7.22910913      1.54182720      9.13995376
H      -0.51751219     -7.14147044     11.44669392
H      10.85924375      0.54769439     11.71787794
H      -8.70101793     -4.16259184     22.46177845
H       5.94947063      3.82915566      6.31992318
H      -2.36526977     13.36872087     23.21938894
H       9.89193854      2.58379126      7.28887509
H       9.85967458     -0.66239071     -0.37293380
H      -2.58299252     11.22639759     10.93014482
H      12.62124297     -0.60558132      1.65070061
H       0.27527834      0.95768797     -7.81754479
H      10.01200031     -2.64239119      3.29114060
H      25.95114173     -1.25922372     -0.91414506
H       9.40707782      0.88495415      7.40949156
C      17.30322965     -4.04092092     16.91429424
C      -0.58072915     -5.91545858     11.44130258
C       8.91837709      2.06208496     10.74749149
C       8.28892407      2.19528474      9.12917607
C      10.43602559      1.59263466     11.27288788
C       7.10750802      3.61098501      6.03723699
C       8.83134965      1.97386188      7.48526040
C      -2.02838724     12.32257756     11.01335203
C      -1.84595021     14.33304144     22.82622452
C      10.05731056     -0.79643704      0.84191566
C      11.74355697     -0.37585216      0.81723018
C      12.81612961     -1.04086718     -0.14497204
C      25.65424051     -0.29178792     -1.55745192
C       8.82515889     -0.48201771      2.10367301
C       9.84400363     -1.44371342      3.08617627
H      25.20112132     -0.42093169     -2.66014452
H      -9.10774302     -3.26875380     -4.40879636
H      16.35524261     -3.75935044     17.46515405
H      -8.57271924     -3.49036836     22.83601772
H       0.42324427     -5.48652075     12.00271200
H      11.47044769      2.19935568     11.44711641
H       8.19898205      1.37828859     11.49591369
H       7.45563504      4.73143230      5.74271660
H      -1.32656758     15.29738095     22.43318992
H       7.87962322      3.36412617      9.18544016
H       9.92530800     -1.93660237      0.35099148
H      -2.17998519     12.94178623      9.95991970
H      12.05909053      0.81056898      0.70609515
H       0.25955454      1.16029139     -7.83621937
H      10.67815947     -1.23721102      3.96272705
H      25.81045847      0.80479166     -1.09806617
H      -2.52435252     12.96364515     11.94026723
