   94
energy=      0.00000000
C      10.81917275     -8.20612227     -8.97801625
C      -0.34303590    -10.13599440     -9.68047686
H      10.91867005     -7.33495932     -8.10485123
C       1.53750735     -3.48122238      7.57329724
H     -18.89185999     -7.18329685     -1.80818867
H      -0.58431411     -9.34819185     -8.85869103
C       2.72450138     -3.88861717      8.72116053
H       9.98934123     -8.92091115     -8.39843029
H      -8.53156068     -6.31648995    -17.82625171
H      -8.52384950     -7.08588394    -17.69829304
C       7.88234180      0.50807656     -2.72144749
H      16.07331129      6.48611777     13.52058838
C       5.42467476     -5.17834593      6.38842621
H       8.54703852     12.73493238      3.35189173
H       5.83251806     -4.71743582      5.38474535
H       2.54663979    -10.83289918     17.14788278
C       3.44877490     -5.45938125      8.52406638
H       2.62832032     -6.30148929      8.11957862
C       7.86362459     13.06190157      5.76741437
H       3.43240368     -6.08907213      9.59801417
H       9.27528654     14.12015751      7.04758555
H       6.80686946     13.62463858      5.50615672
C       8.52416608     12.21341927      4.46976039
H      12.00018803      1.71523540     -3.28694920
C      10.85011810      1.46062468     -3.34347957
H       5.71104561      1.03431016     -2.29314708
H       8.00718965     11.10860930      4.26847254
H      -1.89889635     10.00514905     11.47760457
C      12.19581471     -8.96884520     -9.64914299
H       0.52302722     -2.96747331      8.03230195
H     -19.27118577     -7.16726916     -1.12682601
C       3.99975303     -1.98865507     -1.86889379
H       1.97182336     -4.05962946      9.69667792
C       1.52057708    -10.64922981     17.74066181
H       3.03370054     -2.23862536     -1.22960829
H     -10.92929094    -12.26878699     15.67156547
H       1.11586626     -9.53278872     17.90707850
C      -5.29669487      0.64474710     -7.87005184
H       2.60409590     11.56926822     -2.66499419
C       0.14496722     10.81198819     -2.62872874
H      -5.80086224      1.55132525     -8.39741940
H      -0.26956665     11.37724227     -1.61485670
H      -0.52489503      9.77907806     -2.61144322
H      -0.32773239     11.39892460     -3.60413214
H      12.45834760     -8.65931609    -10.82206144
H      12.03276798    -10.14102779    -10.02527202
H      13.99482973     -9.58147184     -7.83918375
H       4.84919424     -0.96129669      7.26385171
H       3.01922638     -1.56025924      9.66909850
H       0.89922521    -11.58200153     18.16702414
H       9.57947865      1.31480593     -4.22015195
H      -9.42675544     -2.95204824     23.99740376
H       6.95360826     13.30782387      9.47793775
H       8.63978151     12.09005371      7.57479649
H       4.67753802     -2.77325264     11.67703458
H      23.68739798      6.18932909     -2.70616817
H      -3.93269440      8.92602465     11.13716821
H      24.37757154      6.33770482     -2.37443862
H       1.89941836     -4.27995212      5.15669109
H       5.16134911     -7.04077810      7.43508465
H      10.07942607     -7.53658422     -9.71158300
H       5.99279979     -2.62352559     10.50192522
C       1.26253569     -3.55860437      5.91996219
C     -10.32731505    -12.21188174     16.66583507
C       4.35178522     -1.65480478      8.07574171
C       3.66149404     -2.53268057      9.24649834
C       9.28022290      1.28930283     -3.04874767
C       7.96545809     13.77615456      8.93566734
C       4.78369503     -2.64611727     10.47772467
C      -2.91579542      9.46558694     11.30738638
C       8.40575601     13.28543983      7.34900176
C       2.64510499      9.35988655     -2.84716557
C       5.28207189     -1.07228655     -2.10832041
C       6.38013384      0.05561695     -2.37196612
C      13.60636980     -8.90047774     -8.76165586
C       1.78981284     10.67804009     -2.69411358
C       4.93663684     -5.86842450      7.76502467
H       9.72597153     11.92424616      4.45761703
H      -0.11667956    -10.92435673    -10.50596316
H       0.16993584     -4.01036664      5.56132591
H      -9.29845674     -2.27982476     24.37164303
H      -9.72533916    -12.15497649     17.66010467
H      15.89747689      7.23957088     13.42164095
H       9.20128375      2.01030423     -2.06719147
H       8.80456926     13.59764802      9.83879917
H       7.68383898     14.95148126      9.20915534
H      -4.79252749     -0.26183104     -7.34268428
H       3.24286845      8.37832048     -3.04945716
H      -7.32753058     20.54354438      9.86115128
H       3.33124151     -2.89458383     -2.23167445
H       1.42633191     -2.49464688      5.31497996
H       5.97973753     -5.78876398      8.42227727
H      14.54421836     -8.13729673     -8.82248873
H      -7.46074211     20.55216357     10.62964357
   94
energy=      0.00000000
C      10.83245065     -8.23315317     -8.99982229
C      -0.34717269    -10.13614959     -9.68150274
H      10.93693609     -7.35238228     -8.13685098
C      -0.07832345     -1.03273909      8.00358774
H     -18.89185999     -7.18329685     -1.80818867
H      -0.58225112     -9.34809605     -8.85815906
C       1.02270072     -1.10355915      9.21943039
H      10.00579181     -8.94439439     -8.41144285
H      -8.53156068     -6.31648995    -17.82625171
H      -8.52384950     -7.08588394    -17.69829304
C       7.87071756      0.43752662     -2.68725843
H      16.07331130      6.48611777     13.52058838
C       8.29117814     -9.82211303      5.43474157
H       8.47928446     12.79773611      3.37405756
H       8.62847090     -9.29737539      4.43799717
H       2.50425826    -10.90118635     17.33758515
C       6.51577977    -10.62316731      7.51941115
H       5.40081265    -10.74442804      7.07146645
C       7.88372291     13.04825133      5.80805576
H       6.25082675    -10.52687121      8.69523873
H       9.42377285     14.02602426      7.09001106
H       6.81205148     13.60015209      5.59217034
C       8.49001049     12.22808746      4.46866491
H      11.97994602      1.57265964     -3.22128103
C      10.82655087      1.34743074     -3.10760455
H       5.69323055      1.07591978     -2.28574717
H       7.96138907     11.12981433      4.26332908
H      -2.15370095     10.56603547     11.75857275
C      12.21196291     -8.99329696     -9.66813485
H      -1.11201307     -0.64174162      8.50634569
H     -19.27118577     -7.16726916     -1.12682601
C       4.06630181     -1.99568448     -1.86729527
H       0.79377819     -2.07925600      9.90835202
C       1.47819556    -10.71751698     17.93036417
H       3.25147752     -1.89738586     -0.99750196
H     -10.96213585    -12.27297239     15.66815274
H       1.07348473     -9.60107589     18.09678087
C      -5.29669487      0.64474710     -7.87005184
H       2.58651784     11.60200449     -2.65048656
C       0.12691748     10.84443863     -2.63187327
H      -5.80086224      1.55132525     -8.39741940
H      -0.28501492     11.40817816     -1.61618941
H      -0.53778423      9.80837450     -2.60774986
H      -0.35371995     11.43220807     -3.60300589
H      12.47723400     -8.67649349    -10.83849766
H      12.04775419    -10.16499085    -10.04522635
H      14.01498174     -9.61953541     -7.86581500
H       3.45449388      1.29533483      7.62615516
H       1.54733526      0.94979467     10.16385775
H       0.85684368    -11.65028870     18.35672650
H       9.10001009      1.27962660     -4.24841145
H      -9.42675544     -2.95204824     23.99740376
H       6.89994419     13.30070481      9.39199329
H       8.82991305     12.08883432      7.60794456
H       3.20800931     -0.51850027     12.07503450
H      23.68739798      6.18932909     -2.70616817
H      -4.18749900      9.48691107     11.41813640
H      24.37757154      6.33770482     -2.37443862
H       0.58212535     -2.01269097      5.75877505
H       8.21021194    -11.84221698      6.42104852
H      10.08034634     -7.58057240     -9.73622892
H       4.52055929     -0.42807316     10.86015307
C      -0.17875493     -1.24809192      6.35361021
C     -10.36015996    -12.21606713     16.66242234
C       2.93299141      0.67566873      8.47769342
C       2.17609927     -0.01118153      9.72195233
C       9.21983821      1.26183020     -3.03327118
C       7.93197447     13.78456701      8.90481240
C       3.31508570     -0.34464193     10.88368010
C      -3.17059999     10.02647329     11.58835457
C       8.48831328     13.25657516      7.36831562
C       2.62407438      9.39448646     -2.87556375
C       5.34043750     -1.09432019     -2.12442965
C       6.35288061      0.08904532     -2.37233050
C      13.62347171     -8.93110182     -8.78142099
C       1.77163295     10.71243021     -2.70464988
C       7.98463810    -10.68292494      6.76122959
H       9.68342937     11.91617828      4.39844035
H      -0.11460577    -10.92429735    -10.50546925
H      -1.24095050     -1.72509947      5.94394566
H      -9.29845674     -2.27982476     24.37164303
H      -9.75818407    -12.15916188     17.65669195
H      15.89747689      7.23957088     13.42164096
H       9.14226536      2.04975794     -2.10328467
H       8.69563847     13.65205620      9.87824995
H       7.62371442     14.96752467      9.10821131
H      -4.79252749     -0.26183104     -7.34268428
H       3.22304791      8.40482354     -3.02924763
H      -7.52913094     21.04430955      9.80462270
H       3.68355790     -2.90906865     -2.53276655
H      -0.01928414     -0.20361857      5.71521954
H       8.92462333    -10.36747711      7.48940266
H      14.56188892     -8.16815421     -8.83702415
H      -7.66234247     21.05292874     10.57311499
