   94
energy=      0.00000000
C     -10.17178869     -1.73969803     -3.86750145
C      -8.68256611     -2.11921289     -3.09394257
H      -9.96478969     -1.07539683     -4.90387756
C     -11.49686499     -1.08203581     -2.98902496
H     -10.55231277     -2.69781363     -4.57073593
H      -7.98408193     -1.19574556     -2.64950128
C       1.94210590     -1.90985832     -1.64694339
H      -8.67059621     -2.87168334     -2.10886984
H      -5.81892965     -4.71391644    -13.98443373
H      -5.81121846     -5.48331043    -13.85647506
C       3.27207756     -1.72975832     -2.46483471
H       2.54920633     -1.12165701     -3.26770590
C       4.84780593     -1.13058773     -2.08216493
H       3.12030673     -2.91521880     -2.76421998
H       4.61614521      0.08441998     -2.21649945
H       5.33545486     -1.35944276     -3.20764858
C       6.12106259     -1.31886946     -0.85982360
H       6.90723431     -0.93480451     -1.72089623
C       5.64339690      0.26526148      1.14155985
H       5.94352665     -2.52251821     -0.59068836
H       5.54850288      1.27320779      0.43894384
H       6.01121651      1.38066636      1.52650065
C       4.08176707     -0.08045029      1.94305581
H       4.20634183      0.25789387      3.13018890
C       3.12568889      3.71836650    -10.75803011
H       4.07596833     -1.29556597      2.20053813
H       2.47968207      4.52649394    -11.21740874
H      -0.82172298     10.58296582     12.89096840
C      10.73503643     -4.86111300     -9.76333212
H     -11.37697967      0.03312670     -2.45990923
H     -11.97179597     -1.71128702     -2.03211043
C     -21.72803364     -1.47844820     -2.26339574
H     -12.58840432     -0.85686076     -3.53210494
C      -1.93438609     -4.60710498     11.27821123
H     -22.40625037     -2.36346673     -2.26686977
H      -0.59632214     -4.60109802      9.44915497
H      -2.96950298     -4.28194734     11.72701490
C       2.36164790      0.25130566      1.71185298
H       2.24187906      1.10488090      0.81351779
C       1.01210522      0.60962037      2.75264355
H       1.85327658     -0.69849014      1.10131690
H       0.93858571      1.71607725      3.30856053
H       0.74467262     -0.11038003      3.72918219
H      -0.18272728      0.63579600      2.39578686
H      10.30562424     -3.78036640     -9.47089743
H      11.25763177     -5.03029277    -10.82925819
H      10.64185328     -5.77267981     -8.98984073
H       9.70183577      2.61827574     13.84154253
H       7.63439753      2.64678426     11.41138297
H      -0.55687458     -6.32326276     10.70565039
H      11.79411557      0.44311644     13.16043467
H      -8.70101793     -4.16259184     22.46177845
H       7.31211994      6.23653917      8.69929364
H      -2.44513494     11.04329054     15.61108429
H       9.54956174      5.26659948     10.91606362
H       9.06464744     -1.25105573     -0.95233456
H      -2.55288314      9.84223451     12.85935293
H      11.05771002     -1.07778316      1.59224677
H      22.75026404      0.04130417    -13.13509705
H       7.54431169     -1.61276716      3.12858124
H      25.95114171     -1.25922382     -0.91414511
H       8.37582693      3.93062023      9.45284756
C      17.28562046     -4.02390414     16.90142619
C      -0.58018029     -5.10375218     10.56864542
C       9.64834525      2.24279909     12.67460643
C       8.61440699      3.33334813     11.72645519
C      11.09457704      1.36262106     12.83240332
C       8.04280490      5.93039425      9.62496045
C       8.62811736      4.57517576     10.47829406
C      -1.99453198     10.92071652     13.10727844
C      -2.36172026     11.71628712     14.57355641
C       8.74117518     -1.22899452      0.23760105
C      10.41159028     -0.81191716      0.56907199
C      11.68506179     -1.40748304     -0.17726775
C      25.65424053     -0.29178792     -1.55745185
C       7.01347652     -0.77050385      0.59831310
C       7.54221704     -0.80677766      2.21597844
H      25.20112135     -0.42093166     -2.66014445
H      -7.77283131     -2.71084575     -3.69347020
H      16.33763288     -3.74233315     17.45228546
H      -8.57271924     -3.49036836     22.83601772
H       0.54580314     -4.80308958     10.94979405
H      12.20028090      0.97475146     13.07604579
H       9.00079982      1.27750333     13.07114616
H       8.23611793      7.12892228      9.55811928
H      -1.59310226     12.59968216     14.97998734
H       7.84644729      3.91800804     12.50155714
H       8.85873345     -2.46650180      0.39549945
H      -2.22521251     11.50543598     12.03899189
H      10.81147119      0.35562069      0.48701471
H      22.64136139      0.81136653    -13.19463002
H       8.10484696     -0.01297838      2.96464690
H      25.81045843      0.80479173     -1.09806626
H      -3.43070086     12.33740188     14.66211975
   94
energy=      0.00000000
C     -10.41771130     -1.89344867     -4.08308120
C      -8.92774950     -2.27095956     -3.30996848
H     -10.21164210     -1.23172217     -5.12127614
C     -11.74197622     -1.23348588     -3.20510113
H     -10.79887146     -2.85344253     -4.78343639
H      -8.23210668     -1.34727112     -2.86158647
C       2.78292905     -2.22559046     -1.79270032
H      -8.91480473     -3.02718325     -2.32775381
H      -5.76756303     -4.75262803    -14.10543029
H      -5.75985184     -5.52202203    -13.97747162
C       4.05964350     -2.05418708     -2.69309853
H       3.31669815     -1.49336288     -3.51086389
C       5.61245789     -1.39866900     -2.32690312
H       3.95119575     -3.24553856     -2.99214415
H       5.37681701     -0.18432668     -2.47835781
H       6.11551935     -1.58113959     -3.45680320
C       6.84480687     -1.60881104     -1.07099001
H       7.63391271     -1.27104455     -1.94166501
C       6.49243117      0.05525052      0.90997201
H       6.62199611     -2.79792879     -0.77381847
H       6.26904163      1.04393483      0.20690128
H       6.83680043      1.18821472      1.27022851
C       5.06856061     -0.42977616      1.78818067
H       4.88982084      0.04018091      2.92148966
C       3.12568889      3.71836650    -10.75803011
H       4.90788149     -1.60679293      2.12109735
H       2.47968207      4.52649394    -11.21740874
H      -0.82303756     10.57625830     12.89440073
C      11.07224831     -5.17795351    -10.56489755
H     -11.62025369     -0.11940119     -2.67417010
H     -12.21916777     -1.86321599     -2.24960497
C     -21.94638825     -1.48206288     -2.24253776
H     -12.83211550     -1.00400817     -3.74919543
C      -1.96426515     -5.22513265     12.00915107
H     -22.62460498     -2.36708141     -2.24601179
H      -0.61897466     -5.29416969     10.14035556
H      -2.97969298     -4.88444476     12.48914425
C       3.51744910     -0.36356517      1.32393802
H      -2.23736449      3.85576887      3.15865420
C      -3.00613119      3.77825197      4.12054662
H       2.39733697     -0.60003112      1.03611823
H      -2.84371424      4.80956760      4.77116060
H      -2.85644299      2.85757538      4.92275580
H      -4.13983993      3.59128789      3.68191464
H      10.64283612     -4.09720691    -10.27246287
H      11.59484366     -5.34713329    -11.63082362
H      10.97906516     -6.08952032     -9.79140617
H       9.73841950      2.83065622     13.84589034
H       7.60575123      2.60943115     11.36044355
H      -0.58638143     -6.95742570     11.35878385
H      11.44165846      0.33584326     12.98921716
H      -8.70101793     -4.16259184     22.46177845
H       7.25101799      6.03724894      8.86804043
H      -2.43764841     11.04427169     15.61230457
H       9.81477410      5.06679693     10.81914078
H       9.76679612     -1.45799567     -1.19980217
H      -2.55863046      9.84599984     12.85599263
H      11.71484131     -1.29768775      1.39603798
H      22.75026404      0.04130417    -13.13509705
H       8.19959192     -2.02048872      2.89200788
H      25.95114173     -1.25922374     -0.91414507
H       8.80297145      3.82456445      9.45786660
C      17.28562260     -4.02390619     16.90142777
C      -0.62108591     -5.73240233     11.28704071
C       9.53540716      2.27995582     12.75474473
C       8.52329183      3.33427998     11.78306353
C      11.00235589      1.44516310     12.77775491
C       8.06775286      5.83048067      9.74408514
C       8.76916061      4.48929786     10.50260207
C      -1.99453290     10.92071849     13.10728210
C      -2.36171933     11.71628514     14.57355276
C       9.45994378     -1.50230094     -0.00632320
C      11.09527872     -1.03945337      0.35733558
C      12.35529702     -1.63731944     -0.40334740
C      25.65424051     -0.29178792     -1.55745191
C       7.75768402     -1.06170615      0.37434699
C       8.22646700     -1.18109410      2.01036338
H      25.20112133     -0.42093168     -2.66014451
H      -8.01529934     -2.85659933     -3.91125674
H      16.33763535     -3.74233552     17.45228738
H      -8.57271924     -3.49036836     22.83601772
H       0.45279353     -5.36925641     11.75692191
H      12.20443949      1.54030998     12.80095478
H       8.89312567      1.25248268     13.01091905
H       8.24193140      7.03290151      9.75391432
H      -1.59704905     12.60491109     14.97603992
H       7.78769271      3.97605074     12.55651214
H       9.56950368     -2.74534657      0.11837546
H      -2.21821821     11.50852447     12.03918957
H      11.42855894      0.14848559      0.28288609
H      22.64136139      0.81136653    -13.19463002
H       8.75099136     -0.43609911      2.83307527
H      25.81045846      0.80479167     -1.09806619
H      -3.43417302     12.33104550     14.66457716
