   94
energy=      0.00000000
C      -8.27190617     -4.66091456     -4.47267441
C      -7.13608985     -5.18305160     -3.46294995
H      -9.09931279     -4.27827162     -5.21155398
C     -19.99637546      4.50146977     -4.08906696
H     -18.88250013     -7.17903654     -1.81084958
H      -6.59189536     -4.24457150     -2.88828715
C       9.84092565     -5.19560642      7.64960723
H      -7.60868226     -5.92269139     -2.60462524
H      -7.29857073     -5.75426489    -16.93041859
H      -7.29085954     -6.52365889    -16.80245992
C       6.70193722      0.85290711      9.67191891
H       5.51951350      1.02199376      9.37565768
C       9.40482737     -5.76353058      6.24380996
H       6.53108545     -0.36954615      9.77165855
H      10.11628030     -5.06678809      5.51991974
H       8.39098384     -5.08500829      6.07517335
C       9.38193142     -7.45838467      6.11389310
H       8.42781840     -7.86560060      5.43517117
C       6.60446592      0.56494361     -3.29969414
H       8.98114296     -8.04928430      7.12846379
H       6.42160327      0.41568549     -4.50517952
H       6.85479148      1.76677162     -3.25749772
C       5.12477107      0.25386989     -2.45271714
H       4.62208370     -0.81935038     -2.14639433
C       8.22345926     11.00081244    -16.66319306
H       4.27135674     -0.22614276     -3.19132386
H       7.57745256     11.80893946    -17.12257141
H      -0.76627426     12.55747039     11.39267650
C      12.37234461     -6.91729667    -13.67192055
H     -19.07022813      4.89841812     -3.50694303
H     -19.26182591     -7.16300885     -1.12948692
C      -9.28050729      4.93879921    -10.50088770
H     -20.92304336      4.10621554     -4.67151510
C      -2.53539767     -5.57810576     12.53393301
H     -10.38048000      4.87723817    -10.24070641
H      -1.16141823     -5.71872177     10.63569339
H      -3.51163726     -5.20332514     13.06633849
C       4.44727895      1.16704168     -1.21286435
H      -2.75445879      3.07180537      3.29472414
C      -3.55524035      3.06982984      4.23006685
H       3.43310278      1.82884004     -1.10505923
H      -3.45512290      4.12405965      4.85831601
H      -3.31127990      2.12202171      4.97723757
H      -4.70009972      2.96143264      3.78998947
H      11.94284700     -5.83658463    -13.37948360
H      12.89496904     -7.08642857    -14.73783995
H      12.27921780     -7.82887681    -12.89843808
H       8.43940875      2.27651643     12.98034784
H       6.35518137      4.49449718     13.18982106
H      -1.13488578     -7.31733351     11.80966829
H       8.69848239      1.09384559     10.83026466
H      -8.70101793     -4.16259184     22.46177845
H       6.48882954      7.29581343     11.44472556
H      -2.36216062     13.40592460     23.46097021
H       8.87354165      5.89068027     13.47884701
H      10.06060261     -0.34013494     -4.96715241
H      -2.52332372     11.62512664     11.09856555
H      18.29627251      0.41093890     -4.76657439
H       1.39892221      1.61708468    -13.33166957
H      10.94623232     -9.13607712      4.81809272
H      28.85043502     -1.65518574      0.02087623
H       9.30958295      5.44290581     11.75983645
C      17.30322965     -4.04092092     16.91429424
C      -1.19851082     -6.09134035     11.80484274
C       7.46815143      2.55935278     12.27475377
C       7.36794592      4.21995637     12.56401021
C       7.57763374      1.56764659     10.91538548
C       7.59327642      7.03825976     11.86125308
C       8.28306029      5.62622541     12.42000686
C      -1.96840889     12.72110246     11.18239601
C      -1.84280953     14.37025465     23.06787070
C       9.70553458     -0.44139970     -3.79313556
C      18.32200882      0.91926507     -5.84326056
C      18.98262235      0.14112266     -6.99586742
C      28.74888722     -0.50702674     -0.13811312
C       8.16882095      0.02396829     -3.40885890
C      10.76496199     -8.24668750      5.61803903
H      10.74053999      0.06208030     -3.35966879
H      -6.26939726     -5.81278376     -4.06245852
H      16.35524265     -3.75935048     17.46515407
H      -8.57271924     -3.49036836     22.83601772
H      -0.19529429     -5.66176927     12.36712020
H       7.16492511      1.15265921      8.56608993
H       6.54727697      2.01188601     12.88595761
H       8.00410622      8.17121498     11.73984815
H      -1.32345843     15.33458469     22.67477119
H       4.69184883      1.31658133     -0.03621013
H       9.91933989     -1.60383579     -3.47055770
H      -2.12027791     13.33971484     10.12865241
H      17.86588689      1.99427066     -6.07729254
H       1.33917646      2.39150650    -13.40309300
H      11.92418655     -8.12330407      5.94067821
H      28.69314617      0.65425197     -0.18483919
H      -2.46375969     13.36209800     12.10968957
   94
energy=      0.00000000
C      -8.27171766     -4.66080033     -4.47280797
C      -7.13591492     -5.18294393     -3.46307177
H      -9.09990276     -4.27868442     -5.21108767
C     -20.03192299      4.50210902     -4.06767124
H     -18.88235654     -7.18163149     -1.81025971
H      -6.59113980     -4.24485405     -2.88832167
C       9.95766410     -5.15528250      7.52825580
H      -7.60977633     -5.92243459     -2.60531870
H      -7.29857073     -5.75426489    -16.93041859
H      -7.29085954     -6.52365889    -16.80245992
C       6.71160943      0.89664322      9.69733629
H       5.52585323      1.14313631      9.47538970
C       9.85079904     -5.91424471      6.18371857
H       6.54996032     -0.32832354      9.78049907
H      10.14468467     -5.03872002      5.41321203
H       1.35118363     -5.34021312     10.28853965
C       9.60371399     -7.53520840      6.01707622
H       8.60023042     -7.78460307      5.34076243
C       6.57783088      0.58553104     -3.31817799
H       9.14143891     -8.06044814      7.03359410
H       6.42070865      0.46892254     -4.53300975
H       6.88584082      1.77098806     -3.19065600
C       5.13145564      0.19163588     -2.47408151
H       4.93502168     -0.95488002     -2.06142037
C       8.23905064     11.02330486    -16.67152817
H       4.21710852     -0.12821836     -3.24304067
H       7.59304395     11.83143188    -17.13090652
H      -0.76413051     12.56987615     11.39832777
C      12.37234461     -6.91729667    -13.67192055
H     -19.10561058      4.89852111     -3.48544450
H     -19.26168231     -7.16560380     -1.12889706
C      -9.28997474      4.95725589    -10.51680901
H     -20.95842634      4.10631831     -4.65001690
C       0.30635149     -5.36668291     10.91368065
H     -10.38994745      4.89569486    -10.25662773
H      -1.71721186     -6.15378036     10.81056434
H      -0.26027850     -4.33563314     11.16025684
C       4.49271560      1.13454841     -1.24420118
H      -2.79692204      3.16871784      3.19825604
C      -3.59770364      3.16674236      4.13359873
H       3.51377742      1.84816589     -1.17418258
H      -3.49758627      4.22097217      4.76184791
H      -3.35374313      2.21893421      4.88076941
H      -4.74256305      3.05834521      3.69352145
H      11.94284700     -5.83658463    -13.37948360
H      12.89496904     -7.08642857    -14.73783995
H      12.27921780     -7.82887681    -12.89843808
H       8.39924386      2.22371719     13.06459421
H       6.30906913      4.47639182     13.11792596
H      -1.24453384     -7.40914936     11.95072844
H       8.77207387      1.18167571     10.78750353
H      -8.70101793     -4.16259184     22.46177845
H       6.49757030      7.28310791     11.40937360
H      -2.36209394     13.40680546     23.46734672
H       8.86183967      5.84301292     13.45616118
H       9.94743794     -0.34013163     -4.93447128
H      -2.52118001     11.63753237     11.10421671
H      18.30568301      0.41246342     -4.77391817
H       1.41325020      1.58854504    -13.40338993
H      11.14496595     -9.17364569      4.68845766
H      28.85420666     -1.65918417      0.01393728
H       9.28533858      5.40755294     11.71535994
C      17.30322965     -4.04092092     16.91429424
C      -0.82247772     -6.29754474     11.65637623
C       7.47436415      2.53098610     12.30710880
C       7.35184264      4.19536003     12.54782487
C       7.62848625      1.58809656     10.92127789
C       7.59373312      7.01623242     11.84220909
C       8.27153385      5.59555169     12.39378464
C      -1.96626515     12.73350818     11.18804723
C      -1.84274284     14.37113551     23.07424721
C       9.63395956     -0.45306382     -3.75004454
C      18.33146695      0.92074888     -5.85065193
C      18.99187761      0.14329233     -7.00382183
C      28.76704399     -0.50538083     -0.10968058
C       8.11033362      0.00620967     -3.38053315
C      10.98052161     -8.30907713      5.51424674
H      10.58826270      0.13788717     -3.25140848
H      -6.26870157     -5.81254280     -4.06196759
H      16.35524265     -3.75935048     17.46515407
H      -8.57271924     -3.49036836     22.83601772
H      -0.52521946     -6.05707106     12.83696918
H       7.13074297      1.17141105      8.56839289
H       6.54904067      1.97371711     12.90289087
H       8.01162451      8.14867465     11.74279910
H      -1.32339175     15.33546555     22.68114770
H       4.80080797      1.29846419     -0.08452775
H       9.81252507     -1.62083745     -3.42341770
H      -2.11813419     13.35212050     10.13430360
H      17.87561277      1.99565221     -6.08562470
H       1.35350445      2.36296685    -13.47481336
H      12.13172419     -8.17892636      5.85891169
H      28.69671416      0.65324368     -0.19204449
H      -2.46161589     13.37450371     12.11534082
