   94

C     -10.99270541     -2.30008660     -4.65219305
C      -9.50181610     -2.67504129     -3.87962941
H     -10.78783504     -1.64168756     -5.69272207
C     -12.31591139     -1.63717284     -3.77483339
H     -11.37467209     -3.26244715     -5.34889225
H      -8.80984790     -1.75111913     -3.42612302
C       3.12477885     -2.36945085     -1.76347282
H      -9.48761279     -3.43612841     -2.90115405
H      -5.61764091     -4.84784364    -14.41808138
H      -5.60992972     -5.61723763    -14.29012270
C       4.33094064     -2.20391077     -2.75769900
H       3.55764435     -1.70690249     -3.58736985
C       5.85556518     -1.48457924     -2.40638366
H       4.25952377     -3.39418670     -3.07356518
H       5.61346692     -0.27131902     -2.56029265
H       6.35929845     -1.57973079     -3.54753859
C       7.05793805     -1.73547318     -1.13298215
H       7.85763157     -1.51572921     -2.02608678
C       6.75755220     -0.02044921      0.84226968
H       6.80481401     -2.90905042     -0.80629208
H       6.51737852      0.96602694      0.14147432
H       7.18682767      1.09287084      1.17457550
C       5.33725751     -0.48200659      1.73836448
H       5.16692657      0.01575342      2.85938353
C       3.12568889      3.71836650    -10.75803011
H       5.15952446     -1.64241909      2.12456753
H       2.47968207      4.52649394    -11.21740874
H      -0.86847612     11.85846979     11.07133504
C      11.13497355     -5.24039909    -10.72778114
H     -12.19185904     -0.52442945     -3.24167484
H     -12.79593477     -2.26744939     -2.82108959
C     -22.42595913     -1.47822930     -2.17844534
H     -13.40427902     -1.40228646     -4.32016759
C      -1.93779008     -5.32072363     12.10065812
H     -23.10417586     -2.36324783     -2.18191936
H      -0.57847042     -5.43667768     10.21108151
H      -2.93245654     -4.96201605     12.60960734
C       3.78985992     -0.37766777      1.27014136
H      -2.57259602      2.88753766      2.58030495
C      -3.36247235      2.86028566      3.52449948
H       2.63282739     -0.39299126      1.03709550
H      -3.23416474      3.90953544      4.15588777
H      -3.14281338      1.91881884      4.28699622
H      -4.50099461      2.72506345      3.07560612
H      10.70556136     -4.15965249    -10.43534646
H      11.65756889     -5.40957887    -11.79370722
H      11.04179040     -6.15196590     -9.95428976
H       9.68304168      2.89143587     13.88139045
H       7.54720167      2.65023071     11.33692368
H      -0.54976136     -7.05913241     11.40172981
H      11.28601815      0.37266688     12.79593684
H      -8.70101793     -4.16259184     22.46177845
H       7.20404097      5.84580838      9.03770748
H      -2.34780038     13.34541530     23.06331745
H      10.02984419      4.91847807     10.73407380
H       9.98031375     -1.44260314     -1.28929173
H      -2.59913393     10.94627990     10.85420583
H      11.89122284     -1.30069731      1.35250219
H      22.75026404      0.04130417    -13.13509705
H       8.36442675     -2.32301416      2.75608307
H      25.95114173     -1.25922372     -0.91414507
H       9.18755177      3.76151142      9.47423261
C      17.28562262     -4.02390620     16.90142778
C      -0.59972799     -5.83283395     11.37286053
C       9.45827902      2.31870456     12.80265321
C       8.48238453      3.33930945     11.78547071
C      10.93580868      1.53043894     12.68004755
C       8.10464385      5.72168363      9.84109138
C       8.92663173      4.40881225     10.50034165
C      -2.07164786     12.05740453     10.90420055
C      -1.88445237     14.28807137     22.56370612
C       9.67914334     -1.56015384     -0.09847557
C      11.28671620     -1.05556667      0.30321636
C      12.55746127     -1.63275545     -0.45460686
C      25.65424051     -0.29178792     -1.55745192
C       7.97435851     -1.18092107      0.30395191
C       8.40176745     -1.42269924      1.93877485
H      25.20112132     -0.42093169     -2.66014452
H      -8.58587805     -3.25290788     -4.48313555
H      16.33763551     -3.74233566     17.45228753
H      -8.57271924     -3.49036836     22.83601772
H       0.43200542     -5.42816889     11.90075879
H      12.08918187      1.87807023     12.56416705
H       8.79889797      1.32060577     13.13142717
H       8.22341457      6.92488687      9.94195242
H      -1.31532370     15.26251586     22.28183055
H       7.72280951      4.00282054     12.51773354
H       9.82571762     -2.80508536     -0.03213959
H      -2.20219485     12.70906980      9.86809545
H      11.56799143      0.14633000      0.25160959
H      22.64136139      0.81136653    -13.19463002
H       8.89494963     -0.74907910      2.83859654
H      25.81045847      0.80479166     -1.09806617
H      -2.60635955     12.70455572     11.80604972
   94

C     -11.01911227     -2.29600104     -4.65407285
C      -9.52823159     -2.67081659     -3.88144769
H     -10.81429085     -1.63781328     -5.69474158
C     -12.34218878     -1.63286498     -3.77670200
H     -11.40113235     -3.25850512     -5.35054284
H      -8.83651935     -1.74688066     -3.42758696
C       3.23224881     -2.30382862     -1.45554433
H      -9.51395799     -3.43223327     -2.90322840
H      -5.73412508     -4.84903424    -14.59577963
H      -5.72641565     -5.61843310    -14.46784993
C       4.01631326     -2.66646702     -3.40031339
H       3.10356800     -2.12446610     -4.00983485
C       5.89693580     -1.49151561     -2.35706394
H       3.83647572     -3.87114538     -3.44845560
H       5.58718260     -0.29011632     -2.47887306
H       6.43196280     -1.49116698     -3.49212387
C       7.10066800     -1.71579435     -1.07410754
H       7.90398260     -1.50262985     -1.96602362
C       6.82668675      0.01275708      0.89056064
H       6.85593285     -2.89166288     -0.75025905
H       6.58369753      0.99406034      0.18354886
H       7.26641428      1.12552764      1.21102233
C       5.41724127     -0.43146597      1.81080421
H       5.26914331      0.06793483      2.93456850
C       3.12753215      3.81976639    -10.85435669
H       5.22905983     -1.58907738      2.19984853
H       2.48055678      4.62752856    -11.31298527
H      -0.86555445     11.87868954     11.08052606
C      11.16821531     -5.24889434    -10.75582057
H     -12.21795915     -0.52020653     -3.24341078
H     -12.82238405     -2.26316835     -2.82306141
C     -22.45135674     -1.47764601     -2.17432808
H     -13.43044237     -1.39762867     -4.32210680
C      -1.93742811     -5.32378347     12.10372674
H     -23.12957003     -2.36266716     -2.17780370
H      -0.57738250     -5.44099368     10.21384221
H      -2.93122898     -4.96414084     12.61369318
C       3.86544915     -0.29712227      1.36923781
H      -2.57920089      2.89000421      2.58773692
C      -3.36954685      2.86364250      3.53155240
H       2.70227327     -0.27166913      1.17053980
H      -3.24273199      3.91317974      4.16276246
H      -3.14857294      1.92186491      4.29328110
H      -4.50827042      2.72954272      3.08283756
H      10.73958892     -4.16782321    -10.46347379
H      11.69011629     -5.41824488    -11.82205095
H      11.07542894     -6.16043875     -9.98227050
H       9.68067750      2.89873551     13.89919606
H       7.54780685      2.65695741     11.34946720
H      -0.54877615     -7.06228291     11.40361928
H      11.28406530      0.38252715     12.79778410
H      -8.70104886     -4.16259611     22.46182855
H       7.20518198      5.84401755      9.05815307
H      -2.34931153     13.34700126     23.07591251
H      10.03893195      4.92036673     10.74650397
H      10.03565609     -1.40000086     -1.24420983
H      -2.59792650     10.96532525     10.85933200
H      11.95204103     -1.26422440      1.39800828
H      22.75041214      0.04134849    -13.13515206
H       8.43010503     -2.30891099      2.79941851
H      25.95124083     -1.25921584     -0.91415237
H       9.20329624      3.76574919      9.49018859
C      17.28764644     -4.02581829     16.90295583
C      -0.59937332     -5.83598396     11.37600245
C       9.45585160      2.32653045     12.82013695
C       8.48267518      3.34549541     11.79962812
C      10.93356385      1.54074654     12.68905615
C       8.10863640      5.72336989      9.85876943
C       8.93458393      4.41196996     10.51505463
C      -2.06873220     12.07559864     10.91080857
C      -1.88151751     14.29164949     22.58423912
C       9.73916264     -1.52639846     -0.05313528
C      11.34670439     -1.01997262      0.34892569
C      12.61855325     -1.59466906     -0.40902769
C      25.65434379     -0.29177998     -1.55746107
C       8.03215267     -1.15960453      0.35492498
C       8.46537019     -1.40374638      1.98755127
H      25.20123436     -0.42092343     -2.66015772
H      -8.61209048     -3.24818692     -4.48511115
H      16.33966509     -3.74425293     17.45382814
H      -8.57274911     -3.49037199     22.83606632
H       0.43098051     -5.43007387     11.90564687
H      12.08502561      1.89304919     12.56837194
H       8.79607077      1.33083056     13.15568035
H       8.22414790      6.92644982      9.96397084
H      -1.31598257     15.26568347     22.29378727
H       7.72146175      4.00966936     12.52955034
H       9.89037482     -2.77109238      0.00662314
H      -2.20056186     12.72577985      9.87389727
H      11.62599677      0.18248089      0.29893720
H      22.64149878      0.81140957    -13.19468218
H       8.96097540     -0.73424927      2.88896946
H      25.81055367      0.80479996     -1.09807345
H      -2.60138490     12.72240119     11.81401913
   94

C     -11.04578157     -2.29185801     -4.65595406
C      -9.55496123     -2.66653187     -3.88318171
H     -10.84099051     -1.63388543     -5.69675974
C     -12.36868516     -1.62847973     -3.77853400
H     -11.42785644     -3.25450521     -5.35219229
H      -8.86349381     -1.74258581     -3.42897912
C       3.44617890     -2.18187419     -1.40129716
H      -9.54061961     -3.42827535     -2.90521686
H      -5.85081333     -4.85021060    -14.77368411
H      -5.84311458     -5.61961593    -14.64579246
C       3.60837416     -3.11798238     -3.89505702
H       2.62822708     -2.54037765     -4.33426046
C       5.92746944     -1.46946111     -2.26174861
H       3.37208545     -4.29873832     -3.73144666
H       5.63005424     -0.27261343     -2.43705445
H       6.39841056     -1.53780629     -3.41845581
C       7.16351042     -1.69211502     -1.01442471
H       7.94818276     -1.49058424     -1.92601813
C       6.90107554      0.04930205      0.94350617
H       6.92341165     -2.86941464     -0.69004301
H       6.65901086      1.02842103      0.23295224
H       7.34900219      1.16012610      1.25904085
C       5.49516101     -0.38417403      1.87511510
H       5.35827159      0.11627535      2.99986787
C       3.12977185      3.91980248    -10.94850974
H       5.30157170     -1.53992686      2.26737821
H       2.48226451      4.72717784    -11.40706065
H      -0.86261284     11.89881743     11.08964305
C      11.19989898     -5.25640459    -10.78184571
H     -12.24425555     -0.51590761     -3.24511326
H     -12.84904821     -2.25880718     -2.82499308
C     -22.47677344     -1.47705964     -2.17020406
H     -13.45682130     -1.39288557     -4.32400740
C      -1.93687715     -5.32667647     12.10628082
H     -23.15498238     -2.36208407     -2.17368205
H      -0.57609563     -5.44510191     10.21603151
H      -2.92977733     -4.96618913     12.61739386
C       3.93960044     -0.23633820      1.44924395
H      -2.58330876      2.89063468      2.59396824
C      -3.37425567      2.86547862      3.53730691
H       2.77602081     -0.20854898      1.25195190
H      -3.24898490      3.91530346      4.16834927
H      -3.15197943      1.92335727      4.29823336
H      -4.51326544      2.73270862      3.08892054
H      10.77168077     -4.17521414    -10.48935374
H      11.72124616     -5.42581745    -11.84833370
H      11.10754981     -6.16799304    -10.00829916
H       9.67821070      2.90600651     13.91691456
H       7.54833777      2.66356439     11.36188812
H      -0.54761077     -7.06522647     11.40496297
H      11.28197352      0.39240613     12.79966310
H      -8.70106179     -4.16259699     22.46184527
H       7.20620479      5.84208701      9.07853164
H      -2.35083643     13.34860580     23.08840980
H      10.04785373      4.92223721     10.75894594
H      10.09358510     -1.35476270     -1.20426738
H      -2.59668602     10.98427691     10.86438406
H      12.01646657     -1.22644782      1.44176463
H      22.75047303      0.04137537    -13.13517729
H       8.49837980     -2.29405062      2.84115295
H      25.95137244     -1.25921065     -0.91417984
H       9.21888037      3.76995619      9.50616500
C      17.28966539     -4.02773138     16.90449328
C      -0.59884171     -5.83892809     11.37857126
C       9.45336869      2.33432533     12.83752339
C       8.48285670      3.35158881     11.81368954
C      10.93124029      1.55104504     12.69806672
C       8.11248067      5.72496791      9.87638905
C       8.94239748      4.41507832     10.52974446
C      -2.06579002     12.09369731     10.91735032
C      -1.87850809     14.29523880     22.60491142
C       9.80477805     -1.48951241     -0.01227295
C      11.41117271     -0.98254550      0.39239567
C      12.68374252     -1.55553413     -0.36513467
C      25.65448151     -0.29177455     -1.55749122
C       8.10033799     -1.12761208      0.40489675
C       8.53439949     -1.38331387      2.03569663
H      25.20137545     -0.42091764     -2.66018942
H      -8.63864883     -3.24343175     -4.48701907
H      16.34168713     -3.74617032     17.45537312
H      -8.57276202     -3.49037275     22.83608283
H       0.43012818     -5.43178010     11.90996638
H      12.08075585      1.90802185     12.57264925
H       8.79323499      1.34102201     13.17977126
H       8.22473508      6.92790004      9.98593251
H      -1.31669769     15.26879327     22.30567986
H       7.71998220      4.01638867     12.54126963
H       9.96022943     -2.73385934      0.04203898
H      -2.19889968     12.74240008      9.87963955
H      11.68864822      0.22037652      0.34484690
H      22.64155162      0.81143544    -13.19470576
H       9.03064272     -0.71958647      2.94085573
H      25.81068778      0.80480551     -1.09810236
H      -2.59639097     12.74014441     11.82191694
   94

C     -11.07280352     -2.28763545     -4.65790863
C      -9.58210614     -2.66216742     -3.88489204
H     -10.86801167     -1.62987822     -5.69884284
C     -12.39547789     -1.62400350     -3.78038076
H     -11.45492536     -3.25042549     -5.35391616
H      -8.89088359     -1.73821070     -3.43035404
C       3.66670923     -2.08077428     -1.44393021
H      -9.56771324     -3.42424235     -2.90718644
H      -5.96746290     -4.85132734    -14.95156165
H      -5.95978367     -5.62074087    -14.82371805
C       3.04675252     -3.53931632     -4.09676800
H       2.15507360     -2.93020700     -4.64357447
C       5.99865913     -1.41364238     -2.18605421
H       2.92695309     -4.73835566     -4.04020451
H       5.71677555     -0.22315749     -2.41146427
H       6.38716869     -1.56259642     -3.36137634
C       7.24326479     -1.66299566     -0.96336147
H       8.01500575     -1.47706532     -1.88996294
C       6.97455445      0.08261797      0.99355936
H       6.99849521     -2.84105138     -0.64362770
H       6.73615128      1.06296887      0.28318906
H       7.42570060      1.19084131      1.31329445
C       5.56323262     -0.35054910      1.91836369
H       5.42185185      0.14993156      3.04241263
C       3.13180449      4.01809091    -11.04116998
H       5.36811377     -1.50588905      2.31151219
H       2.48433606      4.82531924    -11.50004685
H      -0.85961819     11.91882601     11.09865918
C      11.22940190     -5.26335583    -10.80611913
H     -12.27082709     -0.51152045     -3.24683047
H     -12.87600470     -2.25435652     -2.82693871
C     -22.50222689     -1.47646948     -2.16607608
H     -13.48349167     -1.38804370     -4.32592216
C      -1.93616540     -5.32942836     12.10854518
H     -23.18042945     -2.36149876     -2.16955686
H      -0.57465005     -5.44904337     10.21788378
H      -2.92815231     -4.96816763     12.62087633
C       4.00809011     -0.20597682      1.48672057
H      -2.58575300      2.89032277      2.59952559
C      -3.37735885      2.86657449      3.54234560
H       2.84651085     -0.18646379      1.27594246
H      -3.25356962      3.91667399      4.17322883
H      -3.15375652      1.92408937      4.30243905
H      -4.51674919      2.73532841      3.09446921
H      10.80102543     -4.18227540    -10.51343447
H      11.75064362     -5.43276054    -11.87266330
H      11.13725765     -6.17495587    -10.03255510
H       9.67542726      2.91321784     13.93411697
H       7.54858604      2.66978108     11.37368662
H      -0.54629095     -7.06799717     11.40600748
H      11.27958836      0.40225204     12.80129373
H      -8.70106013     -4.16259337     22.46184052
H       7.20689281      5.83955792      9.09806570
H      -2.35236340     13.35023124     23.10080893
H      10.05634151      4.92374884     10.77071531
H      10.16378690     -1.31076174     -1.15691538
H      -2.59538279     11.00311658     10.86934468
H      12.08426357     -1.18746009      1.49472434
H      22.75051273      0.04138807    -13.13520761
H       8.56151001     -2.27924884      2.88377780
H      25.95157135     -1.25920439     -0.91420601
H       9.23395353      3.77371361      9.52152531
C      17.29164855     -4.02963232     16.90601329
C      -0.59815887     -5.84170081     11.38080377
C       9.45063723      2.34200117     12.85440800
C       8.48271303      3.35735147     11.82712414
C      10.92866548      1.56127260     12.70674161
C       8.11588578      5.72607679      9.89326382
C       8.94980765      4.41777621     10.54376207
C      -2.06278820     12.11168072     10.92380684
C      -1.87542604     14.29883240     22.62570312
C       9.87710678     -1.45270148      0.03496014
C      11.48097473     -0.94371460      0.44431948
C      12.75510943     -1.51455557     -0.31204940
C      25.65469257     -0.29176724     -1.55752189
C       8.17378409     -1.09430920      0.45463224
C       8.60087198     -1.36313636      2.08488766
H      25.20159305     -0.42090987     -2.66022314
H      -8.66565349     -3.23861643     -4.48892149
H      16.34366824     -3.74807251     17.45689026
H      -8.57276053     -3.49036901     22.83607792
H       0.42943155     -5.43330962     11.91392681
H      12.07619979      1.92294738     12.57671606
H       8.79021659      1.35109247     13.20333681
H       8.22483393      6.92883508     10.00720084
H      -1.31746346     15.27183529     22.31751162
H       7.71816760      4.02279019     12.55232782
H      10.03596863     -2.69676449      0.08484910
H      -2.19717710     12.75891139      9.88530390
H      11.75570512      0.25981739      0.39923487
H      22.64158772      0.81144762    -13.19473617
H       9.09391701     -0.70472740      2.99542821
H      25.81089449      0.80481277     -1.09813074
H      -2.59134093     12.75776738     11.82972519
   94

C     -11.09973697     -2.28336690     -4.65986427
C      -9.60916253     -2.65771246     -3.88658472
H     -10.89493927     -1.62582941     -5.70092854
C     -12.42219920     -1.61950562     -3.78223697
H     -11.48188374     -3.24631025     -5.35563847
H      -8.91819282     -1.73373704     -3.43171622
C       3.87358540     -2.04967322     -1.52563901
H      -9.59472411     -3.42011550     -2.90913619
H      -6.08391428     -4.85239654    -15.12912239
H      -6.07625610     -5.62181851    -15.00132855
C       2.47239525     -3.93636796     -4.23127893
H       1.73145281     -3.28577772     -4.92082311
C       6.07665483     -1.36466797     -2.12441611
H       2.51819510     -5.13142132     -4.32610799
H       5.78411122     -0.18324125     -2.37410928
H       6.41059867     -1.54740033     -3.30953015
C       7.31884479     -1.63628269     -0.91287137
H       8.08434894     -1.46274890     -1.84783925
C       7.04323391      0.11331672      1.04039308
H       7.07003084     -2.81537421     -0.59951021
H       6.80790467      1.09457329      0.32998130
H       7.49620691      1.21936707      1.36454782
C       5.62476681     -0.32246287      1.95338915
H       5.47474218      0.17891831      3.07566868
C       3.13347191      4.11562170    -11.13340072
H       5.42904590     -1.47733850      2.34773406
H       2.48627238      4.92285533    -11.59266204
H      -0.85661055     11.93879532     11.10763907
C      11.25845110     -5.27041934    -10.83026352
H     -12.29734303     -0.50711075     -3.24855513
H     -12.90289327     -2.24988955     -2.82889885
C     -22.52766311     -1.47587979     -2.16195254
H     -13.51008781     -1.38319128     -4.32785597
C      -1.93542118     -5.33215546     12.11076529
H     -23.20586025     -2.36091319     -2.16543575
H      -0.57317267     -5.45295100     10.21968605
H      -2.92649246     -4.97013513     12.62432380
C       4.07315105     -0.18804607      1.50468581
H      -2.58789351      2.88980581      2.60482377
C      -3.38017297      2.86752763      3.54711366
H       2.91472411     -0.17510569      1.27676752
H      -3.25785528      3.91790420      4.17782971
H      -3.15525343      1.92469810      4.30639938
H      -4.51996193      2.73783617      3.09978662
H      10.82986666     -4.18944526    -10.53747380
H      11.77973042     -5.43981619    -11.89679456
H      11.16635375     -6.18199415    -10.05665815
H       9.67258988      2.92039840     13.95105490
H       7.54878076      2.67584939     11.38519226
H      -0.54493874     -7.07073516     11.40700772
H      11.27706243      0.41207772     12.80276526
H      -8.70105561     -4.16258859     22.46183250
H       7.20753261      5.83677990      9.11720778
H      -2.35388753     13.35189474     23.11312068
H      10.06469391      4.92509303     10.78215802
H      10.23289156     -1.26701973     -1.10804391
H      -2.59405962     11.02192309     10.87428184
H      12.14967002     -1.14876799      1.54799266
H      22.75055210      0.04140017    -13.13523359
H       8.62121237     -2.26418257      2.92639274
H      25.95173800     -1.25919831     -0.91422360
H       9.24881906      3.77728159      9.53659507
C      17.29361092     -4.03152323     16.90750307
C      -0.59744429     -5.84444221     11.38298398
C       9.44787305      2.34963555     12.87102729
C       8.48250390      3.36298753     11.84025339
C      10.92601790      1.57145502     12.71521958
C       8.11918123      5.72698252      9.90978903
C       8.95709613      4.42029039     10.55745180
C      -2.05976649     12.12962651     10.93023778
C      -1.87228719     14.30243629     22.64659231
C       9.94711721     -1.41654742      0.08342412
C      11.54850288     -0.90509912      0.49663146
C      12.82415192     -1.47372386     -0.25888442
C      25.65487021     -0.29175999     -1.55754319
C       8.24366455     -1.06359267      0.50427988
C       8.66321012     -1.34314824      2.13372130
H      25.20177598     -0.42090215     -2.66024693
H      -8.69256250     -3.23370405     -4.49079985
H      16.34562782     -3.74996376     17.45837542
H      -8.57275612     -3.49036407     22.83606964
H       0.42876751     -5.43480772     11.91782174
H      12.07153790      1.93781879     12.58063205
H       8.78720409      1.36113352     13.22660315
H       8.22482195      6.92953804     10.02816005
H      -1.31828118     15.27481369     22.32929711
H       7.71630071      4.02906698     12.56308166
H      10.10967146     -2.66031494      0.12850890
H      -2.19543289     12.77538695      9.89094715
H      11.82022464      0.29906112      0.45380298
H      22.64162421      0.81145929    -13.19476250
H       9.15259178     -0.68905119      3.04898923
H      25.81106929      0.80481996     -1.09815037
H      -2.58627649     12.77534922     11.83750127
   94

C     -11.12642413     -2.27906736     -4.66175379
C      -9.63593961     -2.65316427     -3.88822961
H     -10.92163825     -1.62175607     -5.70295687
C     -12.44872750     -1.61500706     -3.78407401
H     -11.50858605     -3.24217332     -5.35728952
H      -8.94520655     -1.72917347     -3.43304398
C       4.05783761     -2.04088910     -1.59040460
H      -9.62144687     -3.41588438     -2.91102860
H      -6.20035065     -4.85344773    -15.30658592
H      -6.19271986     -5.62287939    -15.17884921
C       2.00292927     -4.32108908     -4.47197853
H       1.31261811     -3.63749769     -5.17246482
C       6.14129971     -1.32925526     -2.06064479
H       2.10077714     -5.50677216     -4.58364327
H       5.82866283     -0.15798279     -2.32676084
H       6.43382568     -1.52882306     -3.25278048
C       7.38620628     -1.61176254     -0.86055017
H       8.14541701     -1.44856096     -1.80323648
C       7.11049730      0.14397311      1.08680419
H       7.13597138     -2.79202085     -0.55226387
H       6.87731554      1.12500250      0.37518081
H       7.56661759      1.24809506      1.41265775
C       5.68740897     -0.29187075      1.99253028
H       5.53308262      0.21061263      3.11353041
C       3.13490149      4.21278966    -11.22546426
H       5.49004629     -1.44593403      2.38844235
H       2.48806847      5.02010592    -11.68510845
H      -0.85361511     11.95877659     11.11662038
C      11.28730200     -5.27755492    -10.85435346
H     -12.32368840     -0.50269860     -3.25025894
H     -12.92959420     -2.24542585     -2.83084493
C     -22.55307812     -1.47529130     -2.15783170
H     -13.53649119     -1.37835191     -4.32977915
C      -1.93467408     -5.33489874     12.11292172
H     -23.23127205     -2.36032713     -2.16131691
H      -0.57169088     -5.45687095     10.22142256
H      -2.92481935     -4.97211857     12.62772209
C       4.13887725     -0.16372139      1.53105547
H      -2.59012029      2.88912248      2.60985350
C      -3.38305765      2.86832993      3.55162455
H       2.98304789     -0.15358361      1.29040160
H      -3.26224377      3.91899116      4.18216407
H      -3.15685108      1.92517566      4.31013359
H      -4.52322057      2.74014350      3.10480312
H      10.85851302     -4.19667126    -10.56151708
H      11.80868272     -5.44692992    -11.92084113
H      11.19517687     -6.18910966    -10.08072297
H       9.66984777      2.92758778     13.96803643
H       7.54906783      2.68196902     11.39678010
H      -0.54358282     -7.07348654     11.40793331
H      11.27450561      0.42192720     12.80430050
H      -8.70105031     -4.16258457     22.46182106
H       7.20828969      5.83407771      9.13647492
H      -2.35540483     13.35360916     23.12536498
H      10.07310098      4.92650861     10.79373785
H      10.29694918     -1.22311744     -1.06114115
H      -2.59274194     11.04074334     10.87923063
H      12.21289068     -1.11072024      1.59868005
H      22.75057240      0.04141040    -13.13524529
H       8.68120343     -2.24910285      2.96833642
H      25.95187116     -1.25919432     -0.91424142
H       9.26372084      3.78094694      9.55182307
C      17.29557535     -4.03341536     16.90898843
C      -0.59672801     -5.84719825     11.38509590
C       9.44520991      2.35729945     12.88767716
C       8.48238521      3.36867694     11.85345945
C      10.92341765      1.58164267     12.72375342
C       8.12257337      5.72796716      9.92643034
C       8.96444620      4.42287709     10.57126590
C      -2.05674993     12.14758144     10.93667522
C      -1.86910487     14.30605443     22.66757181
C      10.01371979     -1.38060431      0.13011701
C      11.61320832     -0.86722953      0.54658622
C      12.89030397     -1.43361703     -0.20818443
C      25.65501216     -0.29175502     -1.55756385
C       8.31001151     -1.03472114      0.55342190
C       8.72477409     -1.32326232      2.18172585
H      25.20191844     -0.42089667     -2.66026803
H      -8.71917707     -3.22869596     -4.49261468
H      16.34759032     -3.75185654     17.45985775
H      -8.57275122     -3.49036008     22.83605839
H       0.42810049     -5.43632760     11.92165137
H      12.06689069      1.95267315     12.58461110
H       8.78431627      1.37121892     13.24984857
H       8.22493957      6.93029331     10.04923278
H      -1.31915220     15.27773155     22.34106041
H       7.71452991      4.03537176     12.57393111
H      10.18021885     -2.62401854      0.16994225
H      -2.19369108     12.79187190      9.89660030
H      11.88232490      0.33749648      0.50604127
H      22.64164173      0.81146910    -13.19477458
H       9.21165268     -0.67341508      3.10103455
H      25.81121174      0.80482481     -1.09817053
H      -2.58122466     12.79293605     11.84527652
   94

C     -11.15284991     -2.27474191     -4.66356796
C      -9.66241688     -2.64852886     -3.88982670
H     -10.94810443     -1.61766118     -5.70491967
C     -12.47504648     -1.61051215     -3.78588178
H     -11.53503095     -3.23801610     -5.35885830
H      -8.97188196     -1.72453609     -3.43434954
C       4.23894761     -2.01356906     -1.61619806
H      -9.64785035     -3.41155450     -2.91286301
H      -6.31684773     -4.85448335    -15.48408498
H      -6.30925936     -5.62392801    -15.35642449
C       1.55229400     -4.71885857     -4.77230645
H       0.88321180     -3.99998016     -5.44669662
C       6.20061359     -1.29794315     -1.99450750
H       1.67386313     -5.89878568     -4.85786927
H       5.86762310     -0.13716674     -2.27618990
H       6.45355188     -1.51282855     -3.19204933
C       7.45151015     -1.58692031     -0.80695941
H       8.20363265     -1.43387585     -1.75771066
C       7.17915026      0.17575873      1.13458616
H       7.20076540     -2.76839211     -0.50311487
H       6.94777407      1.15610454      0.42126306
H       7.63951562      1.27793400      1.46068166
C       5.75331106     -0.25778447      2.03714660
H       5.59835296      0.24557742      3.15752967
C       3.13613239      4.30960502    -11.31741443
H       5.55333842     -1.41086661      2.43464081
H       2.48974573      5.11707392    -11.77742963
H      -0.85063331     11.97876855     11.12560266
C      11.31571727     -5.28472418    -10.87823291
H     -12.34984112     -0.49828934     -3.25193196
H     -12.95608780     -2.24097087     -2.83276628
C     -22.57847524     -1.47470344     -2.15371244
H     -13.56268688     -1.37352795     -4.33167836
C      -1.93391781     -5.33765421     12.11497466
H     -23.25666845     -2.35973981     -2.15719918
H      -0.57019881     -5.46079946     10.22304653
H      -2.92312372     -4.97411718     12.63103948
C       4.20639181     -0.13104562      1.56930027
H      -2.59237564      2.88820159      2.61459849
C      -3.38595494      2.86891086      3.55586205
H       3.05233562     -0.12117527      1.32017306
H      -3.26668017      3.91985983      4.18622382
H      -3.15848188      1.92544055      4.31360917
H      -4.52646874      2.74218335      3.10950531
H      10.88667013     -4.20394414    -10.58537870
H      11.83731016     -5.45405568    -11.94462665
H      11.22346982     -6.19626457    -10.10459486
H       9.66719172      2.93479550     13.98511429
H       7.54944139      2.68815711     11.40851155
H      -0.54221847     -7.07624546     11.40874022
H      11.27192452      0.43181528     12.80597005
H      -8.70104300     -4.16258142     22.46180285
H       7.20915218      5.83148837      9.15594615
H      -2.35690789     13.35538031     23.13755246
H      10.08155894      4.92804044     10.80554382
H      10.35984559     -1.17909526     -1.01469596
H      -2.59143075     11.05957499     10.88418929
H      12.27637861     -1.07279567      1.64868143
H      22.75056970      0.04141564    -13.13524640
H       8.74271204     -2.23392198      3.01044579
H      25.95200181     -1.25919270     -0.91426397
H       9.27867128      3.78475499      9.56730178
C      17.29754761     -4.03531235     16.91048451
C      -0.59600585     -5.84996306     11.38709360
C       9.44264409      2.36500096     12.90441027
C       8.48234919      3.37443726     11.86680704
C      10.92086725      1.59184923     12.73240670
C       8.12605325      5.72906722      9.94326402
C       8.97185416      4.42558065     10.58529210
C      -2.05373999     12.16554340     10.94311798
C      -1.86589081     14.30968364     22.68862037
C      10.08001419     -1.34451848      0.17644725
C      11.67786741     -0.82951984      0.59596279
C      12.95630507     -1.39373686     -0.15813281
C      25.65515142     -0.29175238     -1.55758913
C       8.37626094     -1.00576978      0.60302482
C       8.78764100     -1.30321053      2.22999507
H      25.20205421     -0.42089352     -2.66029211
H      -8.74548899     -3.22360819     -4.49437577
H      16.34956097     -3.75375434     17.46135145
H      -8.57274472     -3.49035723     22.83604098
H       0.42743356     -5.43786459     11.92537297
H      12.06226092      1.96752793     12.58872441
H       8.78154953      1.38135446     13.27312261
H       8.22518100      6.93113937     10.07047849
H      -1.32007389     15.28058615     22.35281593
H       7.71283989      4.04171675     12.58493790
H      10.25036554     -2.58754816      0.21089030
H      -2.19195299     12.80836440      9.90226230
H      11.94462592      0.37572860      0.55769997
H      22.64163701      0.81147400    -13.19477640
H       9.27273217     -0.65792074      3.15317600
H      25.81135463      0.80482724     -1.09819613
H      -2.57618693     12.81052544     11.85305001
   94

C     -11.17890633     -2.27043168     -4.66532110
C      -9.68846122     -2.64386829     -3.89144420
H     -10.97424302     -1.61358209     -5.70683225
C     -12.50105397     -1.60606439     -3.78767783
H     -11.56112536     -3.23387445     -5.36035950
H      -8.99807707     -1.71989179     -3.43570406
C       4.42499428     -1.96471146     -1.61023426
H      -9.67379388     -3.40718944     -2.91470877
H      -6.43336144     -4.85549678    -15.66159364
H      -6.42583408     -5.62495889    -15.53403513
C       1.08642601     -5.13486400     -5.10600399
H       0.44052820     -4.37320721     -5.74230151
C       6.26081683     -1.26558781     -1.92764969
H       1.23831486     -6.30696585     -5.14827374
H       5.90794177     -0.11574545     -2.22490494
H       6.47271774     -1.49755058     -3.12893140
C       7.51785852     -1.56116480     -0.75267189
H       8.26252536     -1.41856890     -1.71159882
C       7.24928350      0.20849309      1.18363369
H       7.26650657     -2.74381568     -0.45314505
H       7.01960534      1.18807381      0.46852808
H       7.71432376      1.30866637      1.50951769
C       5.82145028     -0.22169936      2.08485993
H       5.66741474      0.28235655      3.20495973
C       3.13719557      4.40620561    -11.40942907
H       5.61839569     -1.37373523      2.48389503
H       2.49128156      5.21387520    -11.86976635
H      -0.84766047     11.99876328     11.13458077
C      11.34372328     -5.29197858    -10.90199827
H     -12.37569864     -0.49392743     -3.25359001
H     -12.98226963     -2.23656850     -2.83467966
C     -22.60385123     -1.47411678     -2.14959578
H     -13.58857607     -1.36876065     -4.33356551
C      -1.93315243     -5.34041685     12.11693142
H     -23.28204711     -2.35915112     -2.15308328
H      -0.56869767     -5.46473173     10.22456522
H      -2.92140793     -4.97612725     12.63427958
C       4.27526948     -0.09381475      1.61402428
H      -2.59463924      2.88710111      2.61915797
C      -3.38885381      2.86931548      3.55991721
H       3.12245923     -0.08265721      1.35892152
H      -3.27114229      3.92055021      4.19010601
H      -3.16012075      1.92553095      4.31690431
H      -4.52970168      2.74401410      3.11399604
H      10.91439275     -4.21130633    -10.60914763
H      11.86562977     -5.46124857    -11.96825149
H      11.25125926     -6.20350789    -10.12836772
H       9.66458788      2.94201556     14.00223743
H       7.54986953      2.69437602     11.42032366
H      -0.54084614     -7.07900662     11.40943879
H      11.26930047      0.44173684     12.80774736
H      -8.70103329     -4.16257897     22.46177717
H       7.21008339      5.82895274      9.17553183
H      -2.35838809     13.35721232     23.14969286
H      10.09002796      4.92964958     10.81750107
H      10.42340997     -1.13498586     -0.96783982
H      -2.59012146     11.07841097     10.88915331
H      12.34074605     -1.03475216      1.69894087
H      22.75054927      0.04141591    -13.13524140
H       8.80537011     -2.21853003      3.05300927
H      25.95213940     -1.25919287     -0.91429069
H       9.29362436      3.78865610      9.58296040
C      17.29952500     -4.03721284     16.91199064
C      -0.59527772     -5.85273141     11.38898455
C       9.44014658      2.37272674     12.92117832
C       8.48236151      3.38023494     11.88023253
C      10.91834335      1.60206789     12.74114238
C       8.12957534      5.73023219      9.96021180
C       8.97928168      4.42835815     10.59945741
C      -2.05073206     12.18350527     10.94956195
C      -1.86265668     14.31331932     22.70971210
C      10.14713284     -1.30823245      0.22318017
C      11.74336421     -0.79166572      0.64562775
C      13.02301901     -1.35381552     -0.10787620
C      25.65529816     -0.29175140     -1.55761869
C       8.44356541     -0.97610737      0.65337592
C       8.85176777     -1.28290850      2.27884372
H      25.20219452     -0.42089203     -2.66031930
H      -8.77136383     -3.21849816     -4.49615629
H      16.35153662     -3.75565550     17.46285493
H      -8.57273618     -3.49035532     22.83601668
H       0.42676780     -5.43941178     11.92899081
H      12.05762546      1.98238095     12.59294638
H       8.77887736      1.39152536     13.29638036
H       8.22549440      6.93202606     10.09182263
H      -1.32104147     15.28337457     22.36457625
H       7.71119594      4.04807322     12.59603345
H      10.32118960     -2.55085718      0.25227564
H      -2.19021428     12.82485780      9.90792933
H      12.00780813      0.41408531      0.60960391
H      22.64161543      0.81147402    -13.19477245
H       9.33528897     -0.64238243      3.20588841
H      25.81150749      0.80482794     -1.09822661
H      -2.57115823     12.82811042     11.86081790
   94

C     -11.20442451     -2.26622095     -4.66704598
C      -9.71385950     -2.63932080     -3.89321410
H     -10.99990076     -1.60959732     -5.70872826
C     -12.52659000     -1.60174356     -3.78950164
H     -11.58672317     -3.22982208     -5.36182984
H      -9.02358038     -1.71538143     -3.43723077
C       4.61545144     -1.90314126     -1.58793981
H      -9.69906021     -3.40292889     -2.91669892
H      -6.54981908     -4.85649074    -15.83902979
H      -6.54237001     -5.62597486    -15.71160004
C       0.60361270     -5.56381146     -5.45944399
H      -0.01081362     -4.75040314     -6.04668409
C       6.32298759     -1.23167677     -1.86079819
H       0.79868537     -6.72289248     -5.44402665
H       5.94947055     -0.09357163     -2.17325388
H       6.49174297     -1.48258554     -3.06397948
C       7.58540540     -1.53482670     -0.69808699
H       8.32241500     -1.40288625     -1.66515509
C       7.32023996      0.24172803      1.23331948
H       7.33298419     -2.71854847     -0.40283828
H       7.09220361      1.22052640      0.51641815
H       7.79005933      1.33987340      1.55885703
C       5.89068205     -0.18477756      2.13386161
H       5.73807917      0.31987587      3.25380417
C       3.13815840      4.50280563    -11.50167074
H       5.68435761     -1.33574237      2.53439622
H       2.49267777      5.31068498    -11.96225669
H      -0.84469302     12.01875753     11.14355282
C      11.37150970     -5.29935260    -10.92580621
H     -12.40110002     -0.48969395     -3.25526942
H     -13.00797875     -2.23229528     -2.83662154
C     -22.62919878     -1.47353274     -2.14548368
H     -13.61400520     -1.36412258     -4.33546841
C      -1.93238262     -5.34318569     12.11881952
H     -23.30740200     -2.35856150     -2.14897073
H      -0.56719226     -5.46866691     10.22601015
H      -2.91968044     -4.97814703     12.63746178
C       4.34491249     -0.05476887      1.66129115
H      -2.59693660      2.88593399      2.62366192
C      -3.39178841      2.86963791      3.56391217
H       3.19308368     -0.04136187      1.40150965
H      -3.27565313      3.92115375      4.19393474
H      -3.16179318      1.92553829      4.32013493
H      -4.53295672      2.74573819      3.11840320
H      10.94192526     -4.21877408    -10.63296993
H      11.89377743     -5.46855320    -11.99189654
H      11.27877070     -6.21087513    -10.15219603
H       9.66201646      2.94924105     14.01935786
H       7.55033347      2.70059622     11.43215800
H      -0.53946982     -7.08176983     11.41006115
H      11.26662090      0.45168429     12.80959619
H      -8.70102156     -4.16257716     22.46174480
H       7.21106379      5.82642165      9.19515036
H      -2.35983709     13.35910899     23.16179760
H      10.09848368      4.93129786     10.82953578
H      10.48759324     -1.09084230     -0.92060968
H      -2.58881083     11.09724902     10.89412184
H      12.40566051     -0.99660143      1.74948144
H      22.75051673      0.04141253    -13.13523247
H       8.86861354     -2.20292342      3.09585037
H      25.95228189     -1.25919424     -0.91432008
H       9.30854825      3.79260458      9.59872630
C      17.30150442     -4.03911493     16.91350256
C      -0.59454680     -5.85550314     11.39080001
C       9.43769942      2.38046530     12.93793519
C       8.48240227      3.38604298     11.89367625
C      10.91583049      1.61229027     12.74991794
C       8.13311277      5.73141859      9.97720129
C       8.98670547      4.43116869     10.61368913
C      -2.04772259     12.20146470     10.95600619
C      -1.85941494     14.31695720     22.73082012
C      10.21487483     -1.27182183      0.27025080
C      11.80944004     -0.75367997      0.69557364
C      13.09023176     -1.31383555     -0.05738365
C      25.65545011     -0.29175152     -1.55765094
C       8.51164956     -0.94593909      0.70420250
C       8.91657886     -1.26241400      2.32803611
H      25.20233756     -0.42089163     -2.66034819
H      -8.79657547     -3.21349184     -4.49808616
H      16.35351398     -3.75755799     17.46436353
H      -8.57272588     -3.49035426     22.83598616
H       0.42610108     -5.44096740     11.93253270
H      12.05296906      1.99722644     12.59724086
H       8.77628300      1.40171972     13.31957901
H       8.22584792      6.93290978     10.11319919
H      -1.32204926     15.28609553     22.37635471
H       7.70957981      4.05441890     12.60715559
H      10.39254003     -2.51401824      0.29406047
H      -2.18847168     12.84134994      9.91360058
H      12.07155633      0.45256245      0.66175034
H      22.64158232      0.81147046    -13.19476479
H       9.39856002     -0.62672186      3.25892775
H      25.81166762      0.80482750     -1.09826031
H      -2.56613469     12.84568876     11.86857941
   94

C     -11.22698950     -2.26397232     -4.66920007
C      -9.73554502     -2.63738433     -3.89696393
H     -11.02284841     -1.60760414     -5.71114440
C     -12.54954591     -1.59926352     -3.79221563
H     -11.60944347     -3.22775223     -5.36369100
H      -9.04582538     -1.71335427     -3.44029463
C       4.94429895     -1.78042669     -1.56955715
H      -9.72056562     -3.40145824     -2.92080538
H      -6.66560043     -4.85990598    -16.02002891
H      -6.65788924     -5.62929997    -15.89207024
C      -0.00288526     -6.06620598     -5.91327243
H      -0.54015728     -5.14870674     -6.38209689
C       6.39393989     -1.18102134     -1.76961825
H       0.30448481     -7.17697471     -5.76501953
H       5.97506387     -0.06947050     -2.10991633
H       6.46938947     -1.47520356     -2.96991625
C       7.66221291     -1.50611496     -0.62966801
H       8.38379896     -1.39597325     -1.61255621
C       7.40098114      0.28248398      1.29307487
H       7.40393292     -2.69127450     -0.34374874
H       7.17434283      1.25961252      0.57304738
H       7.87914765      1.37709400      1.61768256
C       5.96952052     -0.13951688      2.19368006
H       5.81954977      0.36526212      3.31377813
C       3.13812541      4.60698930    -11.60438981
H       5.75854942     -1.28895393      2.59654198
H       2.49211858      5.41511674    -12.06376844
H      -0.84172231     12.04137617     11.15512591
C      11.40295965     -5.30910995    -10.95545314
H     -12.42409830     -0.48730888     -3.25776450
H     -13.03125237     -2.22982815     -2.83949478
C     -22.65458815     -1.47303665     -2.14147842
H     -13.63684909     -1.36115944     -4.33827802
C      -1.93166389     -5.34607251     12.12239066
H     -23.33280488     -2.35805518     -2.14495245
H      -0.56604777     -5.47455823     10.22809520
H      -2.91823268     -4.98028050     12.64187737
C       4.42401993     -0.00748529      1.71910365
H      -2.60415917      2.88661002      2.63114216
C      -3.39978017      2.87268760      3.57077180
H       3.27329874      0.00838895      1.45398790
H      -3.28621372      3.92466130      4.20050153
H      -3.16714179      1.92782232      4.32523380
H      -4.54164443      2.75164613      3.12625044
H      10.97354746     -4.22836335    -10.66301845
H      11.92555499     -5.47828973    -12.02137921
H      11.30977650     -6.22067676    -10.18196175
H       9.65609374      2.95566392     14.03551142
H       7.54893465      2.70653362     11.43965210
H      -0.53840329     -7.08524351     11.41055451
H      11.26143225      0.46458596     12.80224869
H      -8.70101793     -4.16259184     22.46177845
H       7.21175697      5.81525052      9.21549595
H      -2.36131090     13.36099679     23.17396543
H      10.11299261      4.92586386     10.83355090
H      10.55545896     -1.03676323     -0.86725142
H      -2.58915459     11.11757614     10.89782525
H      12.47578845     -0.95334371      1.80685039
H      22.75026404      0.04130417    -13.13509705
H       8.93659315     -2.19139516      3.14459904
H      25.95114173     -1.25922372     -0.91414506
H       9.33312387      3.79226390      9.61141018
C      17.30322965     -4.04092092     16.91429424
C      -0.59444677     -5.85898510     11.39365968
C       9.43232822      2.38850706     12.95293949
C       8.48119634      3.39059153     11.90314163
C      10.91003279      1.62502424     12.74862827
C       8.13686784      5.72678746      9.99453660
C       8.99846323      4.42903497     10.62356696
C      -2.04465045     12.22001549     10.96257559
C      -1.85607080     14.32075214     22.75242478
C      10.28914965     -1.22964625      0.32361706
C      11.88174203     -0.71115911      0.75188352
C      13.16252990     -1.27185634     -0.00041569
C      25.65424051     -0.29178792     -1.55745192
C       8.58802175     -0.91013082      0.76588428
C       8.98722083     -1.24368295      2.38653045
H      25.20112132     -0.42093169     -2.66014452
H      -8.81748900     -3.21047150     -4.50180962
H      16.35524258     -3.75935042     17.46515402
H      -8.57271924     -3.49036836     22.83601772
H       0.42378728     -5.44225168     11.93826711
H      12.04314272      2.01960233     12.59059496
H       8.77066979      1.41444700     13.34674981
H       8.22689193      6.92771136     10.13628281
H      -1.32303815     15.28885949     22.38809146
H       7.70643439      4.06063836     12.61291760
H      10.47092691     -2.47136548      0.33977528
H      -2.18795114     12.85698228      9.91864777
H      12.14110206      0.49551059      0.71988991
H      22.64136139      0.81136653    -13.19463002
H       9.46671078     -0.61459259      3.32268810
H      25.81045847      0.80479166     -1.09806617
H      -2.55906009     12.86345247     11.87776807
