   94

C       6.91444514     -7.27097473    -13.24531730
C      -3.33980010    -13.05152339    -10.13445385
H       7.59443304     -6.54383979    -12.57687336
C      -1.00691301     -0.88580331      8.14733776
H      -5.66898703      8.60562503     -3.00294213
H       3.12650178     -3.10152506      8.70353992
C       0.27721342     -1.21458660      9.15105572
H       6.57983593     -8.34007212    -12.81753987
H      -9.00629938     -6.97077983    -19.18209263
H      -8.99858819     -7.74017383    -19.05413396
C       7.27441344     -0.20378041     -2.78779966
H      16.72377504      5.80178498     13.90396683
C       8.63111800    -10.44887992      5.10620677
H       8.23720553     10.87561845     -2.23813932
H       8.87845407     -9.66519928      4.27647908
H       2.50425844    -10.90118632     17.33758517
C       7.26735692    -10.95434976      7.57299229
H       6.14514921    -10.71506941      7.12434793
C       7.48419543     11.10497780     -0.02994499
H       6.78704708    -11.51481112      8.55387446
H      11.29386860     15.62065970      8.91182196
H       6.91154551     11.71038239      0.79620303
C       8.26024233     10.27613643     -1.16705755
H      17.85242661      3.35084955     -5.78070103
C      16.74859791      3.13088410     -5.67013856
H      -4.56656654      0.01430653     -4.82816141
H       7.74610193      9.17394956     -1.33430854
H      -3.06803572     10.15401523     10.33803014
C      17.29965807    -10.26127807     -8.25652751
H      -2.11322110     -0.62473161      8.58624765
H      -5.70146632      8.54597728     -1.07093570
C       6.20767639     -3.08970970     -2.35193504
H      -0.03892100     -2.31092405      9.62885274
C       1.47819573    -10.71751696     17.93036419
H       6.03136989     -3.16298638     -1.14226695
H     -10.96213609    -12.27297242     15.66815272
H       1.07348491     -9.60107587     18.09678088
C      -4.69043709     -0.94070737     -5.53301115
H      -2.71751669      8.82654597     -1.72598685
C      -3.25836043     11.24288030     -2.19301315
H      -5.81455569     -1.15807012     -5.87067464
H      -3.46198980     11.92099029     -1.18265412
H      -2.11344678     11.54063673     -2.53792885
H      -3.87036378     11.82636729     -3.08970275
H      17.77242723     -9.91545873     -9.27341504
H      16.50084541    -11.94306678     -7.20305280
H      17.10066361    -10.72628881     -5.78070605
H       2.95522017      0.52349973      6.82457514
H       0.20584026     -0.46423739     10.12834857
H       0.85684386    -11.65028868     18.35672652
H       7.57727116      0.35367964     -3.79705264
H      -9.42675544     -2.95204824     23.99740376
H       4.85192824     15.53102303     20.76400921
H      10.43141771     13.91241968      9.62592685
H       3.32765218     -1.72068687     10.50752623
H      27.29617621      7.70178536     -1.93767948
H      -4.90382329      9.29025282     10.64807301
H      27.98634977      7.85016109     -1.60594993
H      -1.23195224     -1.77482729      5.78548982
H       8.70679652    -12.48523488      6.08396794
H       6.56906650     -6.92901221    -14.34153868
H       4.39397395     -2.14264461      9.37420897
C      -1.10843716     -0.83605303      6.52868200
C     -10.36016020    -12.21606716     16.66242232
C       2.43086056     -0.17177076      7.60561171
C       1.89122736     -1.17205202      8.71907227
C       7.99913858      0.30829959     -1.49705776
C       9.48185489     15.96760310     10.47362944
C       3.17395781     -2.03933052      9.32729244
C      -4.02734369      9.59314738      9.88856035
C      10.47124753     15.10678593      9.61008294
C      -5.04077415      8.89069603     -2.01622874
C      -3.55109086     -1.82228749     -6.15411142
C       6.43433275     -1.53351190     -2.69356110
C      16.59915254    -10.75927202     -6.89990193
C      -3.59585060      9.63219276     -1.96934245
C       8.21174011    -11.40456395      6.29529789
H       9.43710493     10.09445606     -0.86853249
H      -3.11177660    -13.81826260    -10.93541594
H      15.62838517    -10.05857908     -6.62599172
H      -9.29845674     -2.27982476     24.37164303
H      -9.75818431    -12.15916191     17.65669192
H      16.54794064      6.55523809     13.80501941
H       8.59969783      0.50158785     -0.51788507
H       5.54814629     15.73763202     21.04860216
H       8.74910326     16.60682537     11.11599604
H      -3.09141518     -2.39365644     -7.05917845
H      -4.10801209      9.34308272      8.71770203
H      -7.60795419     21.24264930      9.77839801
H       5.37300112     -3.94129918     -2.62135787
H      -1.06085064      0.16191878      5.85632735
H       7.95587803    -10.21708886      8.28066415
H       7.12405593     -3.61594874     -2.96696009
H      -7.74116572     21.25126849     10.54689030
   94

C       6.91443776     -7.27099380    -13.24533144
C      -3.33980517    -13.05153408    -10.13445856
H       7.59442729     -6.54385998    -12.57688800
C      -1.00671762     -0.88494775      8.14673429
H      -5.68275449      8.60375911     -3.00391048
H       3.12718803     -3.10595497      8.70875135
C       0.27741622     -1.21330150      9.15077326
H       6.57982779     -8.34009064    -12.81755333
H      -9.00630497     -6.97078641    -19.18210181
H      -8.99859343     -7.74018029    -19.05414246
C       7.27798638     -0.20637425     -2.78495169
H      16.77756420      5.65871355     14.02940613
C       8.63135219    -10.44967840      5.10614523
H       8.21234269     10.85317980     -2.30018097
H       8.87938412     -9.66671439      4.27596183
H       2.50424629    -10.90120867     17.33759094
C       7.26707193    -10.95391049      7.57320222
H       6.14502155    -10.71018113      7.12649625
C       7.45887810     11.08264050     -0.09219185
H       6.79067508    -11.52226061      8.55158963
H      11.90819145     15.36942203      8.62366571
H       6.88553140     11.68798487      0.73350671
C       8.23529257     10.25381675     -1.22903519
H      17.85762546      3.35333260     -5.78683254
C      16.75380130      3.13333550     -5.67628710
H      -4.57208689      0.01326823     -4.82936875
H       7.72124247      9.15159295     -1.39629010
H      -3.06771964     10.15400450     10.33747520
C      17.30055042    -10.25892506     -8.25571406
H      -2.11335091     -0.62416409      8.58507556
H      -5.71606615      8.54631433     -1.07181509
C       6.21189247     -3.09324471     -2.34907842
H      -0.03907319     -2.30957248      9.62823030
C       1.47818376    -10.71753837     17.93036991
H       6.03558536     -3.16512406     -1.13921264
H     -10.96214019    -12.27297731     15.66815359
H       1.07347252     -9.60109744     18.09678639
C      -4.70150476     -0.93890043     -5.53730188
H      -2.73201257      8.82619741     -1.72795983
C      -3.27257242     11.24270055     -2.19404576
H      -5.82668811     -1.15747234     -5.87071595
H      -3.47593851     11.92080534     -1.18363155
H      -2.12755605     11.54032265     -2.53874885
H      -3.88452182     11.82636259     -3.09065852
H      17.77392454     -9.91352054     -9.27249552
H      16.49519915    -11.94498444     -7.19801806
H      17.10593127    -10.72529195     -5.78393713
H       2.95275153      0.52460857      6.82540652
H       0.20556558     -0.46258440     10.12779206
H       0.85683182    -11.65030978     18.35673274
H       7.57370596      0.35176797     -3.79581763
H      -9.42676567     -2.95206052     23.99740702
H       4.79604789     15.49076153     20.97256070
H      11.17243344     13.71249746      9.25629924
H       3.32773789     -1.72682288     10.50912829
H      27.30213954      7.70435453     -1.93543384
H      -4.90465784      9.28972551     10.64772755
H      27.99231023      7.85273360     -1.60369982
H      -1.23214104     -1.77553192      5.78545346
H       8.70628565    -12.48532291      6.08443012
H       6.56905930     -6.92903052    -14.34155260
H       4.39553135     -2.13781862      9.36803591
C      -1.10883533     -0.83625092      6.52804887
C     -10.36016440    -12.21607225     16.66242326
C       2.43066317     -0.17074128      7.60785549
C       1.89194136     -1.17250520      8.72032930
C       8.00198287      0.30653080     -1.49425737
C       9.15101276     16.27193896     10.63101704
C       3.17462858     -2.04085515      9.32758292
C      -4.02754181      9.59309201      9.88910206
C      10.07397129     15.45791883      9.68495964
C      -5.05513264      8.89024812     -2.01723298
C      -3.56449452     -1.82039112     -6.16277172
C       6.44149277     -1.53781793     -2.68991918
C      16.59909449    -10.76009245     -6.90065856
C      -3.61033790      9.63202006     -1.97070242
C       8.21141160    -11.40455391      6.29563644
H       9.41210991     10.07230827     -0.93025343
H      -3.11178068    -13.81827251    -10.93542110
H      15.62646877    -10.06125624     -6.62884738
H      -9.29846786     -2.27983738     24.37164721
H      -9.75818863    -12.15916722     17.65669295
H      16.60197038      6.41226716     13.93080680
H       8.60155817      0.50322698     -0.51521538
H       5.49226904     15.69737818     21.25714090
H       8.40794706     16.91193209     11.25733353
H      -3.09281933     -2.39592904     -7.05899405
H      -4.10818499      9.34305373      8.71828207
H      -7.60808624     21.24267655      9.77838628
H       5.36900794     -3.93474189     -2.62474827
H      -1.06239669      0.16113858      5.85474523
H       7.95226576    -10.21302030      8.28035433
H       7.12851668     -3.62171026     -2.96220803
H      -7.74129353     21.25129448     10.54687932
   94

C       6.91443135     -7.27100829    -13.24534004
C      -3.33980877    -13.05154237    -10.13446168
H       7.59442185     -6.54387530    -12.57689676
C      -1.00649154     -0.88406591      8.14613376
H      -5.69649913      8.60190341     -3.00486445
H       3.12794609     -3.11029620      8.71395799
C       0.27765486     -1.21198231      9.15048983
H       6.57982074     -8.34010470    -12.81756141
H      -9.00630978     -6.97079238    -19.18210999
H      -8.99859792     -7.74018615    -19.05415000
C       7.28158981     -0.20892778     -2.78206017
H      16.83080448      5.51621010     14.15456899
C       8.63158451    -10.45045207      5.10609196
H       8.18742312     10.83092963     -2.36164660
H       8.88031358     -9.66820530      4.27545419
H       2.50423679    -10.90122455     17.33759401
C       7.26678928    -10.95345631      7.57341584
H       6.14490281    -10.70531769      7.12866066
C       7.43366308     11.06049223     -0.15374234
H       6.79430733    -11.52961340      8.54927243
H      12.44425550     15.19003343      8.35192236
H       6.85996738     11.66575782      0.67176788
C       8.21030881     10.23169410     -1.29043059
H      17.86280286      3.35584230     -5.79292782
C      16.75898269      3.13581880     -5.68239436
H      -4.57755268      0.01217925     -4.83058142
H       7.69633927      9.12944044     -1.45771982
H      -3.06737975     10.15401965     10.33693099
C      17.30142964    -10.25655908     -8.25489648
H      -2.11345112     -0.62357936      8.58390802
H      -5.73064767      8.54665971     -1.07268436
C       6.21607846     -3.09674631     -2.34621460
H      -0.03917853     -2.30819146      9.62760317
C       1.47817445    -10.71755364     17.93037305
H       6.03980104     -3.16721603     -1.13614487
H     -10.96214313    -12.27298099     15.66815406
H       1.07346281     -9.60111284     18.09678929
C      -4.71258311     -0.93709742     -5.54158231
H      -2.74648559      8.82585587     -1.72990815
C      -3.28675420     11.24252627     -2.19505349
H      -5.83882887     -1.15685485     -5.87071463
H      -3.48985858     11.92062480     -1.18458374
H      -2.14163313     11.54001294     -2.53953845
H      -3.89864698     11.82636452     -3.09159042
H      17.77541791     -9.91157745     -9.27157005
H      16.48957182    -11.94686333     -7.19293709
H      17.11117384    -10.72432123     -5.78719079
H       2.95032073      0.52579772      6.82626815
H       0.20532144     -0.46090170     10.12723722
H       0.85682262    -11.65032486     18.35673641
H       7.57012236      0.34988565     -3.79450675
H      -9.42677446     -2.95207102     23.99740950
H       4.74034044     15.45058253     21.18056247
H      11.78590460     13.62850630      8.93073446
H       3.32788895     -1.73286559     10.51069689
H      27.30808307      7.70692910     -1.93317194
H      -4.90546721      9.28922001     10.64739062
H      27.99825208      7.85531063     -1.60143550
H      -1.23230199     -1.77620891      5.78542206
H       8.70577891    -12.48539344      6.08488798
H       6.56905336     -6.92904466    -14.34156121
H       4.39704431     -2.13298749      9.36189905
C      -1.10920343     -0.83642135      6.52741963
C     -10.36016742    -12.21607609     16.66242379
C       2.43049854     -0.16964060      7.61010971
C       1.89268686     -1.17290183      8.72158180
C       8.00482889      0.30482096     -1.49140292
C       8.85105121     16.53723104     10.71383995
C       3.17532834     -2.04232215      9.32787325
C      -4.02771386      9.59305997      9.88965541
C       9.80354691     15.70047704      9.81925152
C      -5.06946886      8.88980805     -2.01822400
C      -3.57799528     -1.81843897     -6.17164021
C       6.44870796     -1.54209035     -2.68623122
C      16.59903273    -10.76091458     -6.90141615
C      -3.62480174      9.63185330     -1.97204246
C       8.21108700    -11.40452770      6.29597701
H       9.38709173     10.05032067     -0.99144705
H      -3.11178356    -13.81828016    -10.93542462
H      15.62456888    -10.06391953     -6.63170620
H      -9.29847748     -2.27984818     24.37165051
H      -9.75819176    -12.15917123     17.65669355
H      16.65528615      6.26981552     14.05623776
H       8.60340615      0.50495999     -0.51250262
H       5.43656529     15.65720560     21.46512908
H       8.11437369     17.17288971     11.35035478
H      -3.09415050     -2.39819316     -7.05862654
H      -4.10833087      9.34304580      8.71887391
H      -7.60816642     21.24269382      9.77838324
H       5.36513366     -3.92806919     -2.62809994
H      -1.06391407      0.16038435      5.85316856
H       7.94865518    -10.20897638      8.28005691
H       7.13295043     -3.62743948     -2.95743418
H      -7.74136872     21.25131029     10.54687718
   94

C       6.91442486     -7.27102001    -13.24534539
C      -3.33981142    -13.05154845    -10.13446340
H       7.59441596     -6.54388765    -12.57690206
C      -1.00623602     -0.88315028      8.14553778
H      -5.71019918      8.60006481     -3.00579656
H       3.12876720     -3.11455040      8.71916065
C       0.27792680     -1.21062290      9.15020803
H       6.57981369     -8.34011604    -12.81756633
H      -9.00631391     -6.97079757    -19.18211705
H      -8.99860175     -7.74019124    -19.05415647
C       7.28520868     -0.21145266     -2.77914577
H      16.88366375      5.37419582     14.27950105
C       8.63181277    -10.45120803      5.10604635
H       8.16243576     10.80891168     -2.42254723
H       8.88123955     -9.66967970      4.27495477
H       2.50422977    -10.90123293     17.33759457
C       7.26650690    -10.95299246      7.57363337
H       6.14479121    -10.70048303      7.13084025
C       7.40859998     11.03858298     -0.21459602
H       6.79794067    -11.53687434      8.54692451
H      13.01161955     14.99213093      8.06647341
H       6.83495599     11.64378484      0.61099857
C       8.18529762     10.20980387     -1.35125989
H      17.86796627      3.35835009     -5.79902263
C      16.76414952      3.13830488     -5.68849745
H      -4.58295656      0.01104047     -4.83180059
H       7.67137593      9.10753712     -1.51860594
H      -3.06697043     10.15404883     10.33638905
C      17.30229712    -10.25418423     -8.25407739
H      -2.11352244     -0.62296774      8.58274658
H      -5.74518982      8.54701826     -1.07353637
C       6.22022473     -3.10022497     -2.34335434
H      -0.03924155     -2.30677398      9.62697468
C       1.47816762    -10.71756156     17.93037377
H       6.04400950     -3.16927095     -1.13307395
H     -10.96214442    -12.27298270     15.66815396
H       1.07345577     -9.60112079     18.09678963
C      -4.72366395     -0.93530051     -5.54584798
H      -2.76091423      8.82552611     -1.73181967
C      -3.30088118     11.24236204     -2.19602431
H      -5.85096945     -1.15621670     -5.87066924
H      -3.50372506     11.92045276     -1.18549826
H      -2.15565305     11.53971173     -2.54028472
H      -3.91271400     11.82637833     -3.09248644
H      17.77690730     -9.90963450     -9.27064224
H      16.48396432    -11.94870820     -7.18781393
H      17.11639123    -10.72338260     -5.79046961
H       2.94792417      0.52706493      6.82715818
H       0.20510709     -0.45918185     10.12668575
H       0.85681600    -11.65033264     18.35673770
H       7.56651077      0.34801780     -3.79314015
H      -9.42678058     -2.95207930     23.99741025
H       4.68471033     15.41040540     21.38831656
H      12.35693892     13.56963676      8.62772041
H       3.32809987     -1.73881541     10.51223440
H      27.31404125      7.70949289     -1.93092180
H      -4.90621398      9.28873633     10.64705195
H      28.00420776      7.85787779     -1.59918167
H      -1.23243683     -1.77685106      5.78539720
H       8.70527428    -12.48545259      6.08534261
H       6.56904752     -6.92905627    -14.34156670
H       4.39850918     -2.12815745      9.35580055
C      -1.10954264     -0.83655715      6.52679588
C     -10.36016876    -12.21607788     16.66242372
C       2.43036525     -0.16846922      7.61237554
C       1.89346131     -1.17324003      8.72283206
C       8.00766544      0.30315554     -1.48851577
C       8.55910038     16.79289014     10.80126196
C       3.17605213     -2.04373366      9.32816555
C      -4.02781964      9.59304838      9.89021219
C       9.53070362     15.94762777      9.94023281
C      -5.08376098      8.88938133     -2.01919393
C      -3.59158696     -1.81643206     -6.18071624
C       6.45596281     -1.54634053     -2.68251421
C      16.59896810    -10.76174356     -6.90217804
C      -3.63922001      9.63169734     -1.97335218
C       8.21076404    -11.40449141      6.29631986
H       9.36206150     10.02851016     -1.05215837
H      -3.11178571    -13.81828573    -10.93542667
H      15.62268559    -10.06657460     -6.63457212
H      -9.29848435     -2.27985672     24.37165199
H      -9.75819317    -12.15917316     17.65669353
H      16.70811535      6.12782059     14.18137478
H       8.60523486      0.50676011     -0.50976865
H       5.38094099     15.61703606     21.67286346
H       7.82531159     17.42849906     11.43983306
H      -3.09541283     -2.40043971     -7.05806875
H      -4.10841038      9.34305942      8.71946864
H      -7.60825921     21.24271146      9.77837939
H       5.36137101     -3.92129751     -2.63141955
H      -1.06540248      0.15966330      5.85159907
H       7.94504533    -10.20496177      8.27977116
H       7.13734825     -3.63314646     -2.95264881
H      -7.74145724     21.25132679     10.54687408
   94

C       6.91441789     -7.27102921    -13.24534790
C      -3.33981314    -13.05155216    -10.13446367
H       7.59440919     -6.54389730    -12.57690434
C      -1.00594850     -0.88219716      8.14494612
H      -5.72385213      8.59824391     -3.00670612
H       3.12965094     -3.11871574      8.72435870
C       0.27823424     -1.20921959      9.14992792
H       6.57980625     -8.34012492    -12.81756846
H      -9.00631728     -6.97080187    -19.18212289
H      -8.99860486     -7.74019545    -19.05416178
C       7.28883991     -0.21394923     -2.77621240
H      16.93625003      5.23257387     14.40424853
C       8.63203637    -10.45194803      5.10600818
H       8.13745886     10.78714593     -2.48286339
H       8.88216138     -9.67113969      4.27446302
H       2.50422544    -10.90123296     17.33759249
C       7.26622414    -10.95251969      7.57385504
H       6.14468619    -10.69567698      7.13303456
C       7.38379110     11.01694543     -0.27472674
H       6.80157416    -11.54404517      8.54454702
H      13.59866901     14.77394794      7.77161126
H       6.81060765     11.62211685      0.55121657
C       8.16033877     10.18816702     -1.41150326
H      17.87311968      3.36084205     -5.80513993
C      16.76930564      3.14078056     -5.69461871
H      -4.58829709      0.00985134     -4.83302897
H       7.64642808      9.08590585     -1.57892713
H      -3.06648838     10.15408513     10.33584697
C      17.30315299    -10.25180257     -8.25325815
H      -2.11356231     -0.62232565      8.58159108
H      -5.75968973      8.54739071     -1.07437075
C       6.22433040     -3.10368047     -2.34049883
H      -0.03926042     -2.30531622      9.62634497
C       1.47816348    -10.71756120     17.93037190
H       6.04821065     -3.17128905     -1.13000092
H     -10.96214376    -12.27298209     15.66815320
H       1.07345170     -9.60112033     18.09678717
C      -4.73474492     -0.93351119     -5.55009886
H      -2.77529459      8.82520858     -1.73369312
C      -3.31494859     11.24220758     -2.19695771
H      -5.86310755     -1.15555810     -5.87058010
H      -3.51753345     11.92028896     -1.18637466
H      -2.16961077     11.53941874     -2.54098630
H      -3.92671812     11.82640343     -3.09334625
H      17.77839294     -9.90769329     -9.26971321
H      16.47837659    -11.95052100     -7.18265007
H      17.12158351    -10.72247838     -5.79377478
H       2.94556388      0.52841312      6.82807620
H       0.20492520     -0.45742055     10.12613724
H       0.85681218    -11.65033221     18.35673643
H       7.56286906      0.34616411     -3.79172067
H      -9.42678348     -2.95208519     23.99740893
H       4.62912197     15.37021211     21.59593999
H      12.96561584     13.47880292      8.30517109
H       3.32837099     -1.74466932     10.51374128
H      27.32004385      7.71203536     -1.92870454
H      -4.90689627      9.28826948     10.64670873
H      28.01020556      7.86042585     -1.59695692
H      -1.23254367     -1.77745527      5.78537898
H       8.70477097    -12.48550163      6.08579448
H       6.56904137     -6.92906555    -14.34156948
H       4.39992866     -2.12332716      9.34973962
C      -1.10985047     -0.83665510      6.52617741
C     -10.36016809    -12.21607729     16.66242296
C       2.43026562     -0.16722397      7.61465306
C       1.89426687     -1.17351643      8.72407998
C       8.01048959      0.30153310     -1.48559986
C       8.25295506     17.06157647     10.90502748
C       3.17680108     -2.04508794      9.32845987
C      -4.02785676      9.59305187      9.89077007
C       9.22873901     16.21709265     10.05600699
C      -5.09800582      8.88896830     -2.02014235
C      -3.60526907     -1.81437175     -6.19000145
C       6.46325527     -1.55056905     -2.67877052
C      16.59890066    -10.76258161     -6.90294573
C      -3.65358918      9.63155212     -1.97463084
C       8.21044201    -11.40444622      6.29666521
H       9.33709964     10.00690038     -1.11236872
H      -3.11178720    -13.81828909    -10.93542721
H      15.62081844    -10.06922402     -6.63744693
H      -9.29848789     -2.27986286     24.37165133
H      -9.75819253    -12.15917264     17.65669279
H      16.76060535      5.98619377     14.30625750
H       8.60704177      0.50862387     -0.50701761
H       5.32536034     15.57685257     21.88046095
H       7.52045086     17.69730772     11.54340118
H      -3.09661504     -2.40266000     -7.05731497
H      -4.10841996      9.34309068      8.72006353
H      -7.60840369     21.24273663      9.77837064
H       5.35771915     -3.91442929     -2.63470732
H      -1.06685891      0.15897871      5.85003671
H       7.94143609    -10.20097658      8.27949677
H       7.14170902     -3.63883139     -2.94785308
H      -7.74159836     21.25135119     10.54686594
   94

C       6.91441081     -7.27103533    -13.24534701
C      -3.33981376    -13.05155346    -10.13446251
H       7.59440190     -6.54390367    -12.57690300
C      -1.00563261     -0.88121524      8.14435712
H      -5.73746367      8.59643838     -3.00759709
H       3.13059487     -3.12280259      8.72954903
C       0.27857379     -1.20778225      9.14964731
H       6.57979881     -8.34013080    -12.81756727
H      -9.00631986     -6.97080531    -19.18212756
H      -8.99860722     -7.74019881    -19.05416597
C       7.29249096     -0.21641146     -2.77325413
H      16.98860185      5.09145099     14.52866053
C       8.63225693    -10.45267085      5.10597713
H       8.11266898     10.76558463     -2.54262690
H       8.88308077     -9.67258363      4.27397904
H       2.50422383    -10.90122569     17.33758796
C       7.26594226    -10.95203733      7.57408058
H       6.14458899    -10.69089850      7.13524256
C       7.35934285     10.99554148     -0.33421158
H       6.80520886    -11.55112646      8.54214054
H      14.18982558     14.54965152      7.47391088
H       6.78688923     11.60071940      0.49224041
C       8.13559598     10.16674291     -1.47118930
H      17.87825945      3.36332408     -5.81127081
C      16.77444732      3.14325335     -5.70074701
H      -4.59357334      0.00860977     -4.83427099
H       7.62166943      9.06450193     -1.63870914
H      -3.06593633     10.15414570     10.33530696
C      17.30399740    -10.24941270     -8.25243775
H      -2.11357398     -0.62166065      8.58044013
H      -5.77415222      8.54777557     -1.07519132
C       6.22840003     -3.10710632     -2.33764683
H      -0.03923887     -2.30382794      9.62571188
C       1.47816207    -10.71755366     17.93036765
H       6.05241024     -3.17326536     -1.12692442
H     -10.96214137    -12.27297948     15.66815188
H       1.07345059     -9.60111257     18.09678218
C      -4.74582304     -0.93173289     -5.55433649
H      -2.78963174      8.82490136     -1.73553674
C      -3.32896259     11.24206123     -2.19786092
H      -5.87524007     -1.15488151     -5.87044962
H      -3.53128993     11.92013207     -1.18722039
H      -2.18351272     11.53913226     -2.54165138
H      -3.94066607     11.82643800     -3.09417680
H      17.77987482     -9.90575251     -9.26878205
H      16.47280859    -11.95230023     -7.17744482
H      17.12675058    -10.72160737     -5.79710517
H       2.94323754      0.52982375      6.82901449
H       0.20477252     -0.45562809     10.12558986
H       0.85681115    -11.65032466     18.35673279
H       7.55920470      0.34433046     -3.79024184
H      -9.42678351     -2.95208876     23.99740585
H       4.57357114     15.33004299     21.80336747
H      13.59930668     13.36746621      7.96870076
H       3.32869860     -1.75043845     10.51521637
H      27.32609624      7.71455273     -1.92652472
H      -4.90751292      9.28782905     10.64636625
H      28.01625056      7.86295137     -1.59476536
H      -1.23262611     -1.77802908      5.78536532
H       8.70427008    -12.48553959      6.08624319
H       6.56903531     -6.92907199    -14.34156899
H       4.40130244     -2.11850642      9.34371369
C      -1.11013098     -0.83672298      6.52556258
C     -10.36016566    -12.21607464     16.66242160
C       2.43019638     -0.16591950      7.61693747
C       1.89510043     -1.17374238      8.72532385
C       8.01330989      0.29995994     -1.48264976
C       7.93863421     17.33737849     11.01585252
C       3.17757315     -2.04639561      9.32875412
C      -4.02782581      9.59308235      9.89133317
C       8.91145575     16.49557844     10.17157061
C      -5.11220879      8.88856726     -2.02107358
C      -3.61903908     -1.81226198     -6.19949586
C       6.47059220     -1.55476974     -2.67499645
C      16.59883040    -10.76342753     -6.90371841
C      -3.66791461      9.63141597     -1.97588474
C       8.21012221    -11.40439106      6.29701260
H       9.31235706      9.98549288     -1.17203539
H      -3.11178787    -13.81829020    -10.93542624
H      15.61896702    -10.07186676     -6.64033023
H      -9.29848846     -2.27986665     24.37164882
H      -9.75819010    -12.15917001     17.65669142
H      16.81282900      5.84504184     14.43067359
H       8.60883648      0.51056355     -0.50424620
H       5.26981401     15.53669374     22.08786992
H       7.20735219     17.97285981     11.65397258
H      -3.09776723     -2.40484552     -7.05636151
H      -4.10836221      9.34314954      8.72066323
H      -7.60859059     21.24276649      9.77835754
H       5.35418315     -3.90746127     -2.63796137
H      -1.06828781      0.15832287      5.84847986
H       7.93782902    -10.19701937      8.27923298
H       7.14603737     -3.64448814     -2.94304549
H      -7.74178298     21.25138063     10.54685326
   94

C       6.91440403     -7.27103810    -13.24534240
C      -3.33981321    -13.05155243    -10.13446000
H       7.59439448     -6.54390646    -12.57689774
C      -1.00529310     -0.88021232      8.14376978
H      -5.75103976      8.59464629     -3.00847242
H       3.13159433     -3.12682209      8.73472929
C       0.27894056     -1.20632001      9.14936505
H       6.57979177     -8.34013339    -12.81756247
H      -9.00632166     -6.97080797    -19.18213114
H      -8.99860882     -7.74020139    -19.05416912
C       7.29616864     -0.21883691     -2.77026855
H      17.04082390      4.95079105     14.65267208
C       8.63247590    -10.45337615      5.10595282
H       8.08819235     10.74415620     -2.60195217
H       8.88399927     -9.67401088      4.27350274
H       2.50422485    -10.90121220     17.33758129
C       7.26566229    -10.95154549      7.57430965
H       6.14450065    -10.68614725      7.13746316
C       7.33527758     10.97429989     -0.39322810
H       6.80884557    -11.55811944      8.53970556
H      14.77897570     14.32441354      7.17618782
H       6.76364781     11.57951297      0.43377334
C       8.11118119     10.14546397     -1.53043067
H      17.88338276      3.36580425     -5.81740381
C      16.77957168      3.14573291     -5.70686863
H      -4.59878514      0.00731361     -4.83553131
H       7.59722628      9.04325127     -1.69806049
H      -3.06531045     10.15425089     10.33477117
C      17.30483067    -10.24701338     -8.25161531
H      -2.11356179     -0.62097893      8.57929291
H      -5.78858248      8.54817170     -1.07600076
C       6.23243749     -3.11049894     -2.33479863
H      -0.03918239     -2.30231804      9.62507442
C       1.47816329    -10.71754003     17.93036130
H       6.05661316     -3.17519749     -1.12384459
H     -10.96213750    -12.27297513     15.66815006
H       1.07345228     -9.60109863     18.09677502
C      -4.75689515     -0.92996909     -5.55856297
H      -2.80393168      8.82460308     -1.73735728
C      -3.34293045     11.24192217     -2.19873943
H      -5.88736360     -1.15418988     -5.87028086
H      -3.54500133     11.91998144     -1.18804098
H      -2.19736657     11.53885141     -2.54228682
H      -3.95456569     11.82648115     -3.09498324
H      17.78135304     -9.90381093     -9.26784798
H      16.46726042    -11.95404453     -7.17219764
H      17.13189250    -10.72076850     -5.80045974
H       2.94094024      0.53127785      6.82996572
H       0.20464462     -0.45381378     10.12504263
H       0.85681280    -11.65031106     18.35672703
H       7.55552508      0.34251846     -3.78870093
H      -9.42678094     -2.95208992     23.99740122
H       4.51804370     15.28992470     22.01057896
H      14.23846727     13.24985627      7.62804100
H       3.32907729     -1.75613478     10.51665929
H      27.33220540      7.71704005     -1.92438844
H      -4.90805671      9.28742746     10.64602935
H      28.02234936      7.86544987     -1.59261248
H      -1.23268866     -1.77857938      5.78535477
H       8.70377261    -12.48556623      6.08668837
H       6.56902974     -6.92907532    -14.34156493
H       4.40262826     -2.11370650      9.33772107
C      -1.11038933     -0.83676792      6.52495033
C     -10.36016170    -12.21607018     16.66241972
C       2.43015269     -0.16457093      7.61922497
C       1.89595737     -1.17392954      8.72656301
C       8.01613570      0.29843792     -1.47966398
C       7.62272063     17.61444929     11.12799855
C       3.17836447     -2.04766812      9.32904708
C      -4.02772092      9.59315480      9.89190576
C       8.59078730     16.77567104     10.28684721
C      -5.12637584      8.88817698     -2.02199080
C      -3.63289327     -1.81010795     -6.20919693
C       6.47797892     -1.55893953     -2.67119096
C      16.59875747    -10.76428023     -6.90449542
C      -3.68220243      9.63128796     -1.97711872
C       8.20980574    -11.40432562      6.29736152
H       9.28793508      9.96426098     -1.23120855
H      -3.11178762    -13.81828914    -10.93542385
H      15.61713109    -10.07450194     -6.64322171
H      -9.29848630     -2.27986798     24.37164463
H      -9.75818612    -12.15916552     17.65668952
H      16.86493811      5.70433729     14.55454010
H       8.61063065      0.51258501     -0.50145546
H       5.21428487     15.49658401     22.29507925
H       6.89261190     18.24949637     11.76588815
H      -3.09888190     -2.40698702     -7.05520607
H      -4.10823342      9.34324886      8.72127254
H      -7.60880992     21.24279761      9.77834029
H       5.35076722     -3.90039308     -2.64118114
H      -1.06969469      0.15768863      5.84692740
H       7.93422550    -10.19308956      8.27897899
H       7.15033717     -3.65011365     -2.93822596
H      -7.74200166     21.25141170     10.54683614
   94

C       6.91439787     -7.27103740    -13.24533402
C      -3.33981144    -13.05154916    -10.13445623
H       7.59438728     -6.54390559    -12.57688849
C      -1.00493437     -0.87919415      8.14318358
H      -5.76458587      8.59286614     -3.00933409
H       3.13264402     -3.13078360      8.73989791
C       0.27932982     -1.20483978      9.14908077
H       6.57978544     -8.34013258    -12.81755396
H      -9.00632268     -6.97080991    -19.18213375
H      -8.99860967     -7.74020326    -19.05417134
C       7.29987801     -0.22122616     -2.76725655
H      17.09303805      4.81044400     14.77631799
C       8.63269441    -10.45406421      5.10593484
H       8.06407404     10.72278729     -2.66099432
H       8.88491814     -9.67542159      4.27303386
H       2.50422837    -10.90119333     17.33757275
C       7.26538496    -10.95104474      7.57454199
H       6.14442193    -10.68142327      7.13969537
C       7.31154397     10.95314068     -0.45198577
H       6.81248478    -11.56502576      8.53724259
H      15.36514122     14.09924607      6.87910621
H       6.74068677     11.55840343      0.37551478
C       8.08712729     10.12425752     -1.58938215
H      17.88848815      3.36829120     -5.82352767
C      16.78467719      3.14822937     -5.71297012
H      -4.60393307      0.00596100     -4.83681458
H       7.57314602      9.02207411     -1.75713196
H      -3.06460829     10.15441887     10.33424137
C      17.30565319    -10.24460366     -8.25079019
H      -2.11352975     -0.62028471      8.57814902
H      -5.80298541      8.54857825     -1.07680073
C       6.23644564     -3.11385725     -2.33195545
H      -0.03909638     -2.30079311      9.62443238
C       1.47816699    -10.71752114     17.93035312
H       6.06082313     -3.17708512     -1.12076254
H     -10.96213228    -12.27296919     15.66814783
H       1.07345661     -9.60107937     18.09676600
C      -4.76795790     -0.92822294     -5.56278083
H      -2.81820024      8.82431301     -1.73915953
C      -3.35685919     11.24179019     -2.19959690
H      -5.89947443     -1.15348644     -5.87007741
H      -3.55867417     11.91983697     -1.18884003
H      -2.21117975     11.53857600     -2.54289753
H      -3.96842455     11.82653261     -3.09576891
H      17.78282780     -9.90186763     -9.26691042
H      16.46173228    -11.95575286     -7.16690822
H      17.13700942    -10.71996102     -5.80383774
H       2.93866662      0.53276025      6.83092444
H       0.20453732     -0.45198446     10.12449516
H       0.85681696    -11.65029224     18.35671941
H       7.55183638      0.34072638     -3.78709854
H      -9.42677587     -2.95208855     23.99739513
H       4.46252005     15.24986924     22.21759808
H      14.87687069     13.13065321      7.28657587
H       3.32950153     -1.76176819     10.51807037
H      27.33838523      7.71948887     -1.92230738
H      -4.90852186      9.28707528     10.64570170
H      28.02851510      7.86791370     -1.59050880
H      -1.23273547     -1.77911139      5.78534649
H       8.70327930    -12.48558188      6.08712978
H       6.56902497     -6.92907547    -14.34155724
H       4.40390341     -2.10893718      9.33176080
C      -1.11063020     -0.83679527      6.52434014
C     -10.36015638    -12.21606408     16.66241741
C       2.43012983     -0.16319041      7.62151315
C       1.89683315     -1.17408726      8.72779752
C       8.01897530      0.29696517     -1.47664446
C       7.30706554     17.89118966     11.24001777
C       3.17917079     -2.04891512      9.32933828
C      -4.02753738      9.59328225      9.89249118
C       8.27015887     17.05558636     10.40172144
C      -5.14051260      8.88779669     -2.02289612
C      -3.64682647     -1.80791582     -6.21909908
C       6.48541867     -1.56307799     -2.66735521
C      16.59868209    -10.76513901     -6.90527634
C      -3.69645854      9.63116774     -1.97833604
C       8.20949341    -11.40425017      6.29771153
H       9.26386205      9.94315643     -1.29001233
H      -3.11178642    -13.81828600    -10.93542013
H      15.61531048    -10.07712903     -6.64612132
H      -9.29848153     -2.27986672     24.37163884
H      -9.75818074    -12.15915934     17.65668716
H      16.91709051      5.56394192     14.67792015
H       8.61243549      0.51468784     -0.49864972
H       5.15875260     15.45653331     22.50211591
H       6.57803828     18.52570877     11.87765447
H      -3.09997394     -2.40907438     -7.05384790
H      -4.10803004      9.34339990      8.72189521
H      -7.60905701     21.24282760      9.77831831
H       5.34747431     -3.89322667     -2.64436692
H      -1.07108449      0.15707066      5.84537877
H       7.93062660    -10.18918703      8.27873405
H       7.15461118     -3.65570742     -2.93339534
H      -7.74225058     21.25144211     10.54681388
   94

C       6.91439268     -7.27103324    -13.24532188
C      -3.33980844    -13.05154377    -10.13445129
H       7.59438070     -6.54390108    -12.57687532
C      -1.00456057     -0.87816535      8.14259831
H      -5.77810779      8.59109661     -3.01018362
H       3.13373846     -3.13469522      8.74505390
C       0.27973700     -1.20334715      9.14879450
H       6.57978011     -8.34012837    -12.81754179
H      -9.00632296     -6.97081121    -19.18213547
H      -8.99860982     -7.74020450    -19.05417270
C       7.30362263     -0.22358190     -2.76422128
H      17.14534197      4.67021743     14.89969841
C       8.63291339    -10.45473570      5.10592278
H       8.04028234     10.70141165     -2.71991839
H       8.88583845     -9.67681642      4.27257204
H       2.50423423    -10.90116982     17.33756261
C       7.26511081    -10.95053587      7.57477731
H       6.14435340    -10.67672678      7.14193825
C       7.28804304     10.93198674     -0.51068480
H       6.81612681    -11.57184728      8.53475212
H      15.94874207     13.87436479      6.58277758
H       6.71781436     11.53729951      0.31721175
C       8.06339441     10.10305477     -1.64820994
H      17.89357556      3.37079619     -5.82962875
C      16.78976377      3.15075532     -5.71903588
H      -4.60901865      0.00455034     -4.83812551
H       7.54939930      9.00089608     -1.81608563
H      -3.06383077     10.15466606     10.33371943
C      17.30646541    -10.24218268     -8.24996181
H      -2.11348166     -0.61958127      8.57700829
H      -5.81736633      8.54899442     -1.07759248
C       6.24042660     -3.11718196     -2.32911905
H      -0.03898605     -2.29925848      9.62378593
C       1.47817303    -10.71749772     17.93034336
H       6.06504289     -3.17892948     -1.11767995
H     -10.96212587    -12.27296177     15.66814525
H       1.07346340     -9.60105551     18.09675540
C      -4.77900793     -0.92649725     -5.56699317
H      -2.83244373      8.82403073     -1.74094722
C      -3.37075638     11.24166533     -2.20043614
H      -5.91156873     -1.15277478     -5.86984347
H      -3.57231543     11.91969876     -1.18962030
H      -2.22496021     11.53830623     -2.54348747
H      -3.98225066     11.82659236     -3.09653634
H      17.78429935     -9.89992164     -9.26596885
H      16.45622444    -11.95742423     -7.16157635
H      17.14210156    -10.71918423     -5.80723849
H       2.93641118      0.53425869      6.83188664
H       0.20444656     -0.45014558     10.12394742
H       0.85682344    -11.65026892     18.35671016
H       7.54814379      0.33895014     -3.78543755
H      -9.42676842     -2.95208452     23.99738769
H       4.40698011     15.20987886     22.42447091
H      15.51327799     13.01127230      6.94536525
H       3.32996578     -1.76734716     10.51945032
H      27.34465652      7.72188666     -1.92029910
H      -4.90890580      9.28678139     10.64538643
H      28.03476755      7.87033146     -1.58847019
H      -1.23277041     -1.77962941      5.78533999
H       8.70279073    -12.48558713      6.08756725
H       6.56902130     -6.92907242    -14.34154593
H       4.40512502     -2.10420693      9.32583234
C      -1.11085793     -0.83680945      6.52373172
C     -10.36014983    -12.21605646     16.66241472
C       2.43012324     -0.16178801      7.62380057
C       1.89772335     -1.17422334      8.72902785
C       8.02183573      0.29553727     -1.47359545
C       6.99192857     18.16735856     11.35170311
C       3.17998776     -2.05014493      9.32962773
C      -4.02727361      9.59347590      9.89309235
C       7.95016177     17.33503719     10.51627123
C      -5.15462510      8.88742578     -2.02379117
C      -3.66083217     -1.80569277     -6.22919355
C       6.49291301     -1.56718662     -2.66349186
C      16.59860456    -10.76600318     -6.90606081
C      -3.71068929      9.63105519     -1.97953920
C       8.20918581    -11.40416525      6.29806226
H       9.24009866      9.92211612     -1.34861251
H      -3.11178423    -13.81828088    -10.93541517
H      15.61350507    -10.07974758     -6.64902905
H      -9.29847423     -2.27986273     24.37163153
H      -9.75817411    -12.15915161     17.65668441
H      16.96939717      5.42367320     14.80096763
H       8.61426111      0.51686712     -0.49583532
H       5.10319751     15.41654231     22.70902607
H       6.26390086     18.80130231     11.98904862
H      -3.10106061     -2.41109683     -7.05228815
H      -4.10775087      9.34361227      8.72253450
H      -7.60932876     21.24285440      9.77829086
H       5.34430651     -3.88596569     -2.64751958
H      -1.07246178      0.15646453      5.84383368
H       7.92703320    -10.18531192      8.27849748
H       7.15886137     -3.66127082     -2.92855506
H      -7.74252775     21.25146988     10.54678551
   94

C       6.91444515     -7.27097472    -13.24531730
C      -3.33980010    -13.05152339    -10.13445385
H       7.59443305     -6.54383979    -12.57687335
C      -1.00436926     -0.87708604      8.14162151
H      -5.79151396      8.58883657     -3.01115999
H       3.13580853     -3.14265400      8.75532839
C       0.28020384     -1.20126555      9.14816608
H       6.57983593     -8.34007211    -12.81753988
H      -9.00629938     -6.97077983    -19.18209263
H      -8.99858819     -7.74017383    -19.05413396
C       7.30715463     -0.22569180     -2.76042023
H      17.19979883      4.52796053     15.02483047
C       8.63353397    -10.45633508      5.10580821
H       8.01637285     10.67785921     -2.78094891
H       8.88703818     -9.67898981      4.27210929
H       2.50425844    -10.90118632     17.33758517
C       7.26466505    -10.94979724      7.57517735
H       6.14450549    -10.66759107      7.14597223
C       7.26308829     10.90844642     -0.57208741
H       6.82297469    -11.58461293      8.52998082
H      16.52036514     13.59177199      6.30192900
H       6.69197554     11.51380686      0.25515539
C       8.03915239     10.07959473     -1.70918014
H      17.89885942      3.37425822     -5.83497049
C      16.79503072      3.15429278     -5.72440802
H      -4.61182725      0.00285053     -4.83970852
H       7.52539462      8.97739840     -1.87754255
H      -3.06266179     10.15556607     10.33264172
C      17.30893199    -10.23622719     -8.24749365
H      -2.11387097     -0.61913560      8.57508800
H      -5.83201315      8.54988029     -1.07850804
C       6.24588795     -3.12140633     -2.32609982
H      -0.03891692     -2.29724685      9.62222391
C       1.47819573    -10.71751696     17.93036419
H       6.07243363     -3.17999612     -1.11388166
H     -10.96213609    -12.27297242     15.66815272
H       1.07348491     -9.60107587     18.09678088
C      -4.79213952     -0.92464094     -5.57117349
H      -2.84693055      8.82396196     -1.74330647
C      -3.38447407     11.24181537     -2.20134271
H      -5.92603241     -1.15163852     -5.86901735
H      -3.58567964     11.91991760     -1.19050439
H      -2.23840389     11.53811977     -2.54380102
H      -3.99572469     11.82703515     -3.09741960
H      17.78630578     -9.89692253     -9.26479890
H      16.44566074    -11.96029400     -7.15133918
H      17.15157369    -10.71817282     -5.81348402
H       2.93232571      0.53534035      6.83301735
H       0.20379020     -0.44757315     10.12294394
H       0.85684386    -11.65028868     18.35672652
H       7.54163887      0.33594818     -3.78430836
H      -9.42675544     -2.95204824     23.99740376
H       4.35105040     15.17066076     22.63443181
H      16.19117610     12.93928457      6.57450061
H       3.33026134     -1.77821329     10.52223044
H      27.34947999      7.72515486     -1.91711422
H      -4.90995714      9.28641751     10.64478683
H      28.03965355      7.87353058     -1.58538466
H      -1.23330998     -1.78037892      5.78511107
H       8.70203030    -12.48586412      6.08842511
H       6.56906649     -6.92901223    -14.34153868
H       4.40713843     -2.09577249      9.31498663
C      -1.11191313     -0.83689109      6.52274913
C     -10.36016020    -12.21606716     16.66242232
C       2.42969353     -0.16032555      7.62752827
C       1.89914368     -1.17499170      8.73141054
C       8.02430293      0.29419682     -1.46951265
C       6.66930941     18.44969904     11.46773535
C       3.18138138     -2.05289577      9.33034628
C      -4.02707068      9.59413721      9.89430322
C       7.61787291     17.62355999     10.63866167
C      -5.16879886      8.88705209     -2.02484779
C      -3.67814035     -1.80287739     -6.24291156
C       6.50262870     -1.57237557     -2.65885825
C      16.59866453    -10.76749869     -6.90748385
C      -3.72512657      9.63125094     -1.98106781
C       8.20868526    -11.40430200      6.29866308
H       9.21568198      9.89912301     -1.40861555
H      -3.11177660    -13.81826260    -10.93541594
H      15.60999529    -10.08482827     -6.65499546
H      -9.29845674     -2.27982476     24.37164303
H      -9.75818431    -12.15916191     17.65669192
H      17.02396443      5.28141364     14.92588305
H       8.61648770      0.52073034     -0.49287817
H       5.04726845     15.37726975     22.91902475
H       5.94317552     19.08293374     12.10388767
H      -3.09884787     -2.41327480     -7.04897753
H      -4.10754868      9.34423845      8.72383897
H      -7.60795419     21.24264930      9.77839801
H       5.33803529     -3.87225203     -2.65452608
H      -1.07532454      0.15549311      5.84144373
H       7.92021746    -10.17786299      8.27766742
H       7.16580052     -3.66832201     -2.92170358
H      -7.74116572     21.25126849     10.54689030
