   94
energy=      0.00000000
C      10.83135352     -8.23513031     -9.00318205
C      -0.18156192    -11.29342002    -10.07441688
H      10.94107660     -7.31657652     -8.18100274
C      -0.25194816     -0.95220184      8.29289944
H      -5.18085303      7.47373867     -2.41887230
H      -0.41538673    -10.50531891     -9.25076172
C       0.95447188     -1.04109611      9.39615600
H      10.03289479     -8.94039538     -8.37025524
H      -8.82389101     -7.11496087    -18.93572149
H      -8.81617982     -7.88435486    -18.80776282
C       4.77427223     -0.68558963     -4.34953087
H      16.26525229      6.32974144     13.57266113
C       8.30692347     -9.94104540      5.44988916
H       8.57026653     12.65488111      2.14916280
H       8.47368069     -9.29530390      4.48378980
H       2.50425844    -10.90118632     17.33758517
C       6.59080939    -10.69662826      7.45817895
H       5.49284760    -10.76417039      6.95943310
C       8.17823914     12.76826617      4.58420518
H       6.27929603    -10.50762564      8.60979559
H       9.97178560     13.62426279      5.97326507
H       7.08027206     13.29740902      4.49775846
C       8.65855574     11.99225825      3.18604984
H      16.85665692      2.91566089     -5.08201493
C      15.75282822      2.69569544     -4.97145247
H       2.87771987      0.18614593     -3.57997297
H       8.07593698     10.91905385      3.00257853
H      -2.53866815     10.59090038     11.83149567
C      12.21418433     -8.98883612     -9.67191811
H      -1.28639037     -0.58812453      8.82262462
H      -5.01998879      7.48839792     -0.66927614
C       1.65481985     -2.78026822     -3.41583666
H       0.96521151     -2.17080157      9.84151000
C       1.47819573    -10.71751696     17.93036419
H       1.22126628     -2.75586022     -2.28849727
H     -10.96213609    -12.27297242     15.66815272
H       1.07348491     -9.60107587     18.09678088
C       0.39555825     -0.96028505     -5.23395889
H      -1.91448385      7.81720619     -1.22009491
C      -2.50231721     10.05541030     -1.73232336
H      -0.60692941     -0.68757615     -5.81161283
H      -2.68655683     10.74979728     -0.72754148
H      -1.33502469     10.29818882     -2.05566828
H      -3.03863355     10.73604694     -2.60800370
H      12.48794127     -8.65313743    -10.83507722
H      12.04687630    -10.15543163    -10.06336050
H      14.01386586     -9.65249796     -7.87845783
H       3.43409245      1.25507844      7.83371755
H       1.44138697      1.05100899     10.39990120
H       0.85684386    -11.65028868     18.35672652
H       5.80688753     -0.75074515     -4.93629232
H      -9.42675544     -2.95204824     23.99740376
H       6.31478886     15.06785132     16.37366327
H       9.29457240     11.90553913      6.57417439
H       3.04099722     -0.51732774     12.29580393
H      26.59648769      7.39426669     -2.17327341
H      -4.57246620      9.51177598     11.49105931
H      27.28666125      7.54264242     -1.84154386
H       0.58495782     -2.02856776      6.20468951
H       8.36751516    -12.00052679      6.47481168
H      10.04246873     -7.63458910     -9.74550906
H       4.32569821     -0.65851718     11.02388296
C      -0.26479539     -1.25882780      6.65682435
C     -10.36016020    -12.21606716     16.66242232
C       2.84007461      0.76279200      8.71971398
C       2.05232299      0.08006129      9.94747459
C       6.00466551     -0.31214766     -3.43883716
C       8.17977809     13.77083288      7.22319769
C       3.15536723     -0.36802206     11.10194819
C      -3.55556718     10.05133818     11.66127749
C       8.93684900     12.96424227      6.05339516
C      -4.24215401      7.43414134     -1.62473083
C       1.73933038     -1.63405136     -4.60628406
C       3.13460915     -0.75757310     -4.28221716
C      13.62255751     -8.94432529     -8.77889797
C      -2.90926404      8.44413608     -1.54219402
C       8.08589784    -10.83861360      6.76691800
H       9.82923753     11.64260832      3.02229717
H       0.05225894    -12.08152127    -10.89807302
H      -1.26830313     -1.80993143      6.19920568
H      -9.29845674     -2.27982476     24.37164303
H      -9.75818431    -12.15916191     17.65669192
H      16.08941789      7.08319455     13.47371370
H       6.66998024      0.05100800     -2.54989982
H       7.01100691     15.27446031     16.65825623
H       7.67625530     14.59135583      7.89703805
H       1.50246185     -2.32299186     -5.58236026
H      -3.90082550      6.27297218     -1.86887874
H      -7.60020280     21.22156798      9.78123602
H       2.08772819     -3.90899399     -3.45619333
H      -0.13071415     -0.25124992      5.95755078
H       9.03376789    -10.54724074      7.49457565
H      14.56074608     -8.17983963     -8.81399954
H      -7.73341433     21.23018717     10.54972831
   94
energy=      0.00000000
C      10.83137502     -8.23501779     -9.00323688
C      -0.18161430    -11.29358944    -10.07451831
H      10.94136101     -7.31332995     -8.18458836
C      -0.23145847     -0.86890614      8.33303276
H      -5.13933323      7.53145952     -2.45749103
H      -0.41543830    -10.50548830     -9.25086295
C       0.90446384     -0.69356395      9.54231601
H      10.03556687     -8.93978898     -8.36642379
H      -8.82389101     -7.11496087    -18.93572149
H      -8.81617982     -7.88435486    -18.80776282
C       4.76300345     -0.68612216     -4.33251630
H      16.26525229      6.32974144     13.57266113
C       8.30629707     -9.94107598      5.45125321
H       8.56671304     12.65359943      2.14429891
H       8.46795029     -9.29280713      4.48601329
H       2.50425844    -10.90118632     17.33758517
C       6.59145210    -10.69603856      7.45691483
H       5.49409825    -10.76545339      6.95703955
C       8.18496480     12.76807324      4.58040285
H       6.27875348    -10.50215027      8.60736186
H       9.99391875     13.61118483      5.97097702
H       7.08148711     13.28581424      4.49919567
C       8.65857741     11.99024230      3.18066299
H      16.85665692      2.91566089     -5.08201493
C      15.75282822      2.69569544     -4.97145247
H       2.86211024      0.24577505     -3.61890984
H       8.07455588     10.91768953      2.99675404
H      -2.53866815     10.59090038     11.83149567
C      12.21436013     -8.98820373     -9.67222791
H      -1.32854958     -0.60537700      8.79838357
H      -4.98711061      7.49414587     -0.64500872
C       1.65820519     -2.79306342     -3.41152804
H       0.94367918     -1.89412880      9.85619495
C       1.47819573    -10.71751696     17.93036419
H       1.19457813     -2.74504070     -2.29678679
H     -10.96213609    -12.27297242     15.66815272
H       1.07348491     -9.60107587     18.09678088
C       0.43503654     -0.97067809     -5.19297435
H      -1.89884331      7.80278247     -1.20409542
C      -2.51111140     10.04713827     -1.73287184
H      -0.56281182     -0.63932470     -5.73720332
H      -2.70293785     10.73932914     -0.72804049
H      -1.35093691     10.31211896     -2.06247655
H      -3.06834164     10.70433887     -2.61366143
H      12.48877929     -8.65102899    -10.83480857
H      12.04685289    -10.15429538    -10.06510379
H      14.01329994     -9.65467507     -7.87901507
H       3.48466183      1.31351208      7.77285100
H       0.75566744      0.37175602     10.13104064
H       0.85684386    -11.65028868     18.35672652
H       5.62055621     -0.84314648     -5.15161031
H      -9.42675544     -2.95204824     23.99740376
H       6.31473543     15.06791887     16.37398524
H       9.27597952     11.92104592      6.59058576
H       3.05230731     -0.48943795     12.34838680
H      26.59648769      7.39426669     -2.17327341
H      -4.57246620      9.51177598     11.49105931
H      27.28666125      7.54264242     -1.84154386
H       0.58422016     -2.02050089      6.23864677
H       8.36920065    -12.00217896      6.47611941
H      10.03949904     -7.63875398     -9.74583297
H       4.42895684     -0.68757789     11.04723877
C      -0.25403534     -1.24342908      6.70159163
C     -10.36016020    -12.21606716     16.66242232
C       2.97024692      0.81443085      8.68700513
C       2.37742903     -0.05331889      9.86647142
C       5.91241679     -0.29859770     -3.32041387
C       8.18367301     13.80474674      7.20311523
C       3.28391659     -0.37677646     11.17069052
C      -3.55556718     10.05133818     11.66127749
C       8.94243940     12.97689447      6.04874085
C      -4.23734898      7.44188950     -1.62403900
C       1.78437022     -1.66638729     -4.61677651
C       3.12857347     -0.73571437     -4.26542133
C      13.62233029     -8.94509939     -8.77849244
C      -2.89148852      8.43155984     -1.53276841
C       8.08717612    -10.84018631      6.76752128
H       9.82782577     11.63670696      3.01568457
H       0.05220737    -12.08169066    -10.89817425
H      -1.24720581     -1.80489704      6.22889338
H      -9.29845674     -2.27982476     24.37164303
H      -9.75818431    -12.15916191     17.65669192
H      16.08941789      7.08319455     13.47371370
H       6.68690959      0.05203705     -2.51685745
H       7.01095348     15.27452786     16.65857820
H       7.66172054     14.56457685      7.93206049
H       1.70233914     -2.31453908     -5.65194632
H      -3.94414409      6.26771069     -1.86652913
H      -7.60020280     21.22156798      9.78123602
H       2.07873331     -3.92605577     -3.41884702
H      -0.13187023     -0.25751209      5.97115941
H       9.03581011    -10.55126412      7.49516848
H      14.56054053     -8.18056614     -8.81193048
H      -7.73341433     21.23018717     10.54972831
