   94

C       7.14629554     -6.79675131     -7.70693128
C       5.72352124     -7.64048050     -7.23360044
H       7.40966990     -5.93531256     -6.84749767
C       2.14599678     -2.73681426      5.82859250
H     -18.89185999     -7.18329685     -1.80818867
H       4.72283046     -7.05677061     -6.79179943
C       3.31263893     -3.16982535      6.98825072
H       5.79828469     -8.46948378     -6.31418064
H      -7.96289402     -6.52827924    -17.27785125
H      -7.95518284     -7.29767323    -17.14989258
C      13.70362908      2.04743089      1.35473271
H      15.83251165      6.65765200     13.29592656
C       6.01785412     -4.50184983      4.68138856
H       8.74196411     10.58844753      1.86021162
H       6.42892590     -4.05154666      3.67479807
H       2.69025793     -9.81327524     15.56566361
C       4.03532347     -4.74419292      6.80365516
H       3.21076031     -5.58177941      6.39943340
C       7.95288058     11.52068700      4.48660746
H       4.01495247     -5.36196969      7.88432693
H       7.70605749     13.09878046      5.83302035
H       7.15362070     12.22267138      3.92258107
C       8.35393469     10.76969349      2.99225450
H      12.46188946      1.50482382     -1.59470434
C      11.79760310      1.88446053     -0.66958700
H      15.63456328      3.47654313      1.53398668
H       7.49862966     10.09976871      2.40523797
H      -1.89885065     10.00506001     11.47761351
C       8.54776524     -7.62473029     -8.27722315
H       1.17685287     -2.12816316      6.26905820
H     -19.27118577     -7.16726916     -1.12682601
C      -2.92948981    -10.06668835     -0.65568032
H       2.53367444     -3.35110798      7.94059892
C       1.66419523     -9.62960592     16.15844264
H      -3.74049201    -10.53758477      0.03331693
H     -10.65591191    -12.22067050     15.67743537
H       1.25948445     -8.51316480     16.32485930
C      -4.11283015     -0.51440436     -7.82060225
H      -0.00855971     10.90396720     -2.37565125
C      -2.25494698      9.83576359     -1.70203627
H      -4.61699753      0.39217379     -8.34796981
H      -2.45855221     10.30185731     -0.57919273
H      -2.77648612      8.72417576     -1.61102174
H      -3.02887250     10.39183367     -2.48355423
H       8.84487389     -7.41463741     -9.46388905
H       8.45045924     -8.81054182     -8.62554103
H      10.30987295     -8.23594705     -6.42078313
H       5.25019140     -0.09241604      5.59350369
H       3.60424338     -0.86965609      8.02769739
H       1.04284337    -10.56237766     16.58480497
H      10.76169058      2.29156766     -1.11836714
H      -9.42675544     -2.95204824     23.99740376
H       6.97683994     12.24407770      8.76816896
H       7.75838032     10.73966420      6.46053997
H       5.27375523     -2.07568514      9.95887520
H      23.68739798      6.18932909     -2.70616817
H      -3.93264863      8.92593565     11.13717716
H      24.37757154      6.33770482     -2.37443862
H       2.43833176     -3.63668430      3.43906091
H       5.73208510     -6.36494996      5.74064455
H       6.86957689     -5.83800057     -8.45343501
H       6.58424613     -2.01339751      8.75667125
C       1.83195583     -2.87321516      4.18613068
C     -10.05393498    -12.16376545     16.67170436
C       4.86111842     -0.86508349      6.39356436
C       4.23872795     -1.81827891      7.54454865
C      12.22280249      1.86530851      0.88118445
C       7.78872848     12.45736917      7.86278673
C       5.37595226     -1.97054527      8.75643023
C      -2.91588689      9.46576497     11.30736850
C       7.84709781     11.93282413      6.17755354
C       0.30527180      8.70036732     -2.40758288
C      16.11680760      1.27876733      2.18383480
C      15.18763249      2.38785192      1.67529793
C       9.94112314     -7.56301978     -7.35771521
C      -0.67053621      9.91672385     -2.16109834
C       5.52094784     -5.18577964      6.05729864
H       9.40221822     10.74187810      2.37294758
H       5.09430126     -8.29266294     -8.08049554
H       0.71515995     -3.30669324      3.88255547
H      -9.29845674     -2.27982476     24.37164303
H      -9.45196013    -12.10686000     17.66597458
H      15.65667725      7.41110511     13.19697914
H      11.49949550      1.74323946      1.82812470
H       8.62267140     12.35029857      8.76998905
H       7.60766790     13.53545849      8.43825859
H      -3.60866278     -1.42098250     -7.29323469
H       0.97782256      7.76066896     -2.56948479
H      -7.32753058     20.54354438      9.86115128
H      -2.11848761     -9.59579193     -1.34467757
H       2.00900885     -1.84488197      3.52548942
H       6.56726566     -5.12892107      6.71197985
H      10.89559271     -6.81832454     -7.40855694
H      -7.46074211     20.55216357     10.62964357
   94

C       7.14495239     -6.79949307     -7.70983097
C       5.72284252     -7.64329517     -7.23471224
H       7.40832408     -5.93717983     -6.85130072
C       2.13511933     -2.76348644      5.85135498
H     -18.89196852     -7.18335082     -1.80819035
H       4.72231508     -7.05983417     -6.79220520
C       3.30244084     -3.19519782      7.01085271
H       5.79852921     -8.47205155     -6.31516121
H      -7.96307238     -6.52847102    -17.27811103
H      -7.95535407     -7.29786263    -17.15013849
C      13.21343081      2.33838419      1.19017344
H      15.85880152      6.64002798     13.32402481
C       6.00667045     -4.52552663      4.70269711
H       8.75021009     10.81446638      2.00202043
H       6.41554849     -4.07718230      3.69441502
H       2.68842189     -9.82814183     15.58978578
C       4.02562038     -4.76911864      6.82551982
H       3.20142550     -5.60710579      6.42128857
C       7.94633501     11.69498826      4.62277018
H       4.00562504     -5.38746802      7.90586553
H       7.80881914     13.26676282      5.97250387
H       7.13199705     12.39062416      4.06842521
C       8.37927694     10.93421231      3.15057503
H      12.24079324      1.40366594     -1.83309521
C      11.50599256      1.76499207     -0.95246911
H      15.05910643      3.79879926      1.29960260
H       7.54998770     10.20275920      2.60311899
H      -1.89979458     10.00509906     11.47944255
C       8.54691900     -7.62692239     -8.27959815
H       1.16389245     -2.15851356      6.29231561
H     -19.27128816     -7.16731799     -1.12682440
C      -2.93231738    -10.06972981     -0.65799587
H       2.52450204     -3.37633046      7.96410698
C       1.66234284     -9.64445583     16.18253047
H      -3.74330896    -10.54053789      0.03107210
H     -10.66130183    -12.22185994     15.67769653
H       1.25763574     -8.52801840     16.34897780
C      -4.11464455     -0.51737234     -7.82261531
H       0.40789203     10.60226588     -2.41448826
C      -1.83272818      9.57041251     -1.76994034
H      -4.61884476      0.38904687     -8.35023241
H      -2.08932056     10.05742940     -0.66683568
H      -2.40419236      8.48302387     -1.69020013
H      -2.58695106     10.13386193     -2.56596545
H       8.84484882     -7.41594160     -9.46589714
H       8.44957914     -8.81241285     -8.62896470
H      10.30712014     -8.23920369     -6.42157725
H       5.24652933     -0.12386311      5.61496269
H       3.59319632     -0.89458811      8.04826437
H       1.04096479    -10.57723297     16.60884134
H      10.52853929      2.19569889     -1.49880132
H      -9.42681711     -2.95206566     23.99748698
H       6.99260296     12.36481571      8.88634760
H       7.80486107     10.89565914      6.58684850
H       5.26599345     -2.09944934      9.98079660
H      23.69337845      6.19210932     -2.71018469
H      -3.93344794      8.92585522     11.13854579
H      24.38298148      6.34001831     -2.37706567
H       2.43058435     -3.65962381      3.46045829
H       5.72350190     -6.38825314      5.76165669
H       6.86734113     -5.84148017     -8.45694638
H       6.57528502     -2.03203879      8.77847353
C       1.82299838     -2.89792149      4.20833678
C     -10.05932627    -12.16495357     16.67196636
C       4.85378558     -0.89421701      6.41525137
C       4.22851007     -1.84378590      7.56724866
C      11.82014240      1.88312369      0.62172773
C       7.81779726     12.60187157      7.99844742
C       5.36681447     -1.99351791      8.77836831
C      -2.91673313      9.46570119     11.30895415
C       7.88200545     12.09260610      6.31330084
C       0.80038016      8.41191218     -2.34165322
C      15.69145756      1.63417263      2.05507981
C      14.69996235      2.69223131      1.52062625
C       9.93965606     -7.56638345     -7.35909021
C      -0.22812955      9.60566645     -2.17489622
C       5.51136232     -5.20947262      6.07894595
H       9.46515360     10.87672540      2.60153535
H       5.09325987     -8.29582476     -8.08105211
H       0.70736414     -3.33242452      3.90201310
H      -9.29851576     -2.27984143     24.37172401
H      -9.45735312    -12.10804656     17.66623761
H      15.68311623      7.39351092     13.22503880
H      11.04086650      1.71589642      1.51644758
H       8.66729916     12.47851888      8.88993301
H       7.63713742     13.68508742      8.56528028
H      -3.61039185     -1.42372341     -7.29493271
H       1.38718624      7.44890159     -2.63657271
H      -7.32770004     20.54361615      9.86116906
H      -2.12132590     -9.59893078     -1.34707003
H       1.99954455     -1.86799062      3.55007481
H       6.55777428     -5.15072599      6.73322384
H      10.89534234     -6.82328134     -7.41027664
H      -7.46090527     20.55223839     10.62966243
   94

C       7.14327954     -6.80351626     -7.71362775
C       5.72182969     -7.64718339     -7.23640321
H       7.40664572     -5.94031477     -6.85603169
C       2.12435899     -2.79031527      5.87460935
H     -18.89206345     -7.18338543     -1.80819085
H       4.72147651     -7.06393771     -6.79320237
C       3.29246809     -3.22071326      7.03383047
H       5.79847728     -8.47562602     -6.31667012
H      -7.96326989     -6.52865019    -17.27837051
H      -7.95554506     -7.29803986    -17.15038659
C      12.65710240      2.69653711      0.96393272
H      15.88550281      6.62231108     13.35255164
C       5.99559596     -4.54976203      4.72470860
H       8.75664722     11.03480274      2.15111513
H       6.40232823     -4.10403313      3.71450392
H       2.68660173     -9.84306051     15.61402021
C       4.01602944     -4.79425453      6.84787098
H       3.19217736     -5.63262884      6.44365295
C       7.93535423     11.87063469      4.76149546
H       3.99633919     -5.41310814      7.92792953
H       7.91233149     13.43140974      6.11303681
H       7.10817571     12.56289457      4.21819115
C       8.40142992     11.10349282      3.31084280
H      12.07704627      1.24417783     -2.04805418
C      11.26068298      1.58352075     -1.22962481
H      14.42687142      4.16446183      1.02412591
H       7.60036559     10.31632263      2.80142672
H      -1.90058030     10.00514852     11.48069109
C       8.54595266     -7.63020079     -8.28260446
H       1.15111248     -2.18896843      6.31609741
H     -19.27137732     -7.16734865     -1.12682178
C      -2.93525540    -10.07282912     -0.66029586
H       2.51559557     -3.40159581      7.98804524
C       1.66050371     -9.65935659     16.20672574
H      -3.74623033    -10.54353914      0.02885560
H     -10.66671251    -12.22304544     15.67795442
H       1.25580129     -8.54292204     16.37320122
C      -4.11668500     -0.51989644     -7.82446203
H       0.82680297     10.28788695     -2.45702777
C      -1.40502780      9.30152026     -1.83916254
H      -4.62082805      0.38648736     -8.35220294
H      -1.71214470      9.81261794     -0.75972403
H      -2.02762571      8.24171940     -1.77266583
H      -2.13814563      9.87325425     -2.64984980
H       8.84474876     -7.41832048     -9.46852321
H       8.44856054     -8.81536372     -8.63300850
H      10.30423527     -8.24361570     -6.42295252
H       5.24382605     -0.15559429      5.63681706
H       3.58259918     -0.91962572      8.06898094
H       1.03909672    -10.59213836     16.63298295
H      10.35624238      2.03101654     -1.87940346
H      -9.42687154     -2.95207681     23.99755731
H       7.00753939     12.48741057      9.00425584
H       7.85162742     11.05232468      6.71446077
H       5.25882045     -2.12325864     10.00279353
H      23.69810929      6.19341138     -2.71285813
H      -3.93410528      8.92581045     11.13935760
H      24.38727055      6.34115666     -2.37875635
H       2.42256293     -3.68302992      3.48247976
H       5.71505782     -6.41201009      5.78351503
H       6.86474444     -5.84627902     -8.46139120
H       6.56681694     -2.05070256      8.80023806
C       1.81385215     -2.92300526      4.23113032
C     -10.06473805    -12.16613812     16.67222496
C       4.84691227     -0.92364104      6.43705725
C       4.21866689     -1.86945342      7.59012537
C      11.45169378      1.88173691      0.34432879
C       7.84612570     12.74772335      8.13494592
C       5.35817992     -2.01660161      8.80037246
C      -2.91743010      9.46566401     11.30996459
C       7.91574378     12.25304910      6.45048460
C       1.30694146      8.11752350     -2.24161836
C      15.20132402      2.12293060      1.99238707
C      14.12761417      3.07627296      1.38292995
C       9.93805551     -7.57092562     -7.36106430
C       0.21755901      9.28249277     -2.19132352
C       5.50193784     -5.23358950      6.10133103
H       9.51872014     11.02589494      2.82965454
H       5.09186031     -8.30007421     -8.08214785
H       0.69933890     -3.35849244      3.92218220
H      -9.29856745     -2.27985179     24.37179198
H      -9.46276641    -12.10922992     17.66649713
H      15.70992621      7.37582178     13.25358152
H      10.65954392      1.57405267      1.18986873
H       8.71107477     12.60880650      9.01015115
H       7.66564299     13.83650923      8.69193618
H      -3.61243138     -1.42613453     -7.29657887
H       1.77687768      7.16260292     -2.72004970
H      -7.32784239     20.54363591      9.86114037
H      -2.12428310     -9.60214401     -1.34946706
H       1.98985027     -1.89151606      3.57519361
H       6.54849357     -5.17284664      6.75510737
H      10.89515229     -6.82968446     -7.41283259
H      -7.46104473     20.55226787     10.62963416
   94

C       7.14113373     -6.80917951     -7.71868347
C       5.72034091     -7.65235321     -7.23878681
H       7.40463111     -5.94513630     -6.86204259
C       2.11418839     -2.81757371      5.89859488
H     -18.89211592     -7.18338555     -1.80818938
H       4.72026147     -7.06920587     -6.79481621
C       3.28310558     -3.24664462      7.05749021
H       5.79800924     -8.48042221     -6.31883038
H      -7.96347107     -6.52880964    -17.27861428
H      -7.95574198     -7.29819810    -17.15062329
C      12.09892752      2.94892435      0.69459205
H      15.91376040      6.60346589     13.38166037
C       5.98482679     -4.57509675      4.74788195
H       8.75037713     11.28190546      2.31619087
H       6.38964812     -4.13199595      3.73586572
H       2.68470066     -9.85870990     15.63948247
C       4.00656601     -4.82006802      6.87120448
H       3.18293669     -5.65874545      6.46707037
C       7.91182546     12.06370588      4.91584251
H       3.98702365     -5.43929603      7.95104696
H       8.01573501     13.60520641      6.26870548
H       7.07489062     12.75808238      4.38692320
C       8.41353362     11.29772307      3.48506801
H      12.07206458      1.02727348     -2.20018965
C      11.15385193      1.32612572     -1.47601082
H      13.90537422      4.27749612      0.92382434
H       7.63999531     10.46468759      3.00876778
H      -1.90130795     10.00516926     11.48141280
C       8.54461309     -7.63501986     -8.28670992
H       1.13891231     -2.21990408      6.34061230
H     -19.27142561     -7.16734667     -1.12681804
C      -2.93834402    -10.07602183     -0.66266992
H       2.50732329     -3.42695810      8.01274753
C       1.65858369     -9.67498464     16.23214794
H      -3.74930348    -10.54663330      0.02656307
H     -10.67240149    -12.22427510     15.67821283
H       1.25388977     -8.55854941     16.39863742
C      -4.11858913     -0.52192609     -7.82596664
H       1.27143005      9.94824502     -2.49914286
C      -0.95315890      9.01744928     -1.91113627
H      -4.62259203      0.38455054     -8.35369055
H      -1.30883801      9.55558400     -0.85954381
H      -1.62822641      7.98921067     -1.86158710
H      -1.66114773      9.59902287     -2.73816741
H       8.84431455     -7.42214558     -9.47222103
H       8.44701396     -8.81980843     -8.63823328
H      10.30100598     -8.25021269     -6.42556291
H       5.24450529     -0.18900647      5.65839576
H       3.57313952     -0.94476358      8.08931832
H       1.03714831    -10.60776768     16.65835995
H      10.29960211      1.67335873     -2.24481208
H      -9.42692160     -2.95208020     23.99761260
H       7.02253244     12.62058368      9.13433631
H       7.89766440     11.22141698      6.85386159
H       5.25196608     -2.14747257     10.02511529
H      23.69734575      6.19222569     -2.71228980
H      -3.93467026      8.92571355     11.13953732
H      24.38655504      6.34023910     -2.37840612
H       2.41500450     -3.70715534      3.50537933
H       5.70653589     -6.43680855      5.80660779
H       6.86165240     -5.85269728     -8.46706024
H       6.55886813     -2.06990807      8.82254301
C       1.80524006     -2.94866775      4.25470538
C     -10.07043034    -12.16736838     16.67248546
C       4.84146746     -0.95368586      6.45864896
C       4.20981552     -1.89544699      7.61289568
C      11.17378601      1.81344683      0.06740195
C       7.87450428     12.90438441      8.28500986
C       5.35008696     -2.04008292      8.82271763
C      -2.91804653      9.46558318     11.31037442
C       7.94821263     12.42632905      6.60159746
C       1.82429384      7.80003543     -2.15853894
C      14.63738522      2.42132627      2.17401274
C      12.77902336      4.38186680      0.57862737
C       9.93611949     -7.57750438     -7.36417089
C       0.68623959      8.93858072     -2.20104639
C       5.49261177     -5.25869363      6.12484764
H       9.55774230     11.21982739      3.06930019
H       5.08985098     -8.30557023     -8.08384750
H       0.69181303     -3.38505877      3.94318424
H      -9.29861450     -2.27985449     24.37184501
H      -9.46846308    -12.11046073     17.66676038
H      15.73827567      7.35700109     13.28271222
H      10.40655021      1.36221375      0.87152800
H       8.75512934     12.74956649      9.14269381
H       7.69427888     13.99873422      8.83176196
H      -3.61441178     -1.42816683     -7.29800710
H       2.18611604      6.88438306     -2.78969702
H      -7.32803337     20.54360407      9.86104897
H      -2.12739034     -9.60545649     -1.35194047
H       1.98093771     -1.91567757      3.60108722
H       6.53926894     -5.19605126      6.77819128
H      10.89507574     -6.83875285     -7.41701995
H      -7.46123366     20.55225705     10.62954293
   94

C       7.10785529     -6.88940509     -7.80275209
C       5.68984724     -7.72022736     -7.29423352
H       7.37667676     -6.02027708     -6.95356686
C       2.02118048     -2.89988160      5.91059726
H     -18.89258295     -7.18338357     -1.80832210
H       4.69350730     -7.13296906     -6.84680431
C       3.17319552     -3.34127302      7.08109373
H       5.77238909     -8.54354708     -6.37057539
H      -7.96432829     -6.52893090    -17.27939059
H      -7.95664404     -7.29832597    -17.15143612
C      10.15142656     -0.82100176     -1.32138735
H      15.99494815      6.64721285     13.49299401
C       5.90872863     -4.64307454      4.79639157
H       8.77484809     11.45044965      2.48554902
H       6.31232549     -4.20393485      3.78326559
H       2.67758362     -9.88268597     15.67340688
C       3.91402879     -4.90605745      6.89031897
H       3.09964934     -5.74469267      6.46765633
C       7.91486755     12.23036727      5.05783467
H       3.88459906     -5.53740857      7.96309176
H       8.11911335     13.76076783      6.40198278
H       7.06809301     12.91856547      4.53309706
C       8.44903788     11.43783326      3.65907662
H      12.43301890      1.39709671     -2.06648849
C      11.38480117      1.61806628     -1.50867190
H      12.92991539      5.02890132      0.71410488
H       7.70332359     10.55871046      3.22268852
H      -1.90356424     10.00686289     11.48110862
C       8.52016834     -7.70904209     -8.35647396
H       1.04195350     -2.30068377      6.34223104
H     -19.27187906     -7.16734550     -1.12694317
C      -2.94904368    -10.08512617     -0.66777502
H       2.38013721     -3.53761044      8.01912112
C       1.65118405     -9.69855326     16.26542835
H      -3.75946437    -10.55513499      0.02249231
H     -10.67956888    -12.22635192     15.67921286
H       1.24639826     -8.58226573     16.43258564
C      -4.12189204     -0.52211125     -7.82795590
H       1.73669133      9.59360006     -2.53128061
C      -0.48190497      8.72404582     -1.97998185
H      -4.62501661      0.38504314     -8.35534057
H      -0.88437776      9.29088698     -0.96004059
H      -1.20840438      7.73041758     -1.95227869
H      -1.16161805      9.31646031     -2.82421501
H       8.82302268     -7.49393721     -9.54084198
H       8.41780689     -8.89266440     -8.70981467
H      10.28145445     -8.34594324     -6.50596193
H       5.08164028     -0.27588297      5.71088763
H       3.42364322     -1.03810769      8.13353366
H       1.02932953    -10.63147480     16.69068971
H      10.75218404      2.22509958     -2.32970332
H      -9.42795340     -2.95218489     23.99852540
H       7.03799140     12.75841303      9.24780890
H       7.94751154     11.38091773      6.98745215
H       5.00728697     -2.26256313     10.12810304
H      23.73009659      6.16318020     -2.70199206
H      -3.93657663      8.92687863     11.13886989
H      24.41636340      6.32081951     -2.36648869
H       2.36441981     -3.75763755      3.51389467
H       5.63286202     -6.51392065      5.83438694
H       6.82510595     -5.93663260     -8.55483960
H       6.35632401     -2.26303327      8.97606306
C       1.74398038     -3.00523183      4.26018005
C     -10.07763963    -12.16947183     16.67351429
C       4.73690489     -1.04252936      6.53710220
C       4.07409503     -1.98664272      7.67056940
C      10.99397671      1.73769474      0.03360087
C       7.90417983     13.06120911      8.41862978
C       5.15430231     -2.14835108      8.93080647
C      -2.92008324      9.46694238     11.30984605
C       7.98600670     12.58776600      6.73851498
C       2.34971893      7.46921611     -2.09789402
C      12.51045750      2.16294876      6.20683311
C      14.90860243     10.07394148     -3.46050746
C       9.91302641     -7.66222811     -7.43529194
C       1.17183585      8.58438644     -2.19671510
C       5.40983667     -5.33985170      6.16168122
H       9.61795033     11.33415090      3.31939759
H       5.05263304     -8.37630908     -8.13162160
H       0.63563514     -3.43954503      3.92848771
H      -9.29961001     -2.27994803     24.37272542
H      -9.47570126    -12.11257988     17.66780950
H      15.80867255      7.39574689     13.37719127
H      10.98741703      1.42197071      1.17984907
H       8.79899488     12.89620321      9.26099462
H       7.72299275     14.16404374      8.94865288
H      -3.61886983     -1.42919264     -7.30035204
H       2.63244084      6.59778528     -2.82853612
H      -7.32790935     20.54329876      9.86072933
H      -2.13871966     -9.61522592     -1.35822816
H       1.92751764     -1.96606057      3.61898141
H       6.45021831     -5.27723026      6.82435117
H      10.89082762     -6.95049608     -7.51098602
H      -7.46114658     20.55201717     10.62921622
   94

C       7.14222463     -6.80723834     -7.71810538
C       5.72258223     -7.65178412     -7.23721928
H       7.40571154     -5.94194537     -6.86268824
C       2.07962756     -2.89843375      5.96576894
H     -18.89248369     -7.18355930     -1.80824389
H       4.72268052     -7.06936210     -6.79194116
C       3.24981617     -3.32649514      7.12382810
H       5.80155532     -8.47993777     -6.31744976
H      -7.96354205     -6.52901063    -17.27888609
H      -7.95580567     -7.29839631    -17.15087895
C      10.94430594      3.32756704      0.34196173
H      15.95939842      6.56655831     13.41612238
C       5.96171088     -4.62901005      4.79866589
H       8.78591279     11.67876763      2.60281724
H       6.36882993     -4.19434536      3.78403249
H       2.68125123     -9.88676886     15.68469900
C       3.98763658     -4.89113249      6.92500403
H       3.16858776     -5.73310878      6.51827118
C       7.90239375     12.39364555      5.16732192
H       3.97266739     -5.51555657      8.00194172
H       8.20729502     13.88430253      6.51977545
H       7.04430357     13.08478283      4.66059213
C       8.48087846     11.61942163      3.78242543
H      12.42155625      0.88571049     -2.21050681
C      11.43901248      1.22801591     -1.59399716
H      11.92373678      5.27264187      0.27132829
H       7.73748335     10.72692887      3.37109443
H      -1.90473492     10.00716585     11.48532824
C       8.54554307     -7.63303835     -8.28657502
H       1.10060686     -2.30800079      6.40937753
H     -19.27178396     -7.16751336     -1.12686746
C      -2.94394941    -10.08275437     -0.66767018
H       2.47585672     -3.51526549      8.07885189
C       1.65496402     -9.70289972     16.27701794
H      -3.75491430    -10.55308038      0.02175880
H     -10.68225575    -12.22661627     15.67889950
H       1.25029855     -8.58650402     16.44381724
C      -4.12267497     -0.52465923     -7.82933973
H       1.95992833      9.43241172     -2.57766679
C      -0.23906950      8.57107525     -2.03551355
H      -4.62639934      0.38212997     -8.35681052
H      -0.67256161      9.15533696     -1.03815766
H      -0.99973352      7.60288207     -2.02588918
H      -0.90870277      9.16945582     -2.88419369
H       8.84660577     -7.41835828     -9.47140180
H       8.44800854     -8.81718752     -8.64034684
H      10.29816987     -8.25021209     -6.42260801
H       5.23178996     -0.28783434      5.76024826
H       3.53037959     -1.03103267      8.17530281
H       1.03326476    -10.63572491     16.70274058
H      10.65149005      1.32136657     -2.49343835
H      -9.42715193     -2.95213837     23.99796501
H       7.04944926     12.83626342      9.33181351
H       7.99243901     11.50229919      7.07530763
H       5.23794149     -2.21857664     10.09902710
H      23.75230000      6.20195264     -2.72599760
H      -3.93783694      8.92737895     11.14290922
H      24.43635594      6.34938053     -2.38148099
H       2.38292105     -3.78284166      3.56820725
H       5.69601492     -6.49282062      5.85279638
H       6.86144913     -5.85166700     -8.46713969
H       6.53617617     -2.12862303      8.88977948
C       1.76889457     -3.03245003      4.32219673
C     -10.08027584    -12.16970022     16.67316709
C       4.80457365     -1.04992405      6.54722423
C       4.16932525     -1.98173364      7.70261269
C      11.30152218      1.82576255     -0.09513036
C       7.92865812     13.16370012      8.52550984
C       5.32680403     -2.11740466      8.89583427
C      -2.92134529      9.46740093     11.31406988
C       8.01863107     12.71431337      6.84526299
C       2.61985821      7.30791864     -2.17364674
C       7.87063078      3.81572207      0.58949680
C      14.75907090      4.27196652     -0.53637553
C       9.93587690     -7.57756369     -7.36224225
C       1.42250744      8.42011169     -2.21296541
C       5.47570127     -5.31704018      6.17531405
H       9.66745446     11.50404271      3.51043431
H       5.09170923     -8.30539815     -8.08171745
H       0.65856911     -3.47380891      4.00664211
H      -9.29883205     -2.27990747     24.37218373
H      -9.47829274    -12.11277828     17.66743239
H      15.78409412      7.32023673     13.31795897
H      11.31387430      1.03891160      0.81561122
H       8.83984555     12.98089143      9.34737211
H       7.74817315     14.27156605      9.04605884
H      -3.61868868     -1.43113096     -7.30157621
H       2.77723938      6.49557174     -3.00671869
H      -7.32848207     20.54419656      9.86143948
H      -2.13294346     -9.61244882     -1.35706489
H       1.93484440     -1.99507237      3.67315771
H       6.52309211     -5.24827216      6.82681679
H      10.89630546     -6.84073484     -7.41456350
H      -7.46164626     20.55278821     10.62994032
   94

C       7.14106665     -6.81005500     -7.72065675
C       5.72183948     -7.65371369     -7.23707530
H       7.40538149     -5.94406618     -6.86622964
C       2.09531116     -2.88882251      5.95804456
H     -18.89206101     -7.18337197     -1.80818223
H       4.72273543     -7.07082273     -6.79062467
C       3.26589207     -3.31454369      7.11639486
H       5.80170629     -8.48158886     -6.31715253
H      -7.96353131     -6.52899275    -17.27881091
H      -7.95579995     -7.29838035    -17.15081503
C      10.73413630      3.10460090      0.03320865
H      15.98906962      6.54556290     13.44236337
C       5.96983115     -4.63102570      4.80101412
H       8.79442244     11.93138992      2.79974346
H       6.37769092     -4.18299412      3.79218310
H       2.67977023     -9.90120146     15.70864103
C       3.99094170     -4.88648849      6.92660895
H       3.16846677     -5.72625017      6.52215974
C       7.88969215     12.60111410      5.34052673
H       3.97239390     -5.50815713      8.00507688
H       8.30426673     14.05742858      6.69023749
H       7.02273517     13.29279059      4.84658062
C       8.51406377     11.82301960      3.98347141
H      12.60345925      0.90250261     -2.30824701
C      11.53935512      0.96637062     -1.73290462
H      11.20401958      5.18295684     -0.13616570
H       7.78527086     10.90566048      3.60182446
H      -1.90265760     10.00565973     11.48246811
C       8.54395026     -7.63629064     -8.28944422
H       1.11314235     -2.30373552      6.40159723
H     -19.27137323     -7.16733347     -1.12681229
C      -2.94446397    -10.08246054     -0.66917425
H       2.49327418     -3.49443117      8.07437979
C       1.65364544     -9.71746145     16.30128836
H      -3.75550180    -10.55306246      0.01997587
H     -10.68783430    -12.22752295     15.67874123
H       1.24896571     -8.60101919     16.46776527
C      -4.12003995     -0.52360405     -7.82681788
H       2.43006638      9.04723605     -2.60526975
C       0.23529660      8.25982965     -2.09878693
H      -4.62400420      0.38304581     -8.35430286
H      -0.23831415      8.87646288     -1.13922640
H      -0.57120387      7.32936617     -2.11678602
H      -0.40097567      8.86835899     -2.96683227
H       8.84559631     -7.42062985     -9.47394293
H       8.44550841     -8.81997246     -8.64450681
H      10.29500979     -8.25681120     -6.42481251
H       5.26982052     -0.28797267      5.71103746
H       3.55557380     -1.01069246      8.13819961
H       1.03219317    -10.65023575     16.72749493
H      10.78716747      0.88892160     -2.66258243
H      -9.42694446     -2.95208631     23.99763900
H       7.06667392     12.98030904      9.47171980
H       8.03945673     11.67997181      7.22824046
H       5.23988972     -2.21234095     10.08173718
H      23.68732621      6.18959658     -2.70592242
H      -3.93571862      8.92589005     11.13983917
H      24.37744856      6.33791175     -2.37406114
H       2.40793177     -3.76652931      3.56071177
H       5.69391133     -6.49392939      5.85535123
H       6.85951309     -5.85502136     -8.47008454
H       6.54484292     -2.11854536      8.88066639
C       1.79373114     -3.01384051      4.31227558
C     -10.08587182    -12.17061929     16.67301923
C       4.83793217     -1.03459104      6.51284153
C       4.19435741     -1.96400040      7.66984634
C      11.12366667      1.58342419     -0.29219519
C       7.95993687     13.32965215      8.68962148
C       5.33566805     -2.10172222      8.87962317
C      -2.91919166      9.46583032     11.31100640
C       8.05753397     12.89580150      7.01156543
C       3.10715501      6.92646816     -2.12059084
C       8.65421818      4.99614311     -0.24714193
C      10.19099425      4.58743992     -0.22994764
C       9.93407971     -7.58373558     -7.36466311
C       1.90378695      8.04742460     -2.19485655
C       5.47762007     -5.31728855      6.17701161
H       9.71595890     11.70757555      3.77933338
H       5.08987291     -8.30741115     -8.08066113
H       0.68400518     -3.45333108      3.99223987
H      -9.29863606     -2.27986110     24.37187186
H      -9.48391502    -12.11371514     17.66730062
H      15.81380945      7.29925185     13.34420450
H      11.42045666      0.95373004      0.68877067
H       8.88632744     13.13244155      9.49207603
H       7.77935695     14.44443345      9.19598647
H      -3.61570704     -1.42982170     -7.29894587
H       3.20399221      6.14373032     -2.99274413
H      -7.32854329     20.54389020      9.86121970
H      -2.13340540     -9.61190255     -1.35832934
H       1.96927534     -1.97605714      3.66632439
H       6.52335730     -5.25180151      6.83155183
H      10.89685764     -6.85011539     -7.41851443
H      -7.46171839     20.55252356     10.62971824
   94

C       7.14238735     -6.80757463     -7.71892479
C       5.72379152     -7.65231547     -7.23531824
H       7.40629363     -5.94061523     -6.86531078
C       2.08931996     -2.91151466      5.97770109
H     -18.89205529     -7.18336415     -1.80817776
H       4.72459735     -7.06998851     -6.78834073
C       3.26112949     -3.33577131      7.13530617
H       5.80438735     -8.48013916     -6.31540956
H      -7.96356977     -6.52905962    -17.27889140
H      -7.95583373     -7.29844663    -17.15089229
C      10.13805448      3.18976061     -0.25913265
H      16.01488351      6.52694726     13.46619961
C       5.96577673     -4.64786441      4.81760778
H       8.80273664     12.04949134      2.93569058
H       6.37546099     -4.19734313      3.81050889
H       2.67809561     -9.91583875     15.73248142
C       3.98657424     -4.90735420      6.94443488
H       3.16445271     -5.74759194      6.54017139
C       7.91197353     12.73618816      5.45505155
H       3.96858461     -5.52977585      8.02249080
H       8.39371920     14.17702808      6.79689832
H       7.02921378     13.41706200      4.96856820
C       8.55039274     11.92083178      4.12620934
H      12.55158307      0.96338453     -2.30352470
C      11.45537170      1.12973999     -1.81684025
H      10.43515895      5.27346037     -0.42487456
H       7.84313871     10.96767771      3.79160111
H      -1.90152008     10.00556427     11.48109089
C       8.54562020     -7.63340470     -8.28754281
H       1.10488959     -2.33084999      6.42204181
H     -19.27136724     -7.16732571     -1.12680768
C      -2.94654025    -10.08460994     -0.67141235
H       2.48992456     -3.51539651      8.09452203
C       1.65198500     -9.73210770     16.32515680
H      -3.75760661    -10.55521621      0.01770275
H     -10.69319130    -12.22863398     15.67890942
H       1.24730460     -8.61566265     16.49161587
C      -4.12071153     -0.52318023     -7.82671355
H       2.79332746      8.77137683     -2.64409546
C       0.60953390      8.02146929     -2.16207033
H      -4.62450786      0.38367383     -8.35401206
H       0.10267186      8.66259658     -1.23563005
H      -0.23219117      7.12317831     -2.20698198
H      -0.00427432      8.63722063     -3.04206874
H       8.84802605     -7.41704442     -9.47171525
H       8.44759882     -8.81686126     -8.64351826
H      10.29435195     -8.25287571     -6.42058657
H       5.27855970     -0.31758061      5.72719698
H       3.55067407     -1.03077688      8.15249478
H       1.03054764    -10.66487695     16.75139717
H      10.77087321      0.93543616     -2.77901255
H      -9.42693198     -2.95206863     23.99761648
H       7.08555499     13.09687583      9.55990534
H       8.08900189     11.81135481      7.33813395
H       5.23623937     -2.23260086     10.09901022
H      23.68706202      6.18969239     -2.70584229
H      -3.93475788      8.92596928     11.13892074
H      24.37722699      6.33798072     -2.37405741
H       2.40530857     -3.78537764      3.57913840
H       5.69046826     -6.51133661      5.87036041
H       6.86002408     -5.85333111     -8.46904202
H       6.54061723     -2.13311946      8.89857301
C       1.78962750     -3.03467025      4.33146700
C     -10.09123151    -12.17173111     16.67318903
C       4.83744488     -1.05905928      6.52874372
C       4.19026193     -1.98482588      7.68667600
C      10.90206748      1.79150514     -0.44726016
C       7.99173706     13.46222390      8.79855429
C       5.33135664     -2.12032978      8.89703738
C      -2.91813625      9.46580411     11.30987695
C       8.09515988     13.02830271      7.12302893
C       3.47277744      6.63183130     -2.18617897
C       7.92131707      4.95432584     -0.45679489
C       9.47606226      4.61260289     -0.60439202
C       9.93496687     -7.58054447     -7.36156513
C       2.28357915      7.78244346     -2.19105897
C       5.47334954     -5.33521582      6.19323348
H       9.76325325     11.79304337      3.98981455
H       5.09183236     -8.30642064     -8.07861919
H       0.68116589     -3.47548032      4.00896296
H      -9.29862216     -2.27984301     24.37184811
H      -9.48927890    -12.11482834     17.66747298
H      15.83952299      7.28059030     13.36786698
H      11.31994574      1.29221554      0.56522799
H       8.93260814     13.25604043      9.58375760
H       7.81202764     14.58701729      9.28451950
H      -3.61650151     -1.42957483     -7.29902293
H       3.48492400      5.91169943     -3.11742045
H      -7.32836280     20.54375171      9.86113265
H      -2.13544376     -9.61405113     -1.36052391
H       1.96464402     -1.99524534      3.68804424
H       6.51880958     -5.26887356      6.84816159
H      10.89754069     -6.84652545     -7.41384800
H      -7.46155541     20.55239652     10.62962802
   94

C       7.14322976     -6.80526882     -7.71771821
C       5.72526276     -7.65093536     -7.23382920
H       7.40678650     -5.93736809     -6.86491802
C       2.08370396     -2.93237825      5.99556728
H     -18.89202155     -7.18334203     -1.80817261
H       4.72603361     -7.06910709     -6.78628498
C       3.25646417     -3.35532021      7.15268189
H       5.80660304     -8.47870704     -6.31393813
H      -7.96358263     -6.52908725    -17.27893006
H      -7.95584526     -7.29847447    -17.15093225
C       9.62106075      3.24220953     -0.59576688
H      16.04028792      6.50870665     13.48982473
C       5.96126943     -4.66416662      4.83347387
H       8.79841229     12.18520945      3.06997892
H       6.37197532     -4.21117134      3.82779160
H       2.67644383     -9.93019979     15.75590367
C       3.98173751     -4.92687556      6.96128599
H       3.15979378     -5.76741411      6.55721031
C       7.92826632     12.87656106      5.57098994
H       3.96404146     -5.54989500      8.03901281
H       8.47633961     14.29787944      6.90625677
H       7.02904461     13.54832022      5.09588510
C       8.57874740     12.02997187      4.26665992
H      12.42480970      0.99630886     -2.31648525
C      11.31322615      1.27624782     -1.92550403
H       9.75630137      5.29967500     -0.66375649
H       7.88709931     11.05083977      3.97332004
H      -1.90017148     10.00538089     11.47940492
C       8.54679028     -7.63073467     -8.28614078
H       1.09705077     -2.35601998      6.44058047
H     -19.27133464     -7.16730478     -1.12680313
C      -2.94853887    -10.08648008     -0.67361760
H       2.48653744     -3.53433299      8.11308485
C       1.65035235     -9.74648215     16.34861728
H      -3.75961965    -10.55712752      0.01545348
H     -10.69845709    -12.22970866     15.67905462
H       1.24566928     -8.63003301     16.51504564
C      -4.12045222     -0.52191571     -7.82590824
H       3.15129827      8.48777039     -2.68399629
C       0.98097167      7.78716257     -2.22583759
H      -4.62414103      0.38506947     -8.35308115
H       0.44591568      8.45406955     -1.33301566
H       0.10390367      6.92408727     -2.29698311
H       0.38618039      8.41205614     -3.11404343
H       8.84994846     -7.41365511     -9.46998481
H       8.44911026     -8.81395216     -8.64304466
H      10.29336905     -8.24957391     -6.41714269
H       5.28668620     -0.34553370      5.74049806
H       3.54626242     -1.04909224      8.16469608
H       1.02893965    -10.67924508     16.77490886
H      10.68467118      0.98891030     -2.90084842
H      -9.42690560     -2.95204608     23.99757155
H       7.10358462     13.21308856      9.64930264
H       8.13385791     11.94437320      7.44716394
H       5.23236076     -2.25159428     10.11464124
H      23.68668147      6.18957337     -2.70577764
H      -3.93360076      8.92596565     11.13777270
H      24.37687735      6.33787698     -2.37406342
H       2.40339516     -3.80184707      3.59578128
H       5.68632771     -6.52805449      5.88492133
H       6.86005581     -5.85178184     -8.46848341
H       6.53630854     -2.14649036      8.91502086
C       1.78630763     -3.05291878      4.34872530
C     -10.09650004    -12.17280716     16.67333589
C       4.83753235     -1.08172458      6.54254252
C       4.18660481     -2.00391775      7.70140701
C      10.65141623      2.00645125     -0.64149269
C       8.02210282     13.59471169      8.90921567
C       5.32698315     -2.13740560      8.91283804
C      -2.91687531      9.46568941     11.30847736
C       8.13026168     13.16273484      7.23571845
C       3.84334438      6.33522364     -2.25928405
C       7.34323090      4.98735211     -0.47225019
C       8.84647490      4.61571973     -0.98506177
C       9.93542633     -7.57779274     -7.35906640
C       2.65802540      7.50493837     -2.20121729
C       5.46858101     -5.35236723      6.20880299
H       9.79945676     11.89867507      4.19678526
H       5.09324650     -8.30542095     -8.07681152
H       0.67909253     -3.49486342      4.02357040
H      -9.29859498     -2.27982033     24.37180268
H      -9.49455169    -12.11590650     17.66762244
H      15.86481099      7.26230391     13.39134760
H      11.09868634      1.58139863      0.39320486
H       8.97798630     13.37887767      9.67555646
H       7.84396122     14.72918971      9.37492596
H      -3.61635255     -1.42846568     -7.29838095
H       3.80430431      5.68004050     -3.23705832
H      -7.32817860     20.54360636      9.86104613
H      -2.13742409     -9.61587770     -1.36267897
H       1.96121930     -2.01190461      3.70785898
H       6.51373971     -5.28523515      6.86415133
H      10.89795478     -6.84360361     -7.41000558
H      -7.46138868     20.55226184     10.62953835
   94

C       7.14506337     -6.79450824     -7.71260393
C       5.72785767     -7.64204039     -7.22952696
H       7.40822799     -5.92544419     -6.86077388
C       2.07767789     -2.95075183      6.00963811
H     -18.89185999     -7.18329685     -1.80818867
H       4.72864743     -7.06090539     -6.78107708
C       3.25073916     -3.37230414      7.16705093
H       5.80993293     -8.47021222     -6.31004532
H      -7.96315051     -6.52870594    -17.27847764
H      -7.95543932     -7.29809993    -17.15051897
C       8.84442283      3.41019458     -1.04597781
H      16.06704060      6.49113540     13.51510939
C       5.95559309     -4.67647133      4.84731069
H       8.75592682     12.36866764      3.21586243
H       6.36659221     -4.21886188      3.84364682
H       2.67471672     -9.94455986     15.77928948
C       3.97483973     -4.94430495      6.97560618
H       3.15297694     -5.78490939      6.57137641
C       7.93089400     13.04098120      5.68246572
H       3.95673250     -5.56848962      8.05268183
H       8.59003927     14.41618198      7.00893215
H       6.99885603     13.69675493      5.23442191
C       8.60933452     12.14898125      4.42002179
H      12.10503021      1.11389683     -2.25679912
C      10.99479487      1.55502189     -2.03529744
H       8.58320300      5.34349456     -1.05589821
H       7.93163334     11.13910025      4.19742450
H      -1.89889429     10.00514505     11.47760497
C       8.54820666     -7.62054677     -8.28146754
H       1.08716232     -2.38148748      6.45524227
H     -19.27118577     -7.16726916     -1.12682601
C      -2.94967841    -10.08659109     -0.67608296
H       2.48231580     -3.54989635      8.12902564
C       1.64865402     -9.76089049     16.37206851
H      -3.76068061    -10.55748750      0.01291430
H     -10.70354378    -12.23068499     15.67904545
H       1.24394319     -8.64444940     16.53848520
C      -4.11268997     -0.51387115     -7.82037122
H       3.79962440      7.95652457     -2.59408426
C       1.66826372      7.37424937     -2.24262489
H      -4.61685735      0.39270700     -8.34773878
H       1.08089034      8.09942002     -1.42683159
H       0.72444832      6.59113478     -2.37871836
H       1.11924183      8.02286543     -3.14808321
H       8.85227395     -7.40248204     -9.46488788
H       8.45091861     -8.80341171     -8.63981816
H      10.29214353     -8.23890697     -6.41038664
H       5.29812764     -0.37481715      5.74692226
H       3.54132672     -1.06492109      8.17095127
H       1.02730214    -10.69366222     16.79843084
H      10.45579921      1.12672638     -3.01123324
H      -9.42675544     -2.95204824     23.99740376
H       7.11214866     13.31115409      9.70869513
H       8.18599134     12.08345680      7.53915350
H       5.22810677     -2.27019381     10.12692966
H      23.68739798      6.18932909     -2.70616817
H      -3.93269234      8.92602065     11.13716862
H      24.37757154      6.33770482     -2.37443862
H       2.40508112     -3.81130198      3.60778807
H       5.68057685     -6.54130380      5.89616514
H       6.86099705     -5.84172877     -8.46392900
H       6.53108747     -2.15447043      8.92892749
C       1.78585261     -3.06466704      4.36124694
C     -10.10156785    -12.17377975     16.67331502
C       4.84150353     -1.10415444      6.55138190
C       4.18335796     -2.02056713      7.71144216
C      10.12197913      2.39293416     -0.93845726
C       8.05228119     13.72736098      9.01185422
C       5.32167378     -2.15134944      8.92551797
C      -2.91579953      9.46559494     11.30738558
C       8.16857582     13.30554944      7.34089355
C       4.73398229      5.98087293     -1.91342372
C       6.20669644      5.30054055     -1.46463900
C       7.69153868      4.57590277     -1.20729893
C       9.93606412     -7.56740111     -7.35319868
C       3.33856136      6.95269433     -2.11957862
C       5.46202191     -5.36634196      6.22182333
H       9.83543546     12.01728860      4.48585859
H       5.09579362     -8.29677916     -8.07234197
H       0.68077783     -3.50794614      4.03070789
H      -9.29845674     -2.27982476     24.37164303
H      -9.49959200    -12.11687449     17.66758465
H      15.89120620      7.24458851     13.41616196
H      10.60251275      2.05144329      0.11858623
H       9.04097127     13.49177677      9.73390250
H       7.87798148     14.87996005      9.43787988
H      -3.60852260     -1.42044929     -7.29300365
H       4.66488464      5.31432096     -2.88791663
H      -7.32753058     20.54354438      9.86115128
H      -2.13867621     -9.61569467     -1.36508022
H       1.96213014     -2.02113055      3.72484620
H       6.50637923     -5.29809977      6.87833931
H      10.89804022     -6.83229621     -7.40159150
H      -7.46074211     20.55216357     10.62964357
