   94

C       6.90957451     -7.25737769    -13.22221970
C      -3.33980010    -13.05152339    -10.13445385
H       7.58956240     -6.53024255    -12.55377599
C      -0.98089507     -0.93661726      8.16478149
H      -5.64554022      8.37610043     -3.06476106
H       2.85189776     -2.75833760      8.46631202
C       0.28270841     -1.33254661      9.15147491
H       6.57496539     -8.32647506    -12.79444209
H      -9.00629938     -6.97077983    -19.18209263
H      -8.99858819     -7.74017383    -19.05413396
C       4.56202196      0.43209249     -3.81878815
H      16.72377474      5.80178540     13.90396666
C       8.62140093    -10.42329455      5.10832838
H       8.23744992     10.88219334     -2.23314066
H       8.84986170     -9.62213848      4.29022889
H       2.50425844    -10.90118632     17.33758517
C       7.27476354    -10.96909157      7.56620883
H       6.14836739    -10.88118556      7.07781010
C       7.48601537     11.10483839     -0.02853481
H       6.68069121    -11.24933817      8.59845181
H      11.29413214     15.62086396      8.91250327
H       6.90485099     11.71056335      0.79141879
C       8.26190164     10.27609220     -1.16583177
H      16.85665692      2.91566089     -5.08201493
C      15.75282822      2.69569544     -4.97145247
H       0.94540509      0.24680861     -3.20995252
H       7.74565714      9.17400015     -1.32709997
H      -3.15329537     10.12667634     10.37486308
C      17.10977585    -10.83155276     -8.05914894
H      -2.04917761     -0.62940867      8.65274522
H      -5.64438041      8.24968930     -1.13748149
C       3.19483654     -3.02598394     -3.42704878
H      -0.02554423     -2.40349416      9.70459237
C       1.47819573    -10.71751696     17.93036419
H       3.38181133     -3.03248193     -2.20411100
H     -10.96213609    -12.27297242     15.66815272
H       1.07348491     -9.60107587     18.09678088
C       0.97727582     -0.80176651     -3.81489014
H      -2.65356827      8.53871013     -1.75101593
C      -3.22066577     10.94446459     -2.25509649
H      -0.17676717     -0.83266634     -4.17697269
H      -3.43799825     11.61880065     -1.24499084
H      -2.08156132     11.25163938     -2.60967941
H      -3.83879158     11.52115458     -3.15205671
H      17.55401813    -10.10657671     -8.90994593
H      17.16870358    -11.96377562     -8.45947995
H      17.01844197    -10.63430813     -5.55299321
H       3.03636660      0.49185928      6.85557387
H       0.28856550     -0.52953415     10.08289406
H       0.85684386    -11.65028868     18.35672652
H       4.98410263      0.64735854     -4.90604379
H      -9.42675544     -2.95204824     23.99740376
H       4.85193188     15.53102288     20.76400105
H      10.43201849     13.91225611      9.62631285
H       3.30826285     -1.54739995     10.50703869
H      26.59648769      7.39426669     -2.17327341
H      -4.80690995      9.34819558     10.65172022
H      27.28666125      7.54264242     -1.84154386
H      -1.21419377     -1.75835859      5.80084483
H       8.72414815    -12.47907913      6.06752247
H       6.56419611     -6.91541473    -14.31844102
H       4.31927455     -2.20385533      9.55315245
C      -1.07361681     -0.83065544      6.55217996
C     -10.36016020    -12.21606716     16.66242232
C       2.49365198     -0.31946805      7.49441855
C       1.85429972     -1.24747023      8.61881995
C       5.29097313      0.67176053     -2.46062992
C       9.48024343     15.96742583     10.47191907
C       3.13477054     -1.96312628      9.35519111
C      -4.02989410      9.58026572      9.77483893
C      10.47073184     15.10665063      9.60959234
C      -4.98992229      8.60741292     -2.08162720
C       2.32826593     -1.72341097     -4.10932113
C       3.30341231     -0.47768879     -3.88407048
C      16.52699465    -10.38188916     -6.62128000
C      -3.53692160      9.33160466     -2.02040766
C       8.22059598    -11.40277130      6.28459953
H       9.44052861     10.08785225     -0.87854975
H      -3.11177660    -13.81826260    -10.93541594
H      15.52319762     -9.74584105     -6.43674715
H      -9.29845674     -2.27982476     24.37164303
H      -9.75818431    -12.15916191     17.65669192
H      16.54794034      6.55523851     13.80501923
H       5.91288803      0.74187330     -1.48221561
H       5.54814993     15.73763188     21.04859399
H       8.75035135     16.60707767     11.11710471
H       2.09624825     -2.04467140     -5.28324323
H      -4.11355089      9.32799513      8.60002041
H      -7.60795419     21.24264930      9.77839801
H       2.81766042     -4.19868878     -3.44082865
H      -0.99751774      0.18653563      5.91263254
H       8.05494294    -10.36575342      8.30282254
H       4.31825365     -3.27031493     -3.90279268
H      -7.74116572     21.25126849     10.54689030
   94

C       6.90957225     -7.25737779    -13.22222106
C      -3.33980057    -13.05152380    -10.13445429
H       7.58955911     -6.53024188    -12.55377719
C      -0.98301082     -0.93441846      8.16410868
H      -5.64467850      8.37361132     -3.06467976
H       2.86933387     -2.77882754      8.47564120
C       0.28179566     -1.32629456      9.15193494
H       6.57496366     -8.32647519    -12.79444323
H      -9.00629941     -6.97077983    -19.18209269
H      -8.99858823     -7.74017382    -19.05413403
C       4.56839063      0.43324476     -3.82165244
H      16.72377501      5.80178559     13.90396685
C       8.62182499    -10.42424481      5.10818435
H       8.23744588     10.88190369     -2.23336807
H       8.85099526     -9.62371409      4.28965326
H       2.50425814    -10.90118645     17.33758555
C       7.27458492    -10.96856288      7.56638360
H       6.14820375    -10.87520648      7.07888763
C       7.48591553     11.10484770     -0.02861242
H       6.68406818    -11.25958660      8.59783347
H      11.29411768     15.62085433      8.91246894
H       6.90516476     11.71055547      0.79164619
C       8.26182364     10.27609673     -1.16589021
H      16.85665784      2.91566631     -5.08201331
C      15.75282915      2.69570084     -4.97145083
H       0.93519216      0.24222888     -3.20497281
H       7.74568167      9.17399485     -1.32741897
H      -3.14818331     10.12856269     10.37037206
C      17.12975636    -10.77405679     -8.08233090
H      -2.05329658     -0.62942391      8.64974055
H      -5.64498960      8.24967780     -1.13714410
C       3.19148418     -3.02722588     -3.42620105
H      -0.02708534     -2.39905062      9.70063197
C       1.47819538    -10.71751696     17.93036442
H       3.37762149     -3.03283601     -2.20313328
H     -10.96213609    -12.27297239     15.66815276
H       1.07348454     -9.60107586     18.09678098
C       0.97740330     -0.80459856     -3.81212763
H      -2.65469139      8.53862693     -1.75247567
C      -3.22042549     10.94497553     -2.25496619
H      -0.17664977     -0.83879370     -4.17349616
H      -3.43715397     11.61952138     -1.24487464
H      -2.08107199     11.25170942     -2.60919332
H      -3.83824861     11.52192850     -3.15195959
H      17.57573761    -10.08440604     -8.95195330
H      17.11906812    -11.97499471     -8.36040085
H      17.01748027    -10.64284093     -5.56288067
H       3.03403357      0.49338152      6.85235022
H       0.28362098     -0.52673910     10.08658992
H       0.85684351    -11.65028869     18.35672675
H       4.99060859      0.65810960     -4.90698417
H      -9.42675544     -2.95204825     23.99740377
H       4.85193153     15.53102296     20.76400193
H      10.43198871     13.91226406      9.62629198
H       3.30978894     -1.55374595     10.50634319
H      26.59648807      7.39426727     -2.17327315
H      -4.81263839      9.34500740     10.64920483
H      27.28666164      7.54264292     -1.84154360
H      -1.21513577     -1.75904670      5.79975529
H       8.72351748    -12.47938226      6.06810142
H       6.56419424     -6.91541497    -14.31844253
H       4.32233842     -2.20411514      9.54750810
C      -1.07549803     -0.83102727      6.55105706
C     -10.36016019    -12.21606713     16.66242235
C       2.48891934     -0.31068093      7.49878144
C       1.85573001     -1.24127741      8.62451525
C       5.29379469      0.67453853     -2.46158340
C       9.48032733     15.96743484     10.47200892
C       3.13691801     -1.96560481      9.35342203
C      -4.02978612      9.58107065      9.77829933
C      10.47075852     15.10665726      9.60961865
C      -4.99036450      8.60728015     -2.08124812
C       2.33050817     -1.72212419     -4.11053076
C       3.31178363     -0.47946324     -3.89325882
C      16.52607251    -10.42015161     -6.63931237
C      -3.53772334      9.33224244     -2.02065144
C       8.22033882    -11.40287933      6.28493547
H       9.44037277     10.08815221     -0.87809500
H      -3.11177696    -13.81826296    -10.93541639
H      15.53305401     -9.76751744     -6.44273549
H      -9.29845675     -2.27982477     24.37164304
H      -9.75818429    -12.15916187     17.65669195
H      16.54794058      6.55523870     13.80501941
H       5.91254611      0.74440054     -1.48093529
H       5.54814958     15.73763195     21.04859487
H       8.75028692     16.60706651     11.11704686
H       2.09907457     -2.04113702     -5.28513331
H      -4.11325134      9.32893556      8.60370172
H      -7.60795424     21.24264940      9.77839803
H       2.80952272     -4.19851282     -3.44177316
H      -1.00011626      0.18558888      5.91040006
H       8.05195151    -10.36011361      8.30182733
H       4.31508711     -3.27561059     -3.89913275
H      -7.74116577     21.25126858     10.54689032
   94

C       6.90957032     -7.25737767    -13.22222201
C      -3.33980106    -13.05152414    -10.13445472
H       7.58955631     -6.53024124    -12.55377787
C      -0.98512250     -0.93222272      8.16343643
H      -5.64381524      8.37112424     -3.06459477
H       2.88688010     -2.79917357      8.48527845
C       0.28088990     -1.32002786      9.15239000
H       6.57496209     -8.32647513    -12.79444408
H      -9.00629944     -6.97077982    -19.18209274
H      -8.99858826     -7.74017381    -19.05413408
C       4.57475384      0.43436979     -3.82452823
H      16.72377523      5.80178568     13.90396693
C       8.62224490    -10.42519020      5.10804456
H       8.23744192     10.88161385     -2.23359527
H       8.85212697     -9.62528892      4.28908020
H       2.50425790    -10.90118655     17.33758581
C       7.27441009    -10.96803941      7.56655503
H       6.14804478    -10.86926767      7.08001776
C       7.48581586     11.10485677     -0.02868993
H       6.68747923    -11.26974500      8.59712924
H      11.29410323     15.62084464      8.91243460
H       6.90547841     11.71054729      0.79187325
C       8.26174572     10.27610095     -1.16594861
H      16.85665859      2.91566977     -5.08201183
C      15.75282997      2.69570395     -4.97144938
H       0.92498731      0.23759848     -3.20002920
H       7.74570630      9.17398929     -1.32773780
H      -3.14307454     10.13043830     10.36582957
C      17.14979682    -10.72287672     -8.10666130
H      -2.05740030     -0.62944580      8.64673583
H      -5.64559795      8.24966612     -1.13680806
C       3.18812447     -3.02845090     -3.42535972
H      -0.02857705     -2.39459948      9.69663710
C       1.47819509    -10.71751694     17.93036454
H       3.37343479     -3.03317785     -2.20216363
H     -10.96213607    -12.27297236     15.66815279
H       1.07348424     -9.60107583     18.09678096
C       0.97756009     -0.80739323     -3.80936566
H      -2.65581533      8.53854529     -1.75393479
C      -3.22018534     10.94548563     -2.25483586
H      -0.17649484     -0.84492618     -4.17002210
H      -3.43630993     11.62024095     -1.24475859
H      -2.08058311     11.25177864     -2.60870723
H      -3.83770556     11.52270166     -3.15186243
H      17.59627905    -10.06425989     -8.99206889
H      17.06710252    -11.97566643     -8.25462752
H      17.01659033    -10.65038140     -5.57506016
H       3.03166418      0.49483813      6.84915674
H       0.27865424     -0.52397084     10.09027911
H       0.85684322    -11.65028865     18.35672689
H       4.99707005      0.66884694     -4.90786283
H      -9.42675542     -2.95204826     23.99740376
H       4.85193117     15.53102301     20.76400278
H      10.43195896     13.91227195      9.62627109
H       3.31126034     -1.56012915     10.50550026
H      26.59648835      7.39426773     -2.17327290
H      -4.81837152      9.34180782     10.64663808
H      27.28666194      7.54264332     -1.84154336
H      -1.21606938     -1.75973551      5.79867098
H       8.72288903    -12.47968231      6.06867604
H       6.56419263     -6.91541506    -14.31844363
H       4.32534715     -2.20437309      9.54178073
C      -1.07737075     -0.83140004      6.54993834
C     -10.36016015    -12.21606708     16.66242237
C       2.48420899     -0.30188356      7.50315037
C       1.85716995     -1.23499084      8.63025461
C       5.29660065      0.67730781     -2.46255015
C       9.48041116     15.96744379     10.47209867
C       3.13899766     -1.96821181      9.35152168
C      -4.02967290      9.58188766      9.78181509
C      10.47078517     15.10666382      9.60964490
C      -4.99080654      8.60714684     -2.08087113
C       2.33276588     -1.72080699     -4.11171303
C       3.32018718     -0.48128760     -3.90245006
C      16.52632283    -10.46059522     -6.66030537
C      -3.53852519      9.33287973     -2.02089561
C       8.22008274    -11.40298539      6.28527072
H       9.44021680     10.08845171     -0.87764068
H      -3.11177735    -13.81826327    -10.93541682
H      15.54509452     -9.79020067     -6.45089931
H      -9.29845673     -2.27982478     24.37164304
H      -9.75818424    -12.15916181     17.65669196
H      16.54794077      6.55523878     13.80501949
H       5.91218768      0.74692544     -1.47968260
H       5.54814923     15.73763200     21.04859572
H       8.75022257     16.60705528     11.11698902
H       2.10189023     -2.03759613     -5.28698196
H      -4.11294873      9.32988559      8.60742984
H      -7.60795428     21.24264948      9.77839804
H       2.80139743     -4.19830339     -3.44273390
H      -1.00271032      0.18463962      5.90817201
H       8.04892410    -10.35452686      8.30086085
H       4.31189318     -3.28089130     -3.89547637
H      -7.74116580     21.25126866     10.54689033
   94

C       6.90956889     -7.25737744    -13.22222258
C      -3.33980151    -13.05152445    -10.13445510
H       7.58955426     -6.53024071    -12.55377813
C      -0.98722963     -0.93002896      8.16276482
H      -5.64295029      8.36863867     -3.06450610
H       2.90454043     -2.81937281      8.49521951
C       0.27999175     -1.31374573      9.15284019
H       6.57496085     -8.32647493    -12.79444464
H      -9.00629946     -6.97077980    -19.18209278
H      -8.99858828     -7.74017380    -19.05413413
C       4.58111175      0.43546869     -3.82741621
H      16.72377540      5.80178571     13.90396695
C       8.62266052    -10.42613108      5.10790927
H       8.23743805     10.88132387     -2.23382230
H       8.85325665     -9.62686331      4.28851002
H       2.50425771    -10.90118664     17.33758595
C       7.27423864    -10.96752107      7.56672369
H       6.14789048    -10.86336974      7.08119881
C       7.48571627     11.10486567     -0.02876736
H       6.69092245    -11.27981267      8.59634163
H      11.29408878     15.62083491      8.91240027
H       6.90579201     11.71053887      0.79210003
C       8.26166785     10.27610496     -1.16600697
H      16.85665935      2.91567164     -5.08201074
C      15.75283083      2.69570535     -4.97144834
H       0.91478914      0.23291642     -3.19512083
H       7.74573100      9.17398354     -1.32805649
H      -3.13797041     10.13230255     10.36123563
C      17.16817985    -10.68004284     -8.13090973
H      -2.06148874     -0.62947414      8.64373087
H      -5.64620559      8.24965432     -1.13647331
C       3.18475659     -3.02965847     -3.42452480
H      -0.03002056     -2.39013878      9.69260893
C       1.47819485    -10.71751690     17.93036458
H       3.36925003     -3.03350731     -2.20120193
H     -10.96213603    -12.27297231     15.66815280
H       1.07348400     -9.60107577     18.09678086
C       0.97774523     -0.81015070     -3.80660345
H      -2.65694024      8.53846523     -1.75539360
C      -3.21994528     10.94599499     -2.25470546
H      -0.17630276     -0.85106502     -4.16655032
H      -3.43546603     11.62095948     -1.24464264
H      -2.08009463     11.25184706     -2.60822106
H      -3.83716236     11.52347420     -3.15176519
H      17.61481680    -10.04651834     -9.02810296
H      17.01543670    -11.96744500     -8.14787262
H      17.01545009    -10.65711484     -5.58879351
H       3.02925682      0.49623193      6.84599648
H       0.27366661     -0.52122851     10.09396085
H       0.85684299    -11.65028859     18.35672695
H       5.00348703      0.67956973     -4.90868022
H      -9.42675539     -2.95204827     23.99740373
H       4.85193082     15.53102303     20.76400362
H      10.43192921     13.91227980      9.62625019
H       3.31267793     -1.56654739     10.50450736
H      26.59648855      7.39426805     -2.17327271
H      -4.82410807      9.33859744     10.64401944
H      27.28666215      7.54264360     -1.84154317
H      -1.21699526     -1.76042491      5.79759193
H       8.72226258    -12.47997964      6.06924653
H       6.56419145     -6.91541505    -14.31844434
H       4.32829902     -2.20462992      9.53596723
C      -1.07923531     -0.83177365      6.54882378
C     -10.36016010    -12.21606702     16.66242237
C       2.47952001     -0.29307348      7.50752739
C       1.85862275     -1.22861224      8.63604123
C       5.29939131      0.68006869     -2.46353070
C       9.48049494     15.96745270     10.47218835
C       3.14100480     -1.97095970      9.34949256
C      -4.02955441      9.58271690      9.78538660
C      10.47081180     15.10667033      9.60967113
C      -4.99124855      8.60701306     -2.08049615
C       2.33503977     -1.71945794     -4.11286813
C       3.32862399     -0.48316184     -3.91164358
C      16.52893641    -10.49946237     -6.68321859
C      -3.53932733      9.33351667     -2.02114017
C       8.21982755    -11.40308979      6.28560550
H       9.44006067     10.08875088     -0.87718670
H      -3.11177772    -13.81826355    -10.93541720
H      15.55837031     -9.81340219     -6.46072768
H      -9.29845670     -2.27982479     24.37164302
H      -9.75818418    -12.15916174     17.65669196
H      16.54794092      6.55523880     13.80501950
H       5.91181236      0.74944887     -1.47845760
H       5.54814888     15.73763202     21.04859655
H       8.75015828     16.60704401     11.11693117
H       2.10469569     -2.03404753     -5.28878951
H      -4.11264314      9.33084527      8.61120495
H      -7.60795431     21.24264957      9.77839806
H       2.79328299     -4.19805989     -3.44371089
H      -1.00530048      0.18368783      5.90594815
H       8.04586243    -10.34899328      8.29992251
H       4.30867097     -3.28615713     -3.89182320
H      -7.74116583     21.25126874     10.54689035
   94

C       6.90956810     -7.25737721    -13.22222280
C      -3.33980188    -13.05152474    -10.13445543
H       7.58955311     -6.53024039    -12.55377809
C      -0.98933174     -0.92783495      8.16209373
H      -5.64208315      8.36615320     -3.06441374
H       2.92231923     -2.83942273      8.50546071
C       0.27910204     -1.30744602      9.15328539
H       6.57496005     -8.32647471    -12.79444490
H      -9.00629947     -6.97077978    -19.18209280
H      -8.99858829     -7.74017378    -19.05413416
C       4.58746626      0.43654214     -3.83031784
H      16.72377553      5.80178570     13.90396694
C       8.62307186    -10.42706808      5.10777859
H       8.23743429     10.88103374     -2.23404923
H       8.85438470     -9.62843826      4.28794263
H       2.50425755    -10.90118672     17.33758600
C       7.27407025    -10.96700744      7.56688986
H       6.14774061    -10.85751155      7.08242999
C       7.48561660     11.10487449     -0.02884480
H       6.69439739    -11.28979214      8.59547242
H      11.29407432     15.62082516      8.91236594
H       6.90610571     11.71053027      0.79232670
C       8.26158997     10.27610884     -1.16606533
H      16.85666026      2.91567231     -5.08201021
C      15.75283182      2.69570561     -4.97144782
H       0.90459551      0.22817983     -3.19024496
H       7.74575577      9.17397768     -1.32837513
H      -3.13287223     10.13415489     10.35659015
C      17.18416364    -10.64570046     -8.15462021
H      -2.06556249     -0.62950894      8.64072470
H      -5.64681286      8.24964255     -1.13613971
C       3.18137861     -3.03084816     -3.42369616
H      -0.03141717     -2.38566548      9.68854765
C       1.47819466    -10.71751683     17.93036453
H       3.36506423     -3.03382431     -2.20024786
H     -10.96213597    -12.27297225     15.66815280
H       1.07348380     -9.60107569     18.09678068
C       0.97795826     -0.81287186     -3.80383994
H      -2.65806656      8.53838675     -1.75685299
C      -3.21970523     10.94650382     -2.25457490
H      -0.17607366     -0.85721408     -4.16307936
H      -3.43462196     11.62167722     -1.24452668
H      -2.07960635     11.25191465     -2.60773464
H      -3.83661873     11.52424651     -3.15166778
H      17.63123027    -10.03105044     -9.05944009
H      16.96561434    -11.95236076     -8.04363590
H      17.01389717    -10.66336517     -5.60330259
H       3.02680851      0.49756511      6.84287200
H       0.26865911     -0.51851056     10.09763465
H       0.85684279    -11.65028851     18.35672694
H       5.00986089      0.69028036     -4.90943684
H      -9.42675535     -2.95204828     23.99740370
H       4.85193045     15.53102304     20.76400444
H      10.43189945     13.91228762      9.62622928
H       3.31404371     -1.57300059     10.50336288
H      26.59648867      7.39426823     -2.17327259
H      -4.82984687      9.33537687     10.64134836
H      27.28666227      7.54264375     -1.84154306
H      -1.21791422     -1.76111522      5.79651807
H       8.72163763    -12.48027464      6.06981335
H       6.56419083     -6.91541502    -14.31844468
H       4.33119326     -2.20488623      9.53006351
C      -1.08109233     -0.83214818      6.54771303
C     -10.36016003    -12.21606695     16.66242236
C       2.47485101     -0.28424704      7.51191694
C       1.86009195     -1.22214461      8.64187877
C       5.30216766      0.68282205     -2.46452607
C       9.48057873     15.96746159     10.47227805
C       3.14293575     -1.97386071      9.34733723
C      -4.02943064      9.58355857      9.78901436
C      10.47083843     15.10667682      9.60969735
C      -4.99169089      8.60687905     -2.08012301
C       2.33733159     -1.71807499     -4.11399700
C       3.33709648     -0.48508562     -3.92084100
C      16.53419332    -10.53485548     -6.70708075
C      -3.54013017      9.33415358     -2.02138515
C       8.21957303    -11.40319279      6.28594010
H       9.43990426     10.08904994     -0.87673288
H      -3.11177801    -13.81826380    -10.93541753
H      15.57208889     -9.83665432     -6.47154468
H      -9.29845667     -2.27982480     24.37164299
H      -9.75818410    -12.15916166     17.65669194
H      16.54794103      6.55523879     13.80501950
H       5.91141929      0.75197257     -1.47726011
H       5.54814851     15.73763203     21.04859737
H       8.75009400     16.60703270     11.11687329
H       2.10749250     -2.03048896     -5.29055706
H      -4.11233463      9.33181472      8.61502734
H      -7.60795434     21.24264965      9.77839807
H       2.78517512     -4.19778126     -3.44470408
H      -1.00788806      0.18273309      5.90372749
H       8.04276689    -10.34351142      8.29901177
H       4.30541848     -3.29140970     -3.88817192
H      -7.74116586     21.25126881     10.54689037
   94

C       6.90956795     -7.25737702    -13.22222269
C      -3.33980213    -13.05152501    -10.13445570
H       7.58955287     -6.53024030    -12.55377778
C      -0.99142834     -0.92563873      8.16142305
H      -5.64121336      8.36366658     -3.06431766
H       2.94022112     -2.85931921      8.51599754
C       0.27822166     -1.30112689      9.15372543
H       6.57495978     -8.32647451    -12.79444485
H      -9.00629946     -6.97077977    -19.18209282
H      -8.99858830     -7.74017376    -19.05413418
C       4.59381912      0.43759077     -3.83323446
H      16.72377561      5.80178569     13.90396694
C       8.62347903    -10.42800172      5.10765254
H       8.23743067     10.88074345     -2.23427615
H       8.85551153     -9.63001463      4.28737787
H       2.50425742    -10.90118680     17.33758596
C       7.27390466    -10.96649809      7.56705382
H       6.14759505    -10.85169229      7.08371034
C       7.48551670     11.10488327     -0.02892234
H       6.69790343    -11.29968525      8.59452335
H      11.29405983     15.62081539      8.91233158
H       6.90641968     11.71052151      0.79255340
C       8.26151200     10.27611266     -1.16612371
H      16.85666138      2.91567204     -5.08201025
C      15.75283300      2.69570510     -4.97144784
H       0.89440452      0.22338609     -3.18539934
H       7.74578065      9.17397173     -1.32869378
H      -3.12778146     10.13599469     10.35189323
C      17.19782980    -10.61862762     -8.17775665
H      -2.06962194     -0.62955014      8.63771649
H      -5.64742005      8.24963093     -1.13580712
C       3.17798906     -3.03201960     -3.42287377
H      -0.03276817     -2.38117671      9.68445371
C       1.47819451    -10.71751676     17.93036441
H       3.36087499     -3.03412884     -2.19930117
H     -10.96213588    -12.27297218     15.66815278
H       1.07348364     -9.60107560     18.09678043
C       0.97819869     -0.81555749     -3.80107416
H      -2.65919463      8.53830985     -1.75831370
C      -3.21946510     10.94701231     -2.25444409
H      -0.17580760     -0.86337676     -4.15960807
H      -3.43377743     11.62239441     -1.24441061
H      -2.07911807     11.25198138     -2.60724779
H      -3.83607446     11.52501890     -3.15157012
H      17.64583807    -10.01751390     -9.08664584
H      16.91813740    -11.93147798     -7.94295776
H      17.01190726    -10.66947810     -5.61814221
H       3.02431639      0.49883975      6.83978619
H       0.26363294     -0.51581558     10.10129986
H       0.85684264    -11.65028841     18.35672687
H       5.01619290      0.70098045     -4.91013318
H      -9.42675530     -2.95204829     23.99740365
H       4.85193009     15.53102304     20.76400525
H      10.43186966     13.91229545      9.62620836
H       3.31535980     -1.57948797     10.50206561
H      26.59648872      7.39426826     -2.17327256
H      -4.83558655      9.33214681     10.63862433
H      27.28666232      7.54264379     -1.84154303
H      -1.21882701     -1.76180663      5.79544931
H       8.72101382    -12.48056764      6.07037681
H       6.56419079     -6.91541500    -14.31844465
H       4.33402832     -2.20514361      9.52406596
C      -1.08294237     -0.83252368      6.54660580
C     -10.36015993    -12.21606686     16.66242233
C       2.47020095     -0.27540157      7.51632285
C       1.86158086     -1.21559149      8.64777020
C       5.30493075      0.68556852     -2.46553717
C       9.48066258     15.96747048     10.47236781
C       3.14478666     -1.97692634      9.34505848
C      -4.02930157      9.58441283      9.79269874
C      10.47086506     15.10668331      9.60972360
C      -4.99213386      8.60674501     -2.07975155
C       2.33964297     -1.71665626     -4.11510029
C       3.34560695     -0.48705880     -3.93004344
C      16.54153828    -10.56711084     -6.73130724
C      -3.54093405      9.33479073     -2.02163058
C       8.21931902    -11.40329454      6.28627470
H       9.43974749     10.08934906     -0.87627905
H      -3.11177818    -13.81826404    -10.93541780
H      15.58593161     -9.85977686     -6.48281227
H      -9.29845662     -2.27982481     24.37164294
H      -9.75818400    -12.15916157     17.65669191
H      16.54794110      6.55523877     13.80501949
H       5.91100787      0.75449794     -1.47609008
H       5.54814815     15.73763203     21.04859818
H       8.75002969     16.60702135     11.11681535
H       2.11028206     -2.02691845     -5.29228546
H      -4.11202328      9.33279404      8.61889716
H      -7.60795437     21.24264973      9.77839809
H       2.77707033     -4.19746654     -3.44571353
H      -1.01047420      0.18177505      5.90150920
H       8.03963817    -10.33808010      8.29812804
H       4.30213411     -3.29665040     -3.88452141
H      -7.74116588     21.25126888     10.54689038
   94

C       6.90956843     -7.25737692    -13.22222225
C      -3.33980226    -13.05152527    -10.13445591
H       7.58955348     -6.53024044    -12.55377719
C      -0.99351883     -0.92343937      8.16075289
H      -5.64034081      8.36117848     -3.06421785
H       2.95825055     -2.87905486      8.52682322
C       0.27735147     -1.29478802      9.15416028
H       6.57496002     -8.32647436    -12.79444447
H      -9.00629945     -6.97077975    -19.18209282
H      -8.99858828     -7.74017375    -19.05413419
C       4.60017050      0.43861546     -3.83616668
H      16.72377564      5.80178567     13.90396694
C       8.62388208    -10.42893215      5.10753110
H       8.23742720     10.88045297     -2.23450306
H       8.85663729     -9.63159264      4.28681568
H       2.50425732    -10.90118688     17.33758583
C       7.27374155    -10.96599291      7.56721599
H       6.14745388    -10.84591272      7.08503799
C       7.48541653     11.10489202     -0.02899999
H       6.70143871    -11.30949082      8.59349670
H      11.29404531     15.62080561      8.91229720
H       6.90673396     11.71051260      0.79278018
C       8.26143394     10.27611642     -1.16618212
H      16.85666269      2.91567095     -5.08201079
C      15.75283436      2.69570393     -4.97144833
H       0.88421519      0.21853426     -3.18058361
H       7.74580563      9.17396569     -1.32901245
H      -3.12269993     10.13782115     10.34714532
C      17.20959344    -10.59710178     -8.20027391
H      -2.07366675     -0.62959753      8.63470625
H      -5.64802722      8.24961949     -1.13547550
C       3.17458773     -3.03317240     -3.42205779
H      -0.03407486     -2.37667061      9.68032864
C       1.47819440    -10.71751668     17.93036421
H       3.35668186     -3.03442095     -2.19836194
H     -10.96213578    -12.27297210     15.66815274
H       1.07348351     -9.60107550     18.09678010
C       0.97846563     -0.81820779     -3.79830541
H      -2.66032456      8.53823453     -1.75977596
C      -3.21922485     10.94752052     -2.25431301
H      -0.17550478     -0.86955384     -4.15613662
H      -3.43293238     11.62311111     -1.24429441
H      -2.07862977     11.25204723     -2.60676047
H      -3.83552947     11.52579148     -3.15147217
H      17.65904812    -10.00565061     -9.11068421
H      16.87307649    -11.90493311     -7.84570951
H      17.00955480    -10.67577929     -5.63317985
H       3.02177870      0.50005812      6.83674267
H       0.25859002     -0.51314277     10.10495529
H       0.85684251    -11.65028830     18.35672673
H       5.02248318      0.71166833     -4.91076966
H      -9.42675523     -2.95204829     23.99740359
H       4.85192971     15.53102302     20.76400605
H      10.43183982     13.91230328      9.62618742
H       3.31662789     -1.58600631     10.50061452
H      26.59648870      7.39426816     -2.17327262
H      -4.84132527      9.32890814     10.63584711
H      27.28666230      7.54264370     -1.84154309
H      -1.21973431     -1.76249893      5.79438564
H       8.72039103    -12.48085876      6.07093700
H       6.56419130     -6.91541502    -14.31844427
H       4.33680090     -2.20540554      9.51797258
C      -1.08478574     -0.83289999      6.54550211
C     -10.36015982    -12.21606678     16.66242229
C       2.46556966     -0.26653697      7.52074641
C       1.86309204     -1.20895673      8.65371693
C       5.30768108      0.68830800     -2.46656456
C       9.48074650     15.96747937     10.47245766
C       3.14655290     -1.98016686      9.34265961
C      -4.02916719      9.58527971      9.79643974
C      10.47089171     15.10668979      9.60974987
C      -4.99257755      8.60661098     -2.07938175
C       2.34197465     -1.71520061     -4.11617785
C       3.35415625     -0.48908149     -3.93924965
C      16.55003031    -10.59768902     -6.75555696
C      -3.54173909      9.33542820     -2.02187646
C       8.21906545    -11.40339516      6.28660933
H       9.43959033     10.08964826     -0.87582516
H      -3.11177822    -13.81826428    -10.93541801
H      15.59987233     -9.88282797     -6.49421452
H      -9.29845656     -2.27982482     24.37164289
H      -9.75818388    -12.15916147     17.65669186
H      16.54794112      6.55523875     13.80501950
H       5.91057816      0.75702532     -1.47494773
H       5.54814777     15.73763201     21.04859898
H       8.74996533     16.60700997     11.11675733
H       2.11306492     -2.02333505     -5.29397466
H      -4.11170918      9.33378317      8.62281425
H      -7.60795440     21.24264981      9.77839811
H       2.76896809     -4.19711535     -3.44673939
H      -1.01305922      0.18081378      5.89929316
H       8.03647819    -10.33269960      8.29727058
H       4.29881753     -3.30187923     -3.88087164
H      -7.74116591     21.25126895     10.54689040
   94

C       6.90956946     -7.25737689    -13.22222150
C      -3.33980226    -13.05152551    -10.13445606
H       7.58955482     -6.53024078    -12.55377633
C      -0.99560255     -0.92123673      8.16008353
H      -5.63946564      8.35868924     -3.06411431
H       2.97641141     -2.89861893      8.53792875
C       0.27649232     -1.28843021      9.15459000
H       6.57496074     -8.32647427    -12.79444378
H      -9.00629942     -6.97077972    -19.18209281
H      -8.99858826     -7.74017373    -19.05413418
C       4.60651931      0.43961729     -3.83911452
H      16.72377564      5.80178563     13.90396695
C       8.62428103    -10.42985924      5.10741423
H       8.23742387     10.88016232     -2.23472994
H       8.85776186     -9.63317209      4.28625609
H       2.50425725    -10.90118697     17.33758562
C       7.27358060    -10.96549195      7.56737689
H       6.14731738    -10.84017460      7.08641044
C       7.48531614     11.10490075     -0.02907773
H       6.70500051    -11.31920570      8.59239520
H      11.29403076     15.62079581      8.91226280
H       6.90704851     11.71050355      0.79300701
C       8.26135579     10.27612012     -1.16624054
H      16.85666415      2.91566906     -5.08201172
C      15.75283583      2.69570209     -4.97144916
H       0.87402744      0.21362467     -3.17579886
H       7.74583069      9.17395957     -1.32933112
H      -3.11762986     10.13963329     10.34234732
C      17.21984614    -10.57954847     -8.22196783
H      -2.07769604     -0.62965073      8.63169458
H      -5.64863430      8.24960820     -1.13514491
C       3.17117533     -3.03430618     -3.42124854
H      -0.03533861     -2.37214603      9.67617488
C       1.47819432    -10.71751658     17.93036395
H       3.35248582     -3.03470070     -2.19743046
H     -10.96213565    -12.27297202     15.66815269
H       1.07348342     -9.60107539     18.09677971
C       0.97875786     -0.82082259     -3.79553317
H      -2.66145625      8.53816082     -1.76123956
C      -3.21898452     10.94802840     -2.25418168
H      -0.17516555     -0.87574413     -4.15266604
H      -3.43208688     11.62382725     -1.24417810
H      -2.07814148     11.25211222     -2.60627273
H      -3.83498383     11.52656415     -3.15137395
H      17.67115416     -9.99535466     -9.13235887
H      16.83048535    -11.87269536     -7.75170699
H      17.00696732    -10.68251807     -5.64841417
H       3.01919451      0.50122262      6.83374559
H       0.25353290     -0.51049176     10.10859930
H       0.85684243    -11.65028818     18.35672653
H       5.02873101      0.72233989     -4.91134678
H      -9.42675516     -2.95204830     23.99740351
H       4.85192932     15.53102299     20.76400684
H      10.43180994     13.91231110      9.62616646
H       3.31784945     -1.59255050     10.49900914
H      26.59648862      7.39426794     -2.17327275
H      -4.84706068      9.32566202     10.63301671
H      27.28666222      7.54264351     -1.84154321
H      -1.22063676     -1.76319159      5.79332705
H       8.71976938    -12.48114802      6.07149378
H       6.56419229     -6.91541510    -14.31844355
H       4.33950638     -2.20567737      9.51178291
C      -1.08662256     -0.83327684      6.54440222
C     -10.36015968    -12.21606668     16.66242223
C       2.46095763     -0.25765530      7.52518697
C       1.86462746     -1.20224492      8.65971889
C       5.31041881      0.69103981     -2.46760845
C       9.48083048     15.96748827     10.47254759
C       3.14822944     -1.98359129      9.34014459
C      -4.02902746      9.58615913      9.80023698
C      10.47091837     15.10669626      9.60977617
C      -4.99302187      8.60647688     -2.07901365
C       2.34432667     -1.71370750     -4.11722899
C       3.36274399     -0.49115387     -3.94845666
C      16.55879882    -10.62795461     -6.77956943
C      -3.54254517      9.33606591     -2.02212281
C       8.21881234    -11.40349469      6.28694393
H       9.43943280     10.08994752     -0.87537124
H      -3.11177814    -13.81826449    -10.93541816
H      15.61391431     -9.90590437     -6.50559764
H      -9.29845649     -2.27982483     24.37164282
H      -9.75818374    -12.15916137     17.65669179
H      16.54794110      6.55523871     13.80501950
H       5.91013067      0.75955432     -1.47383350
H       5.54814738     15.73763199     21.04859977
H       8.74990092     16.60699855     11.11669925
H       2.11584094     -2.01973857     -5.29562405
H      -4.11139242      9.33478193      8.62677806
H      -7.60795444     21.24264989      9.77839813
H       2.76087003     -4.19672771     -3.44778185
H      -1.01564281      0.17984960      5.89707977
H       8.03328976    -10.32737110      8.29643853
H       4.29546938     -3.30709507     -3.87722335
H      -7.74116594     21.25126903     10.54689043
   94

C       6.90957100     -7.25737695    -13.22222042
C      -3.33980215    -13.05152573    -10.13445616
H       7.58955682     -6.53024132    -12.55377517
C      -0.99767879     -0.91903077      8.15941525
H      -5.63858799      8.35619928     -3.06400703
H       2.99470672     -2.91799842      8.54930376
C       0.27564513     -1.28205447      9.15501456
H       6.57496193     -8.32647427    -12.79444277
H      -9.00629938     -6.97077970    -19.18209279
H      -8.99858822     -7.74017371    -19.05413417
C       4.61286436      0.44059732     -3.84207793
H      16.72377558      5.80178557     13.90396694
C       8.62467595    -10.43078284      5.10730185
H       8.23742066     10.87987150     -2.23495677
H       8.85888517     -9.63475269      4.28569910
H       2.50425721    -10.90118705     17.33758532
C       7.27342148    -10.96499527      7.56753704
H       6.14718583    -10.83447957      7.08782507
C       7.48521554     11.10490942     -0.02915552
H       6.70858611    -11.32882687      8.59122163
H      11.29401618     15.62078599      8.91222839
H       6.90736327     11.71049432      0.79323384
C       8.26127756     10.27612373     -1.16629896
H      16.85666569      2.91566647     -5.08201292
C      15.75283738      2.69569961     -4.97145024
H       0.86384149      0.20865769     -3.17104630
H       7.74585585      9.17395334     -1.32964977
H      -3.11257368     10.14143005     10.33750040
C      17.22885274    -10.56479285     -8.24256118
H      -2.08170884     -0.62970933      8.62868215
H      -5.64924120      8.24959702     -1.13481537
C       3.16775269     -3.03542058     -3.42044637
H      -0.03656094     -2.36760190      9.67199502
C       1.47819428    -10.71751648     17.93036360
H       3.34828800     -3.03496817     -2.19650702
H     -10.96213550    -12.27297192     15.66815262
H       1.07348337     -9.60107527     18.09677924
C       0.97907412     -0.82340179     -3.79275693
H      -2.66258958      8.53808871     -1.76270425
C      -3.21874414     10.94853588     -2.25405013
H      -0.17479028     -0.88194623     -4.14919745
H      -3.43124101     11.62454277     -1.24406172
H      -2.07765327     11.25217635     -2.60578461
H      -3.83443761     11.52733682     -3.15127551
H      17.68230555     -9.98658652     -9.15215511
H      16.79043294    -11.83502265     -7.66094550
H      17.00427951    -10.68982409     -5.66387959
H       3.01656291      0.50233560      6.83079927
H       0.24846445     -0.50786218     10.11223011
H       0.85684238    -11.65028804     18.35672625
H       5.03493566      0.73299080     -4.91186510
H      -9.42675507     -2.95204831     23.99740342
H       4.85192893     15.53102295     20.76400762
H      10.43178003     13.91231891      9.62614549
H       3.31902623     -1.59911512     10.49724986
H      26.59648850      7.39426761     -2.17327293
H      -4.85279018      9.32240974     10.63013334
H      27.28666207      7.54264323     -1.84154338
H      -1.22153499     -1.76388405      5.79227353
H       8.71914898    -12.48143536      6.07204703
H       6.56419374     -6.91541525    -14.31844248
H       4.34213992     -2.20596564      9.50549728
C      -1.08845299     -0.83365392      6.54330638
C     -10.36015952    -12.21606657     16.66242215
C       2.45636558     -0.24875960      7.52964362
C       1.86618886     -1.19546193      8.66577513
C       5.31314408      0.69376324     -2.46866905
C       9.48091450     15.96749715     10.47263757
C       3.14981171     -1.98720756      9.33751797
C      -4.02888237      9.58705098      9.80408982
C      10.47094503     15.10670271      9.60980249
C      -4.99346672      8.60634263     -2.07864730
C       2.34669900     -1.71217650     -4.11825302
C       3.37136943     -0.49327594     -3.95766130
C      16.56726577    -10.65870486     -6.80316108
C      -3.54335221      9.33670378     -2.02236962
C       8.21855971    -11.40359315      6.28727840
H       9.43927492     10.09024678     -0.87491734
H      -3.11177795    -13.81826469    -10.93541825
H      15.62801604     -9.92903498     -6.51690669
H      -9.29845641     -2.27982484     24.37164274
H      -9.75818358    -12.15916125     17.65669171
H      16.54794104      6.55523864     13.80501949
H       5.90966599      0.76208445     -1.47274784
H       5.54814699     15.73763195     21.04860056
H       8.74983650     16.60698709     11.11664112
H       2.11861005     -2.01612890     -5.29723303
H      -4.11107313      9.33579010      8.63078784
H      -7.60795447     21.24264998      9.77839815
H       2.75277799     -4.19630369     -3.44884113
H      -1.01822461      0.17888291      5.89486950
H       8.03007573    -10.32209567      8.29563093
H       4.29209043     -3.31229673     -3.87357736
H      -7.74116596     21.25126910     10.54689045
   94

C       6.90957555     -7.25737927    -13.22222241
C      -3.33980010    -13.05152339    -10.13445385
H       7.58956344     -6.53024424    -12.55377857
C      -1.00162452     -0.91703081      8.15858123
H      -5.63758546      8.35328214     -3.06382518
H       3.03068688     -2.95098480      8.56865750
C       0.27369722     -1.27257793      9.15626975
H       6.57496638     -8.32647664    -12.79444490
H      -9.00629938     -6.97077983    -19.18209263
H      -8.99858819     -7.74017383    -19.05413396
C       4.62151654      0.44331073     -3.84620431
H      16.72377501      5.80178502     13.90396682
C       8.62513723    -10.43199749      5.10729953
H       8.23734705     10.87939632     -2.23528860
H       8.86002196     -9.63653684      4.28528124
H       2.50425844    -10.90118632     17.33758517
C       7.27291647    -10.96469969      7.56834353
H       6.14736118    -10.82653159      7.08878119
C       7.48521860     11.10490586     -0.02916541
H       6.71286671    -11.34162402      8.59033894
H      11.29400384     15.62077208      8.91219061
H       6.90771713     11.71047887      0.79347912
C       8.26118994     10.27611145     -1.16636646
H      16.85665692      2.91566089     -5.08201493
C      15.75282822      2.69569544     -4.97145247
H       0.84573792      0.20262796     -3.16577737
H       7.74584818      9.17396880     -1.33016711
H      -3.10319237     10.14462760     10.32846709
C      17.24382768    -10.53140878     -8.27411694
H      -2.08815839     -0.62940870      8.62447127
H      -5.65001922      8.24939592     -1.13437116
C       3.16332329     -3.03747768     -3.41917734
H      -0.03902012     -2.36074965      9.66603691
C       1.47819573    -10.71751696     17.93036419
H       3.34382709     -3.03540775     -2.19520843
H     -10.96213609    -12.27297242     15.66815272
H       1.07348491     -9.60107587     18.09678088
C       0.97864924     -0.82717347     -3.78774731
H      -2.66428751      8.53796889     -1.76439378
C      -3.21842644     10.94926558     -2.25392428
H      -0.17460432     -0.88837743     -4.14494983
H      -3.43001646     11.62562559     -1.24398661
H      -2.07698517     11.25237338     -2.60507053
H      -3.83373761     11.52837121     -3.15121608
H      17.70065793     -9.96868842     -9.18506134
H      16.72651991    -11.74782163     -7.49521301
H      16.99807399    -10.70977970     -5.69788038
H       3.01390830      0.50527070      6.82631572
H       0.23973932     -0.50401879     10.11844753
H       0.85684386    -11.65028868     18.35672652
H       5.04433870      0.74708158     -4.91278535
H      -9.42675544     -2.95204824     23.99740376
H       4.85192863     15.53102301     20.76400835
H      10.43174852     13.91232935      9.62612434
H       3.31983851     -1.60720962     10.49301900
H      26.59648769      7.39426669     -2.17327341
H      -4.86331319      9.31628426     10.62470807
H      27.28666125      7.54264242     -1.84154386
H      -1.22314356     -1.76433464      5.79031982
H       8.71842681    -12.48184589      6.07271292
H       6.56419701     -6.91541656    -14.31844376
H       4.34418944     -2.20927682      9.49590213
C      -1.09156511     -0.83399364      6.54184161
C     -10.36016020    -12.21606716     16.66242232
C       2.44867861     -0.23546319      7.53324154
C       1.86796223     -1.18114752      8.67553868
C       5.31709655      0.69783205     -2.46983274
C       9.48099625     15.96750426     10.47272837
C       3.15068531     -1.99357973      9.33294177
C      -4.02855115      9.58862467      9.81122943
C      10.47097168     15.10671146      9.60982770
C      -4.99386518      8.60575101     -2.07815917
C       2.34925599     -1.71062678     -4.11875870
C       3.38494398     -0.49781634     -3.97096937
C      16.57403838    -10.73280809     -6.84848284
C      -3.54441942      9.33755553     -2.02282682
C       8.21815162    -11.40391402      6.28786182
H       9.43907560     10.09066140     -0.87426696
H      -3.11177660    -13.81826260    -10.93541594
H      15.65801413     -9.97343688     -6.53884054
H      -9.29845674     -2.27982476     24.37164303
H      -9.75818431    -12.15916191     17.65669192
H      16.54794061      6.55523813     13.80501939
H       5.90978846      0.76514810     -1.47112088
H       5.54814668     15.73763201     21.04860129
H       8.74977012     16.60697455     11.11658355
H       2.12198190     -2.01111741     -5.29873433
H      -4.11046019      9.33756022      8.63825760
H      -7.60795419     21.24264930      9.77839801
H       2.74269489     -4.19652643     -3.45107969
H      -1.02158062      0.17783454      5.89207289
H       8.02630842    -10.31468606      8.29378532
H       4.28783348     -3.31925051     -3.86855240
H      -7.74116572     21.25126849     10.54689030
