   94
energy=      0.00000000
C      -9.91962577     -1.68283492     -3.77949989
C      -8.44322828     -2.08288798     -2.99224912
H      -9.70928231     -0.99895701     -4.80228719
C     -11.24561685     -1.05065172     -2.88336052
H     -10.28618573     -2.61254432     -4.52626386
H      -7.72197549     -1.14745117     -2.61314468
C      -0.18106884     -1.64679910     -1.27945091
H      -8.46386140     -2.81355575     -1.99123941
H      -5.82434168     -4.70939886    -13.97053257
H      -5.81663049     -5.47879285    -13.84257390
C       0.96400529     -1.37825420     -2.32389738
H       0.17424139     -0.95646788     -3.17299112
C       2.38283876     -0.51679192     -1.90089230
H       1.02474155     -2.55006888     -2.70671274
H       2.36733834      0.57424140     -2.49831266
H       3.25144488     -0.85068356     -2.73098577
C       3.00766675     -0.36896822     -0.28484493
H       4.25495466     -0.37630783     -0.29815823
C       2.48217007      0.76632284      0.93195560
H       3.16515177     -1.51998711      0.15504873
H       1.97458748      1.76305890      0.39645945
H       3.36177103      1.62606445      1.13426621
C       1.67513939      0.38169599      2.43311015
H       2.36835806      0.78281918      3.38646211
C       3.10166687      3.65598424    -10.58674140
H       2.01453731     -0.72042457      2.90107095
H       2.45566006      4.46411171    -11.04612010
H       0.48442610      9.61407615     12.25867824
C      10.73503642     -4.86111299     -9.76333211
H     -11.14266421      0.07555040     -2.37380811
H     -11.68794702     -1.67380529     -1.90726209
C     -21.48168869     -1.47231689     -2.28282203
H     -12.35692353     -0.87278605     -3.40240342
C      -8.02600892      0.03014833     10.36013001
H     -22.15990543     -2.35733542     -2.28629606
H      -8.08601590      0.90414039      9.59415204
H      -7.96598878     -0.84381485     11.12613992
C      -0.02430666      0.60024956      2.74211604
H      -0.55579807      1.35214131      1.90641572
C      -0.78307757      1.04349149      4.22977971
H      -0.63022786     -0.38813214      2.28528912
H      -0.48734044      2.11593813      4.77977782
H      -0.70715948      0.30044457      5.22064348
H      -2.01255581      1.19845316      4.31595546
H      10.30562423     -3.78036640     -9.47089741
H      11.25763177     -5.03029276    -10.82925818
H      10.64185328     -5.77267981     -8.98984073
H       4.10937291     -3.37604633     17.61590510
H       1.29087844     -3.83352902     19.63349722
H       7.87752227     -7.92833814      8.12290552
H      17.39226032     -3.75827583     14.57658445
H      -8.57328484     -4.15503337     22.41094426
H       8.67322076      8.75417555      1.00144116
H      -1.21330828     10.01002773     14.99821007
H      10.40438855      8.43573955      4.06395655
H      15.57713523     -2.36270783      0.96760637
H      -1.20431456      8.78406891     12.28674359
H      18.01650241     -0.43378215      2.31404607
H      22.42964607     -0.24841713     -9.24536768
H      12.27885182     -1.47335044      3.22883143
H      20.31948059     -1.49652388     -0.30807115
H       8.96336632      7.27943821      3.62311552
C      15.47194240     -2.36237021     15.46711720
C       8.14599340     -6.82122655      7.90538200
C       2.95583979     -3.06400715     17.60399370
C       1.99120661     -3.50052466     18.76354304
C      16.79824559     -2.73317852     14.70461265
C       9.27062608      9.10946448      1.99068110
C       9.29899282      8.46124674      3.51727997
C      -0.69744568      9.89364897     12.50585447
C      -1.06470403     10.68922831     13.97220622
C      15.90207885     -1.52651962      1.81225631
C      17.18281546     -0.48716733      1.40912071
C      18.23408912     -0.60551860      0.17285640
C      19.61933403     -0.55510585     -0.66802783
C      14.45392098     -0.97037823      2.26478907
C      13.01756117     -0.62492953      2.82189788
H      19.63454401     -0.64724241     -1.89023097
H      -7.53652846     -2.73720124     -3.52579457
H      14.62424611     -1.99858624     16.18345464
H      -8.44498614     -3.48280989     22.78518353
H       7.96221376     -5.92684277      7.19026528
H      17.54356026     -1.96752814     14.18124543
H       2.57209840     -2.41098673     16.67942046
H       9.83687339     10.08046625      1.54486580
H      -0.26362236     11.52582786     14.41318251
H       8.55956584      9.04370483      4.31550807
H      16.11337730     -2.28329089      2.76376345
H      -0.98793183     10.44995728     11.43709862
H      16.85537190      0.69555745      1.29536384
H      22.32074342      0.52164523     -9.30490065
H      12.57905301      0.48402106      2.88591311
H      20.17570807      0.52783578     -0.50029653
H      -2.10166093     11.36464280     14.04029515
   94
energy=      0.00000000
C      -9.94653549     -1.68996938     -3.78720534
C      -8.46723370     -2.08722077     -3.00381925
H      -9.73431201     -1.00690493     -4.81024235
C     -11.27455639     -1.05410020     -2.89704740
H     -10.31759448     -2.62558703     -4.52450317
H      -7.74691094     -1.15934149     -2.60519661
C      -0.16864670     -1.63821849     -1.27418344
H      -8.47521270     -2.81330396     -1.99930667
H      -5.82327299     -4.71031834    -13.97335978
H      -5.81556180     -5.47971233    -13.84540111
C       0.98218275     -1.37115738     -2.31282113
H       0.19040352     -0.95361569     -3.16172290
C       2.39805510     -0.50368741     -1.89349999
H       1.05284663     -2.54531625     -2.68637331
H       2.38135327      0.58953266     -2.48661354
H       3.26987575     -0.81663368     -2.72816007
C       3.01622126     -0.37151371     -0.27452943
H       4.26297596     -0.40616499     -0.27205957
C       2.49271636      0.77394109      0.93232887
H       3.15622376     -1.52508349      0.16441764
H       1.98857897      1.77421292      0.39983933
H       3.37522364      1.63227123      1.12781583
C       1.68108127      0.38943985      2.42973262
H       2.37529863      0.79844892      3.37868252
C       3.10166687      3.65598425    -10.58674141
H       2.02040618     -0.70986703      2.90421513
H       2.45566006      4.46411171    -11.04612010
H       0.48359399      9.60719097     12.26259760
C      10.73503642     -4.86111299     -9.76333211
H     -11.16945086      0.07110768     -2.38590816
H     -11.72378618     -1.67810958     -1.92462388
C     -21.51356975     -1.47315187     -2.28045991
H     -12.38209980     -0.87017336     -3.42234928
C      -8.02600585      0.03015509     10.36013751
H     -22.19178648     -2.35817040     -2.28393394
H      -8.08601750      0.90413702      9.59414833
H      -7.96599032     -0.84381824     11.12613618
C      -0.02006781      0.59980252      2.73261346
H      -0.56627448      1.33526709      1.89134989
C      -0.75768849      1.04533092      4.22958589
H      -0.63070746     -0.38525225      2.27472120
H      -0.45179202      2.11992418      4.76970984
H      -0.66928806      0.29840131      5.21662227
H      -1.98435566      1.20404116      4.33884764
H      10.30562423     -3.78036640     -9.47089741
H      11.25763177     -5.03029276    -10.82925818
H      10.64185328     -5.77267981     -8.98984073
H       4.04270976     -3.24752054     17.85171258
H       1.21780860     -3.70391082     19.87019475
H       6.69623601     -9.50107348      8.92591232
H      17.30909618     -3.81971051     14.62149565
H      -8.70101793     -4.16259184     22.46177845
H       8.25872919      9.53045194      1.03372725
H      -1.20547017     10.01047711     14.99962220
H       9.98988334      9.21202758      4.09616558
H      14.25879809     -2.60927400      1.51697997
H      -1.21064915      8.78765474     12.28325356
H      16.71887752     -0.62012965      2.89562350
H      22.75804914      0.03922184    -13.10207148
H      10.93217692     -1.72564220      3.80524110
H      25.57955124     -1.30123948     -0.80875813
H       8.54876765      8.05574838      3.65550448
C      15.54365658     -2.35559275     15.49418646
C       6.81209499     -8.41869075      8.51586859
C       2.88849627     -2.93772849     17.84404308
C       1.92467991     -3.37465421     19.00411723
C      16.85656317     -2.71773124     14.71019512
C       8.85608646      9.88576125      2.02298825
C       8.88444002      9.23753586      3.54958406
C      -0.69745919      9.89364132     12.50586130
C      -1.06468543     10.68923176     13.97220292
C      14.56123463     -1.81591267      2.41136887
C      15.80811644     -0.72532491      2.07491570
C      16.73099489     -0.92812363      0.81200931
C      25.27142579     -0.32303945     -1.43092745
C      13.11565613     -1.26537280      2.86156604
C      11.68348673     -0.88857819      3.40021765
H      24.83513233     -0.44778626     -2.53995785
H      -7.57023736     -2.73293633     -3.56454180
H      14.63009658     -2.03008487     16.14177843
H      -8.57271924     -3.49036836     22.83601772
H       6.78499036     -7.40355459      7.94852793
H      17.51608367     -1.88369999     14.16707779
H       2.50021071     -2.28475049     16.92138386
H       9.42230977     10.85678934      1.57719811
H      -0.26735058     11.53158358     14.40903692
H       8.14499746      9.81996554      4.34781829
H      14.78442876     -2.62181409      3.31708332
H      -0.98094658     10.45338669     11.43700787
H      15.52916772      0.45123143      1.85259602
H      22.64914649      0.80928420    -13.16160445
H      11.27626332      0.23270927      3.44650661
H      25.43615607      0.78310664     -0.99766534
H      -2.10559449     11.35831183     14.04268649
