   94

C     -11.92916030     -2.50664664     -4.38067882
C     -10.43352861     -2.86965864     -3.61161289
H     -11.73078066     -1.86476399     -5.43264152
C     -13.24635299     -1.82914042     -3.50540256
H     -12.31559029     -3.47993890     -5.05968131
H      -9.75803826     -1.94521547     -3.13516310
C       8.78095586     -2.26243855      8.26828712
H     -10.41238050     -3.65260794     -2.65048078
H      -7.19112992     -5.48015878    -16.76657874
H      -7.18341873     -6.24955277    -16.63862007
C       0.26667553    -10.63947967     -4.90345104
H      -0.16402431     -9.60523055     -5.21811217
C       8.47925059     -2.82799451      6.82666926
H       0.69737231    -11.67373136     -4.58879419
H       9.19311638     -2.06358623      6.17765776
H       7.43571422     -2.20619054      6.61781543
C       8.56052649     -4.51937327      6.65635136
H       7.63162870     -4.93915876      5.95139805
C       7.43402709      0.61075011     -4.35145227
H       8.21350068     -5.10927532      7.68956915
H       7.41857731      0.91580215     -5.54400783
H       7.70500243      1.69500967     -3.82929008
C       5.94104355     -0.06524576     -3.89929628
H       5.61655752      0.00933052     -2.71026378
C       5.86219405      8.55305390    -15.05905752
H       5.82092234     -1.28817129     -4.02071862
H       5.21618735      9.36118092    -15.51843587
H      -0.82079082     12.19164813     11.23290677
C      12.36127508     -6.81242321    -13.53382142
H     -13.11158059     -0.72108302     -2.96531494
H     -13.73711089     -2.45951166     -2.55708440
C      -2.18946281      2.06905159     -9.22785801
H     -14.32767270     -1.57223345     -4.05480151
C      -2.48125992     -5.56895598     12.50643611
H      -3.35506719      2.00405363     -8.95223684
H      -1.10731694     -5.70952994     10.60820828
H      -3.45754388     -5.19421385     13.03878732
C       4.59944053      0.48792226     -4.62091693
H      -2.74889620      2.90049501      2.85972637
C      -3.54966944      2.89849983      3.79507618
H       3.63372928      0.90924032     -5.14795025
H      -3.44952955      3.95272596      4.42332796
H      -3.30572828      1.95069677      4.54225962
H      -4.69452374      2.79008159      3.35499078
H      11.93177746     -5.73171119    -13.24138442
H      12.88389950     -6.98155502    -14.59974085
H      12.26814820     -7.72400326    -12.76033886
H       8.99598656      5.85778575     16.58912134
H       7.30950691      4.38125062     14.23544894
H      -1.08078027     -7.30818564     11.78221425
H      11.06499272      3.26767265     16.22335891
H      -8.70101793     -4.16259184     22.46177845
H       6.73792497      6.00004335     11.13873982
H      -2.36482218     13.37380068     23.24947433
H       9.97912478      5.60347743     12.47256103
H      10.14949927     -0.75774667     -5.96356500
H      -2.57782584     11.25931802     10.93885777
H      12.48609429     -0.26776269     -3.39019348
H      -1.51880915      1.07625915     -9.27311621
H      10.09263929     -6.36424623      5.54805905
H      25.95114173     -1.25922372     -0.91414506
H       9.08403164      4.18192346     12.10125455
C      17.30322965     -4.04092092     16.91429424
C      -1.14437358     -6.08219101     11.77734521
C       9.04342922      4.90262286     15.79526900
C       8.26014124      5.18559096     14.28004202
C      10.61208878      4.36675741     15.99130941
C       7.87967902      6.12304278     11.53031497
C       8.79923443      5.26455461     12.64184961
C      -2.02292725     12.35530458     11.02265549
C      -1.84547127     14.33813067     22.85637445
C      10.33895754     -0.70639396     -4.74811471
C      11.88055784     -0.07319152     -4.44350570
C      13.00599442     -0.59459438     -5.42264400
C      25.65424051     -0.29178792     -1.55745192
C       8.90728857     -0.08375675     -4.28301249
C       9.93152383     -5.32847395      6.15511695
H      25.20112132     -0.42093169     -2.66014452
H      -9.50254372     -3.41150412     -4.22541972
H      16.35524265     -3.75935048     17.46515407
H      -8.57271924     -3.49036836     22.83601772
H      -0.14109852     -5.65266885     12.33955563
H      11.66595681      4.96289929     16.00803316
H       8.40137972      4.16693659     16.56506751
H       8.09460245      7.11495595     10.86929456
H      -1.32611999     15.30246077     22.46327531
H       7.65506949      6.25546351     14.46781595
H      10.18291919     -1.88455066     -4.41787289
H      -2.17478202     12.97394826      9.96892823
H      12.06825388      1.14238573     -4.49556957
H      -1.67789149      3.12775941     -9.46215579
H      11.11247724     -5.11802100      6.30170690
H      25.81045847      0.80479166     -1.09806617
H      -2.51831033     12.99630389     11.94992920
   94

C     -11.50372399     -2.55171211     -4.39866874
C     -10.11914364     -3.08149496     -3.57653370
H     -11.30879252     -1.98472352     -5.48232113
C     -13.83053897     -1.67766799     -3.46875903
H     -13.29244553     -3.45852375     -4.95114540
H      -9.42133038     -2.19371836     -3.06677857
C       8.78820904     -2.27554616      8.27502563
H     -10.17942107     -3.88018676     -2.63281532
H      -7.19086655     -5.48046978    -16.76752786
H      -7.18316475     -6.24985157    -16.63949489
C       0.42734788    -10.76063021     -4.92325502
H      -0.00351708     -9.72646536     -5.23797201
C       8.48356980     -2.84191833      6.83434907
H       0.85818572    -11.79481352     -4.60856198
H       9.19762562     -2.07944784      6.18327611
H       7.44050283     -2.21926492      6.62589283
C       8.56294190     -4.53338520      6.66503332
H       7.63424128     -4.95264451      5.95946650
C       7.44035230      0.61807948     -4.35961250
H       8.21464941     -5.12398503      7.69754679
H       7.42327222      0.93166262     -5.55003130
H       7.71216584      1.69896176     -3.83095702
C       5.95050311     -0.06224599     -3.90387298
H       5.62936060      0.00857336     -2.71366833
C       5.96338297      8.64135040    -15.13553928
H       5.83151680     -1.28526344     -4.02488406
H       5.31740854      9.44948284    -15.59495445
H      -0.81717484     12.21534210     11.24393175
C      12.36357878     -6.81638691    -13.53914632
H     -13.65753874     -0.56877738     -2.93494465
H     -14.32359322     -2.28099468     -2.50296444
C      -2.11515681      2.17372175     -9.33117225
H     -14.89634600     -1.37779867     -4.02775591
C      -2.48645603     -5.56990058     12.50938976
H      -3.28079256      2.10905752     -9.05578702
H      -1.11250097     -5.71047349     10.61115638
H      -3.46273188     -5.19516234     13.04175936
C       4.60714174      0.48966504     -4.62289607
H      -2.72250042      2.91607557      2.88641812
C      -3.52318961      2.91409755      3.82183469
H       3.64180455      0.91099775     -5.15048789
H      -3.42302862      3.96832242      4.45007937
H      -3.27933358      1.96622913      4.56895674
H      -4.66812410      2.80589530      3.38191771
H      11.93409633     -5.73567011    -13.24670529
H      12.88618365     -6.98552756    -14.60507381
H      12.27046361     -7.72796329    -12.76565823
H       8.99717975      5.86357404     16.59418559
H       7.30611519      4.38798547     14.24171240
H      -1.08598747     -7.30913212     11.78514752
H      11.06502955      3.27184356     16.21934287
H      -8.70101306     -4.16259380     22.46185750
H       6.74236213      6.00092634     11.13749321
H      -2.36463654     13.37584031     23.26239904
H       9.97867771      5.61106225     12.48133379
H      10.15716069     -0.76817741     -5.97266173
H      -2.57421539     11.28302208     10.94988908
H      12.48367378     -0.26432029     -3.39155221
H      -1.44548191      1.18026757     -9.37654152
H      10.09716966     -6.37388871      5.55356111
H      25.95116554     -1.25922249     -0.91413740
H       9.08509011      4.18726248     12.10950409
C      17.30324403     -4.04090785     16.91432358
C      -1.14957382     -6.08313711     11.78029188
C       9.04299935      4.90851381     15.80012640
C       8.25747844      5.19148112     14.28606451
C      10.61191578      4.37179857     15.99191563
C       7.88197251      6.12722350     11.53412322
C       8.79907435      5.27026036     12.64871278
C      -2.01931038     12.37900568     11.03368134
C      -1.84528584     14.34017208     22.86930324
C      10.34399840     -0.70646480     -4.75717081
C      11.88340379     -0.07029319     -4.44801933
C      13.01426588     -0.58776373     -5.42286306
C      25.65426665     -0.29178633     -1.55744478
C       8.91247176     -0.07887773     -4.29926676
C       9.93518620     -5.34027175      6.16393457
H      25.20115168     -0.42093003     -2.66013911
H      -9.21961160     -3.66600876     -4.19447868
H      16.35525743     -3.75933403     17.46518244
H      -8.57271376     -3.49036761     22.83609172
H      -0.14629791     -5.65361612     12.34250172
H      11.66602319      4.96759019     16.00739181
H       8.40235402      4.17341912     16.57165105
H       8.09762378      7.11994479     10.87453260
H      -1.32593482     15.30450418     22.47620867
H       7.64944046      6.25975517     14.47365631
H      10.18722143     -1.88205003     -4.41837515
H      -2.17116626     12.99764805      9.97995359
H      12.07012066      1.14537516     -4.50016903
H      -1.60414718      3.23282114     -9.56495617
H      11.11566043     -5.12811170      6.31223793
H      25.81048306      0.80479323     -1.09805846
H      -2.51469357     13.02000514     11.96095476
   94

C     -11.17807090     -2.85957117     -4.41779957
C      -9.80322708     -3.32619285     -3.55146452
H     -11.00088373     -2.24751041     -5.47381661
C     -14.45469967     -1.49644480     -3.44353474
H     -14.02149718     -3.13779361     -4.89179681
H      -9.14263139     -2.41390581     -3.03906756
C       8.79544372     -2.28866091      8.28175499
H      -9.89389390     -4.11232493     -2.60125892
H      -7.19066767     -5.48067910    -16.76837358
H      -7.18296670     -6.25005710    -16.64031737
C       0.58875653    -10.88207088     -4.94304306
H       0.15787247     -9.84794306     -5.25785314
C       8.48787445     -2.85584694      6.84202476
H       1.01962566    -11.91622166     -4.62828827
H       9.20211272     -2.09531622      6.18889188
H       7.44527621     -2.23234743      6.63396374
C       8.56535318     -4.54740023      6.67371411
H       7.63685087     -4.96613744      5.96753520
C       7.44656845      0.62539036     -4.36781542
H       8.21579494     -5.13869518      7.70552292
H       7.42785632      0.94750057     -5.55603330
H       7.71924578      1.70285303     -3.83269050
C       5.95981649     -0.05920052     -3.90855873
H       5.64203310      0.00787244     -2.71719913
C       6.06464759      8.72970556    -15.21206111
H       5.84197909     -1.28231301     -4.02914238
H       5.41870788      9.53784415    -15.67151522
H      -0.81358282     12.23900837     11.25491300
C      12.36589013     -6.82034474    -13.54447942
H     -14.17421518     -0.40335101     -2.92819374
H     -14.90073191     -2.08407092     -2.44668151
C      -2.04193217      2.27808176     -9.43376779
H     -15.52977026     -1.13732621     -3.94751654
C      -2.49169831     -5.57081623     12.51228647
H      -3.20755465      2.21356011     -9.15843943
H      -1.11772235     -5.71139060     10.61405921
H      -3.46797396     -5.19608020     13.04465862
C       4.61469875      0.49145135     -4.62499939
H      -2.69690723      2.93123722      2.91234237
C      -3.49757669      2.92924926      3.84777362
H       3.64968120      0.91270077     -5.15314043
H      -3.39742790      3.98347862      4.47601013
H      -3.25373919      1.98137747      4.59489477
H      -4.64254047      2.82113324      3.40791761
H      11.93642019     -5.73962432    -13.25203384
H      12.88847456     -6.98949381    -14.61041548
H      12.27279046     -7.73191802    -12.77098601
H       8.99835927      5.86936562     16.59922959
H       7.30271187      4.39471966     14.24796418
H      -1.09123238     -7.31005069     11.78804109
H      11.06502822      3.27603321     16.21531600
H      -8.70100981     -4.16259344     22.46191211
H       6.74680709      6.00179817     11.13625047
H      -2.36445304     13.37787613     23.27532720
H       9.97819812      5.61865428     12.49008873
H      10.16476400     -0.77857147     -5.98166174
H      -2.57062841     11.30669687     10.96087168
H      12.48115856     -0.26086985     -3.39295751
H      -1.37300125      1.28411875     -9.47928226
H      10.10169731     -6.38352494      5.55907477
H      25.95118714     -1.25921996     -0.91413016
H       9.08612297      4.19260710     12.11774137
C      17.30325524     -4.04089270     16.91435111
C      -1.15481413     -6.08405542     11.78319365
C       9.04255843      4.91440754     15.80496747
C       8.25480253      5.19737114     14.29207407
C      10.61172106      4.37684507     15.99250983
C       7.88423930      6.13140017     11.53792904
C       8.79888947      5.27596945     12.65556231
C      -2.01571758     12.40267761     11.04466254
C      -1.84510255     14.34220973     22.88223566
C      10.34894254     -0.70649301     -4.76621618
C      11.88615620     -0.06737692     -4.45254339
C      13.02241037     -0.58091054     -5.42307376
C      25.65429007     -0.29178351     -1.55743794
C       8.91753942     -0.07397456     -4.31565435
C       9.93884204     -5.35207631      6.17275852
H      25.20117907     -0.42092714     -2.66013391
H      -8.89200202     -3.90866901     -4.15231017
H      16.35526876     -3.75931529     17.46520842
H      -8.57270975     -3.49036528     22.83614251
H      -0.15153987     -5.65453355     12.34540577
H      11.66606597      4.97228708     16.00673846
H       8.40332365      4.17990365     16.57821603
H       8.10060469      7.12492323     10.87975893
H      -1.32575176     15.30654395     22.48914600
H       7.64380792      6.26404199     14.47948204
H      10.19138786     -1.87944491     -4.41889698
H      -2.16757435     13.02131834      9.99093398
H      12.07190794      1.14837997     -4.50478177
H      -1.53152676      3.33757818     -9.66713350
H      11.11883177     -5.13820742      6.32277534
H      25.81050468      0.80479603     -1.09805100
H      -2.51109876     13.04367809     11.97193629
   94

C     -10.87616602     -3.14829815     -4.39729304
C      -9.49682826     -3.57289535     -3.53311688
H     -10.77462531     -2.53640989     -5.45523566
C     -15.08359284     -1.30280878     -3.40369263
H     -14.52469154     -2.76786640     -4.78496905
H      -8.86404160     -2.63686781     -3.03239295
C       8.80264039     -2.30177498      8.28845258
H      -9.59037948     -4.35154030     -2.57853801
H      -7.19056635     -5.48075190    -16.76889661
H      -7.18285803     -6.25013294    -16.64085875
C       0.75016119    -11.00329418     -4.96278643
H       0.31925001     -9.96919848     -5.27766311
C       8.49214368     -2.86976985      6.84967288
H       1.18105713    -12.03741974     -4.64798736
H       9.20655858     -2.11118083      6.19448364
H       7.45001421     -2.24542671      6.64200401
C       8.56773513     -4.56140757      6.68236575
H       7.63943097     -4.97962455      5.97557653
C       7.45262277      0.63263334     -4.37605088
H       8.21691272     -5.15339533      7.71346954
H       7.43227711      0.96326462     -5.56200434
H       7.72618598      1.70663842     -3.83448627
C       5.96892649     -0.05616073     -3.91335184
H       5.65450933      0.00717817     -2.72085664
C       6.16585587      8.81799584    -15.28852661
H       5.85224630     -1.27937109     -4.03349116
H       5.51995469      9.62614250    -15.74802167
H      -0.81000921     12.26263342     11.26586069
C      12.36817923     -6.82429188    -13.54980271
H     -14.76817547     -0.21740192     -2.89937039
H     -15.49793166     -1.90289017     -2.40320631
C      -1.96945703      2.38180560     -9.53564887
H     -16.15348352     -0.94349820     -3.91425737
C      -2.49697765     -5.57171142     12.51510819
H      -3.13504095      2.31729321     -9.26027860
H      -1.12298053     -5.71228901     10.61689094
H      -3.47325622     -5.19697696     13.04747652
C       4.62205145      0.49322184     -4.62722693
H      -2.67179467      2.94603231      2.93777748
C      -3.47247166      2.94402934      3.87320217
H       3.65729543      0.91427795     -5.15590987
H      -3.37233186      3.99825972      4.50143820
H      -3.22861770      1.99617880      4.62034476
H      -4.61743675      2.83591833      3.43334867
H      11.93871731     -5.74356957    -13.25735274
H      12.89074595     -6.99344826    -14.61574620
H      12.27509633     -7.73586266    -12.77630448
H       8.99952852      5.87515042     16.60425144
H       7.29930306      4.40144472     14.25420014
H      -1.09651028     -7.31094876     11.79086890
H      11.06499267      3.28023312     16.21128066
H      -8.70100866     -4.16259122     22.46194500
H       6.75126461      6.00265705     11.13501415
H      -2.36427166     13.37990679     23.28824336
H       9.97769303      5.62624239     12.49882188
H      10.17227080     -0.78894144     -5.99055501
H      -2.56705956     11.33032947     10.97181708
H      12.47851874     -0.25743281     -3.39440835
H      -1.30116283      1.38739800     -9.58123494
H      10.10619556     -6.39314507      5.56457508
H      25.95120349     -1.25921727     -0.91412388
H       9.08713463      4.19794802     12.12596157
C      17.30326210     -4.04087668     16.91437484
C      -1.16008911     -6.08495331     11.78602496
C       9.04211085      4.92029452     15.80978965
C       8.25212020      5.20325186     14.29806710
C      10.61150888      4.38188768     15.99308983
C       7.88648654      6.13556553     11.54172966
C       8.79868635      5.28167259     12.66239451
C      -2.01214329     12.42630737     11.05560965
C      -1.84492130     14.34424227     22.89515630
C      10.35375108     -0.70649633     -4.77524045
C      11.88878010     -0.06446291     -4.45707421
C      13.03039263     -0.57405320     -5.42327524
C      25.65430776     -0.29178060     -1.55743194
C       8.92244690     -0.06908142     -4.33215998
C       9.94246677     -5.36387577      6.18156093
H      25.20120017     -0.42092417     -2.66012931
H      -8.59161721     -4.14808953     -4.14704038
H      16.35527553     -3.75929561     17.46523018
H      -8.57270775     -3.49036174     22.83617275
H      -0.15681801     -5.65543010     12.34824172
H      11.66608906      4.97698132     16.00607277
H       8.40429204      4.18638012     16.58475859
H       8.10355321      7.12988470     10.88497195
H      -1.32557067     15.30857869     22.50207187
H       7.63817961      6.26831546     14.48528991
H      10.19538299     -1.87675677     -4.41943719
H      -2.16400061     13.04494670     10.00188030
H      12.07358205      1.15137993     -4.50940301
H      -1.45965901      3.44167856     -9.76871269
H      11.12196700     -5.14829871      6.33329234
H      25.81052070      0.80479893     -1.09804442
H      -2.50752106     13.06730945     11.98288417
   94

C     -10.58309627     -3.40021461     -4.36057470
C      -9.19888713     -3.81082453     -3.51790702
H     -10.58452055     -2.79221269     -5.41644853
C     -15.69507346     -1.12013201     -3.36856464
H     -14.98957454     -2.43273763     -4.64287833
H      -8.58335394     -2.86098803     -3.02525796
C       8.80982344     -2.31489483      8.29513425
H      -9.29471910     -4.58903880     -2.56442846
H      -7.19057949     -5.48070902    -16.76904103
H      -7.18286116     -6.25009642    -16.64104195
C       0.91160023    -11.12437121     -4.98249457
H       0.48067198    -10.09029874     -5.29742556
C       8.49640242     -2.88369344      6.85730903
H       1.34251145    -12.15848013     -4.66766060
H       9.21098857     -2.12704819      6.20006722
H       7.45474225     -2.25850825      6.65002956
C       8.57010926     -4.57541358      6.69100260
H       7.64200229     -4.99311135      5.98360536
C       7.45859893      0.63982780     -4.38431757
H       8.21802474     -5.16809206      7.72140106
H       7.43661860      0.97897124     -5.56794357
H       7.73307468      1.71033674     -3.83634472
C       5.97792822     -0.05312139     -3.91823827
H       5.66688512      0.00649792     -2.72462705
C       6.26704482      8.90625170    -15.36496517
H       5.86240528     -1.27643105     -4.03791920
H       5.62118403      9.71440747    -15.82450200
H      -0.80644905     12.28623539     11.27678998
C      12.37045320     -6.82823321    -13.55512051
H     -15.36733080     -0.03570672     -2.87490050
H     -16.09031526     -1.72997587     -2.36861817
C      -1.89706274      2.48516694     -9.63715197
H     -16.75197261     -0.77498772     -3.90978104
C      -2.50228288     -5.57259720     12.51788391
H      -3.06260560      2.42059594     -9.36173619
H      -1.12826079     -5.71318019     10.61968135
H      -3.47856837     -5.19786327     13.05024023
C       4.62930259      0.49499044     -4.62956822
H      -2.64687212      2.96065210      2.96303038
C      -3.44757365      2.95863088      3.89843474
H       3.66478866      0.91578912     -5.15881778
H      -3.34745668      4.01286314      4.52667216
H      -3.20369368      2.01080939      4.64560650
H      -4.59252510      2.85048044      3.45855360
H      11.94099620     -5.74751026    -13.26266597
H      12.89300411     -6.99739596    -14.62107067
H      12.27738782     -7.73980188    -12.78161781
H       9.00069374      5.88093099     16.60925995
H       7.29589593      4.40816436     14.26042807
H      -1.10181077     -7.31183776     11.79365898
H      11.06492856      3.28444492     16.20724313
H      -8.70101100     -4.16258732     22.46195853
H       6.75574557      6.00351023     11.13379412
H      -2.36409251     13.38193387     23.30115163
H       9.97717166      5.63383038     12.50754287
H      10.17973762     -0.79929360     -5.99934756
H      -2.56350384     11.35393807     10.98274173
H      12.47580548     -0.25400924     -3.39590436
H      -1.22936455      1.49033548     -9.68269414
H      10.11068238     -6.40275589      5.57007206
H      25.95121796     -1.25921454     -0.91411820
H       9.08813408      4.20328942     12.13417343
C      17.30326720     -4.04086026     16.91439706
C      -1.16538716     -6.08584215     11.78881558
C       9.04166265      4.92617749     15.81460155
C       8.24943849      5.20912708     14.30405205
C      10.61128509      4.38692851     15.99366347
C       7.88872535      6.13972564     11.54553440
C       8.79847411      5.28737376     12.66921859
C      -2.00858246     12.44991323     11.06653769
C      -1.84474221     14.34627127     22.90806927
C      10.35848412     -0.70648381     -4.78425054
C      11.89133002     -0.06155153     -4.46161357
C      13.03826578     -0.56719307     -5.42346951
C      25.65432334     -0.29177771     -1.55742650
C       8.92726694     -0.06419477     -4.34877858
C       9.94608010     -5.37567763      6.19035341
H      25.20121886     -0.42092121     -2.66012515
H      -8.30925898     -4.38105566     -4.15560956
H      16.35528040     -3.75927545     17.46525017
H      -8.57270907     -3.49035717     22.83618470
H      -0.16212112     -5.65631768     12.35104050
H      11.66609854      4.98167463     16.00540149
H       8.40526494      4.19285113     16.59128689
H       8.10648119      7.13483567     10.89018179
H      -1.32539163     15.31060996     22.51499037
H       7.63256257      6.27257937     14.49108875
H      10.19926139     -1.87399390     -4.42000267
H      -2.16044010     13.06855136     10.01280761
H      12.07519717      1.15437474     -4.51403449
H      -1.38788328      3.54540653     -9.86998924
H      11.12508615     -5.15839293      6.34379788
H      25.81053467      0.80480181     -1.09803842
H      -2.50395674     13.09091699     11.99381301
   94

C     -10.26644389     -3.63349598     -4.33859169
C      -8.89360065     -4.04627774     -3.50101103
H     -10.37111735     -3.02676389     -5.38053038
C     -16.30542282     -0.94148492     -3.33612952
H     -15.53231281     -2.13535022     -4.50345331
H      -8.29393502     -3.08752598     -3.00943173
C       8.81700557     -2.32802007      8.30181110
H      -9.00550254     -4.82468657     -2.55067369
H      -7.19067244     -5.48058777    -16.76892572
H      -7.18294335     -6.24998397    -16.64098022
C       1.07325875    -11.24544297     -5.00217537
H       0.64237947    -10.21137092     -5.31717453
C       8.50066538     -2.89761816      6.86494422
H       1.50413732    -12.27955245     -4.68729879
H       9.21541706     -2.14291850      6.20565352
H       7.45947501     -2.27159236      6.65805180
C       8.57249127     -4.58941882      6.69963712
H       7.64458082     -5.00659913      5.99163422
C       7.46455025      0.64699671     -4.39261558
H       8.21914649     -5.18278606      7.72932977
H       7.44093233      0.99463962     -5.57385175
H       7.73996484      1.71397126     -3.83826700
C       5.98688344     -0.05006539     -3.92320574
H       5.67922401      0.00585085     -2.72849802
C       6.36822817      8.99448891    -15.44138912
H       5.87251804     -1.27347513     -4.04241632
H       5.72240840      9.80265424    -15.90096785
H      -0.80290391     12.30981597     11.28770021
C      12.37272471     -6.83217102    -13.56043812
H     -15.95593653      0.14018562     -2.85419045
H     -16.68142805     -1.55443238     -2.33228933
C      -1.82455274      2.58830181     -9.73838147
H     -17.34983187     -0.59920582     -3.89912219
C      -2.50761391     -5.57347400     12.52062633
H      -2.99005745      2.52363829     -9.46293877
H      -1.13355906     -5.71406497     10.62244699
H      -3.48391231     -5.19873913     13.05295859
C       4.63652318      0.49678495     -4.63201545
H      -2.62212026      2.97512857      2.98813294
C      -3.42286814      2.97308027      3.92349894
H       3.67225385      0.91729425     -5.16186924
H      -3.32279554      4.02731849      4.55173510
H      -3.17895156      2.02529938      4.67071183
H      -4.56779173      2.86484961      3.48356175
H      11.94327079     -5.75144826    -13.26797860
H      12.89526022     -7.00133933    -14.62639489
H      12.27967828     -7.74373801    -12.78693129
H       9.00185547      5.88670880     16.61425722
H       7.29249105      4.41488036     14.26665015
H      -1.10713184     -7.31271867     11.79642734
H      11.06483663      3.28867000     16.20320515
H      -8.70101765     -4.16258168     22.46195183
H       6.76025098      6.00436020     11.13259299
H      -2.36391588     13.38395743     23.31405288
H       9.97663499      5.64142052     12.51625420
H      10.18719641     -0.80962344     -6.00804242
H      -2.55996289     11.37752425     10.99364493
H      12.47304644     -0.25059398     -3.39744403
H      -1.15740847      1.59306969     -9.78376728
H      10.11517211     -6.41235906      5.57557599
H      25.95123278     -1.25921140     -0.91411283
H       9.08912258      4.20863348     12.14237945
C      17.30327171     -4.04084328     16.91441918
C      -1.17070642     -6.08672291     11.79158190
C       9.04121438      4.93205794     15.81940525
C       8.24675788      5.21499868     14.31003114
C      10.61105029      4.39196900     15.99423258
C       7.89095682      6.14388280     11.54934560
C       8.79825371      5.29307514     12.67603694
C      -2.00503668     12.47349673     11.07744586
C      -1.84456554     14.34829679     22.92097544
C      10.36317540     -0.70645376     -4.79324990
C      11.89383630     -0.05863718     -4.46616145
C      13.04605790     -0.56032666     -5.42365727
C      25.65433909     -0.29177443     -1.55742135
C       8.93204334     -0.05930384     -4.36550538
C       9.94969631     -5.38748352      6.19914618
H      25.20123766     -0.42091787     -2.66012125
H      -8.01828145     -4.61659204     -4.15525313
H      16.35528456     -3.75925463     17.46526979
H      -8.57271449     -3.49035150     22.83617754
H      -0.16744751     -5.65719668     12.35381831
H      11.66609500      4.98636846     16.00472613
H       8.40624286      4.19931816     16.59780298
H       8.10938985      7.13977841     10.89539071
H      -1.32521492     15.31263781     22.52790237
H       7.62695715      6.27683558     14.49688087
H      10.20305488     -1.87115456     -4.42059746
H      -2.15689453     13.09213373     10.02371502
H      12.07678264      1.15737008     -4.51867603
H      -1.31602684      3.64891150     -9.97105273
H      11.12820344     -5.16849061      6.35430047
H      25.81054871      0.80480507     -1.09803267
H      -2.50040739     13.11450226     12.00472200
   94

C      -9.92640740     -3.86035701     -4.33179696
C      -8.57898833     -4.28259031     -3.48132558
H     -10.12718400     -3.26072446     -5.35435370
C     -16.92158724     -0.76022964     -3.30153521
H     -16.14148199     -1.85341212     -4.37622433
H      -7.99631421     -3.31645295     -2.98720156
C       8.82418465     -2.34115018      8.30848221
H      -8.71832821     -5.06005972     -2.53528349
H      -7.19081378     -5.48040463    -16.76858800
H      -7.18307448     -6.24981165    -16.64070837
C       1.23515060    -11.36651465     -5.02183105
H       0.80438988    -10.33241912     -5.33691198
C       8.50493074     -2.91154372      6.87257756
H       1.66594593    -12.40064252     -4.70690407
H       9.21984211     -2.15879139      6.21124160
H       7.46421056     -2.28467890      6.66606988
C       8.57488024     -4.60342304      6.70826890
H       7.64716585     -5.02008799      5.99966264
C       7.47047110      0.65413834     -4.40094434
H       8.22027687     -5.19747712      7.73725524
H       7.44521033      1.01026633     -5.57972871
H       7.74684870      1.71754203     -3.84025471
C       5.99578621     -0.04699293     -3.92825109
H       5.69151961      0.00523700     -2.73246642
C       6.46940635      9.08270955    -15.51780021
H       5.88258001     -1.27050352     -4.04697987
H       5.82362852      9.89088509    -15.97742101
H      -0.79937343     12.33337559     11.29859157
C      12.37499372     -6.83610534    -13.56575510
H     -16.54145477      0.31578042     -2.83251232
H     -17.27596290     -1.37433443     -2.29183241
C      -1.75196186      2.69117103     -9.83931691
H     -17.95505256     -0.41247468     -3.87840688
C      -2.51297124     -5.57434128     12.52333182
H      -2.91743115      2.62638766     -9.56386344
H      -1.13887697     -5.71494267     10.62518378
H      -3.48928781     -5.19960443     13.05562954
C       4.64370786      0.49860596     -4.63456535
H      -2.59753096      2.98942095      3.01305305
C      -3.39834012      2.98734186      3.94836856
H       3.67968386      0.91879646     -5.16505503
H      -3.29832555      4.04158914      4.57660107
H      -3.15437662      2.03961171      4.69563287
H      -4.54322323      2.87899240      3.50835059
H      11.94554086     -5.75538367    -13.27329023
H      12.89751426     -7.00527826    -14.63171841
H      12.28196770     -7.74767120    -12.79224458
H       9.00301307      5.89248377     16.61924255
H       7.28908765      4.42159254     14.27286578
H      -1.11247394     -7.31359082     11.79917019
H      11.06471645      3.29290839     16.19916629
H      -8.70102886     -4.16257424     22.46192525
H       6.76477970      6.00520646     11.13140990
H      -2.36374182     13.38597749     23.32694732
H       9.97608210      5.64901246     12.52495504
H      10.19464066     -0.81992688     -6.01663898
H      -2.55643636     11.40108848     11.00452693
H      12.47023619     -0.24718664     -3.39902755
H      -1.08533306      1.69555862     -9.88442777
H      10.11966419     -6.42195455      5.58108678
H      25.95124766     -1.25920778     -0.91410781
H       9.09009922      4.21397986     12.15057891
C      17.30327544     -4.04082563     16.91444104
C      -1.17604759     -6.08759496     11.79431984
C       9.04076540      4.93793576     15.82420002
C       8.24407762      5.22086648     14.31600368
C      10.61080391      4.39700915     15.99479641
C       7.89317981      6.14803651     11.55316231
C       8.79802423      5.29877642     12.68284874
C      -2.00150560     12.49705833     11.08833444
C      -1.84439136     14.35031884     22.93387502
C      10.36781797     -0.70640393     -4.80223778
C      11.89629313     -0.05571932     -4.47071804
C      13.05376300     -0.55345444     -5.42383881
C      25.65435469     -0.29177071     -1.55741649
C       8.93677012     -0.05440904     -4.38233690
C       9.95331448     -5.39929320      6.20793872
H      25.20125621     -0.42091409     -2.66011761
H      -7.71581188     -4.85660717     -4.14561245
H      16.35528780     -3.75923306     17.46528887
H      -8.57272423     -3.49034469     22.83615157
H      -0.17279765     -5.65806616     12.35657041
H      11.66607784      4.99106288     16.00404603
H       8.40722520      4.20578109     16.60430617
H       8.11227823      7.14471235     10.90059759
H      -1.32504062     15.31466226     22.54080807
H       7.62136254      6.28108393     14.50266552
H      10.20675813     -1.86823809     -4.42122374
H      -2.15336358     13.11569422     10.03460281
H      12.07833262      1.16036650     -4.52332780
H      -1.24412373      3.75215137    -10.07189375
H      11.13131786     -5.17859129      6.36479994
H      25.81056249      0.80480879     -1.09802720
H      -2.49687249     13.13806578     12.01561146
   94

C      -9.57341679     -4.08340069     -4.33327350
C      -8.25977382     -4.51927852     -3.46017147
H      -9.87021857     -3.49892243     -5.33179489
C     -17.54078091     -0.57649021     -3.26493692
H     -16.77960807     -1.57543450     -4.25522343
H      -7.69470936     -3.54654792     -2.96191544
C       8.83135584     -2.35428572      8.31514383
H      -8.43337715     -5.29485493     -2.51979515
H      -7.19097737     -5.48017174    -16.76801998
H      -7.18323020     -6.24959074    -16.64021311
C       1.39722877    -11.48755181     -5.04146160
H       0.96664271    -10.45341186     -5.35663024
C       8.50919321     -2.92547062      6.88020534
H       1.82789943    -12.52171392     -4.72648137
H       9.22425845     -2.17466735      6.21682776
H       7.46894353     -2.29776857      6.67407993
C       8.57727096     -4.61742671      6.71689401
H       7.64975223     -5.03357841      6.00768658
C       7.47634422      0.66124292     -4.40930206
H       8.22141072     -5.21216568      7.74517356
H       7.44943328      1.02584042     -5.58557293
H       7.75370735      1.72104153     -3.84230887
C       6.00461726     -0.04391236     -3.93337226
H       5.70375139      0.00464781     -2.73653029
C       6.57057927      9.17091405    -15.59419950
H       5.89257174     -1.26752456     -4.05160786
H       5.92484474      9.97910075    -16.05386265
H      -0.79585532     12.35691672     11.30946678
C      12.37725594     -6.84003607    -13.57106921
H     -17.12677843      0.49190360     -2.80965491
H     -17.87216747     -1.19232386     -2.24967899
C      -1.67929708      2.79374189     -9.93995842
H     -18.56361671     -0.22078268     -3.85345120
C      -2.51835352     -5.57520032     12.52599342
H      -2.84473553      2.72881917     -9.66451603
H      -1.14421604     -5.71581434     10.62788208
H      -3.49469158     -5.20046109     13.05825015
C       4.65083468      0.50044189     -4.63721381
H      -2.57306085      3.00349819      3.03778469
C      -3.37393463      3.00139335      3.97304734
H       3.68705000      0.92027954     -5.16836191
H      -3.27398342      4.05565128      4.60127484
H      -3.12991937      2.05371787      4.72036705
H      -4.51876843      2.89289477      3.53293202
H      11.94780167     -5.75931655    -13.27859867
H      12.89976258     -7.00921245    -14.63703875
H      12.28425150     -7.75160140    -12.79755555
H       9.00416642      5.89825546     16.62421540
H       7.28568563      4.42830036     14.27907436
H      -1.11783697     -7.31445499     11.80187833
H      11.06456801      3.29715974     16.19512614
H      -8.70104449     -4.16256516     22.46188051
H       6.76933145      6.00604830     11.13024409
H      -2.36357025     13.38799433     23.33983554
H       9.97551280      5.65660526     12.53364463
H      10.20205700     -0.83020166     -6.02513583
H      -2.55292196     11.42463338     11.01539078
H      12.46736428     -0.24378899     -3.40065561
H      -1.01315993      1.79775926     -9.98466572
H      10.12415409     -6.43154253      5.58660136
H      25.95126181     -1.25920374     -0.91410324
H       9.09106363      4.21932771     12.15877104
C      17.30327799     -4.04080737     16.91446215
C      -1.18141056     -6.08845908     11.79701991
C       9.04031554      4.94381053     15.82898529
C       8.24139761      5.22672991     14.32196901
C      10.61054585      4.40204859     15.99535427
C       7.89539410      6.15218591     11.55698366
C       8.79778543      5.30447683     12.68965322
C      -1.99798692     12.52060067     11.09920632
C      -1.84421958     14.35233771     22.94676856
C      10.37239800     -0.70633387     -4.81121258
C      11.89868886     -0.05279978     -4.47528377
C      13.06137001     -0.54657865     -5.42401446
C      25.65436931     -0.29176662     -1.55741205
C       8.94143240     -0.04951532     -4.39926887
C       9.95692992     -5.41110670      6.21672769
H      25.20127359     -0.42090996     -2.66011429
H      -7.40774594     -5.09896184     -4.13129078
H      16.35528972     -3.75921080     17.46530693
H      -8.57273819     -3.49033679     22.83610839
H      -0.17817117     -5.65892691     12.35928687
H      11.66604693      4.99575759     16.00336058
H       8.40821182      4.21223950     16.61079588
H       8.11514632      7.14963662     10.90580144
H      -1.32486860     15.31668357     22.55370798
H       7.61577872      6.28532397     14.50844202
H      10.21035943     -1.86524603     -4.42188356
H      -2.14984499     13.13923554     10.04547391
H      12.07983582      1.16336216     -4.52799020
H      -1.17217328      3.85508836    -10.17251907
H      11.13442467     -5.18869517      6.37529367
H      25.81057520      0.80481287     -1.09802212
H      -2.49334981     13.16161018     12.02648427
   94

C      -9.21264302     -4.30236217     -4.34018410
C      -7.93906457     -4.75561705     -3.43859408
H      -9.61077464     -3.74141802     -5.30730700
C     -18.16040749     -0.39127763     -3.22718909
H     -17.42844381     -1.29843989     -4.13617404
H      -7.39176723     -3.77702555     -2.93517497
C       8.83851552     -2.36742746      8.32179314
H      -8.15163440     -5.52844942     -2.50553773
H      -7.19113932     -5.47990371    -16.76721345
H      -7.18338822     -6.24933473    -16.63947957
C       1.55945866    -11.60853324     -5.06106766
H       1.12909435    -10.57432997     -5.37632524
C       8.51344886     -2.93939961      6.88782474
H       1.98996953    -12.64274397     -4.74603436
H       9.22866225     -2.19054714      6.22240926
H       7.47366991     -2.31086232      6.68207892
C       8.57965948     -4.63143059      6.72550932
H       7.65233604     -5.04707109      6.01570286
C       7.48215843      0.66830151     -4.41768623
H       8.22254410     -5.22685243      7.75308165
H       7.45358804      1.04135136     -5.59138230
H       7.76052790      1.72446327     -3.84442992
C       6.01336490     -0.04083304     -3.93856529
H       5.71590641      0.00407385     -2.74068582
C       6.67174774      9.25910366    -15.67058872
H       5.90248105     -1.26454755     -4.05629652
H       6.02605804     10.06730259    -16.13029448
H      -0.79234706     12.38044225     11.32032896
C      12.37950806     -6.84396351    -13.57637857
H     -17.71210020      0.66819637     -2.78619406
H     -18.46810353     -1.01013463     -2.20747215
C      -1.60652393      2.89602584    -10.04034004
H     -19.17231639     -0.02774506     -3.82755845
C      -2.52375892     -5.57605320     12.52860449
H      -2.77193956      2.83095750     -9.76494257
H      -1.14957722     -5.71668202     10.63053255
H      -3.50011981     -5.20131181     13.06081778
C       4.65788953      0.50228004     -4.63995503
H      -2.54865847      3.01735128      3.06234391
C      -3.34959129      3.01523233      3.99755873
H       3.69433279      0.92172732     -5.17177625
H      -3.24970263      4.06950131      4.62578068
H      -3.10552523      2.06760924      4.74493162
H      -4.49437105      2.90656525      3.55733807
H      11.95004956     -5.76324733    -13.28390202
H      12.90200233     -7.01314201    -14.64235382
H      12.28652601     -7.75552896    -12.80286242
H       9.00531569      5.90402347     16.62917562
H       7.28228522      4.43500336     14.28527564
H      -1.12322046     -7.31531287     11.80454276
H      11.06439160      3.30142369     16.19108461
H      -8.70106423     -4.16255466     22.46181954
H       6.77390651      6.00688529     11.12909527
H      -2.36340100     13.39000831     23.35271815
H       9.97492735      5.66419813     12.54232262
H      10.20943610     -0.84044589     -6.03353187
H      -2.54941712     11.44816196     11.02624001
H      12.46442414     -0.24040274     -3.40232878
H      -0.94086822      1.89967411    -10.08451108
H      10.12863842     -6.44112349      5.59211738
H      25.95127470     -1.25919939     -0.91409920
H       9.09201592      4.22467632     12.16695547
C      17.30327910     -4.04078856     16.91448217
C      -1.18679475     -6.08931693     11.79967291
C       9.03986496      4.94968191     15.83376084
C       8.23871812      5.23258850     14.32792685
C      10.61027630      4.40708700     15.99590588
C       7.89760001      6.15633043     11.56080918
C       8.79753753      5.31017568     12.69645003
C      -1.99447813     12.54412681     11.11006478
C      -1.84405004     14.35435372     22.95965666
C      10.37690632     -0.70624389     -4.82017300
C      11.90101597     -0.04988034     -4.47985904
C      13.06887178     -0.53970141     -5.42418460
C      25.65438237     -0.29176226     -1.55740808
C       8.94602086     -0.04462760     -4.41629568
C       9.96053911     -5.42292437      6.22551049
H      25.20128918     -0.42090555     -2.66011136
H      -7.09757271     -5.34221538     -4.11457729
H      16.35529007     -3.75918791     17.46532362
H      -8.57275611     -3.49032797     22.83604981
H      -0.18356730     -5.65978065     12.36195818
H      11.66600244      5.00045229     16.00266952
H       8.40920286      4.21869301     16.61727188
H       8.11799469      7.15455060     10.91100181
H      -1.32469873     15.31870205     22.56660268
H       7.61020598      6.28955534     14.51421009
H      10.21385161     -1.86218082     -4.42257925
H      -2.14633625     13.16276075     10.05633162
H      12.08128484      1.16635528     -4.53266358
H      -1.10013542      3.95773183    -10.27295936
H      11.13752032     -5.19880269      6.38577963
H      25.81058634      0.80481724     -1.09801753
H      -2.48983690     13.18513848     12.03734368
   94

C      -8.77971982     -4.51273311     -4.36876665
C      -7.58551343     -5.00101279     -3.41198271
H      -9.34572949     -4.01027195     -5.26551899
C     -18.81442294     -0.21206250     -3.19761345
H     -18.15618962     -0.93996628     -3.94720271
H      -7.07248299     -4.00995723     -2.90178183
C       8.84726163     -2.38220602      8.32807774
H      -7.86954266     -5.76627118     -2.49450363
H      -7.19121615     -5.48029547    -16.76670738
H      -7.18350496     -6.24968946    -16.63874871
C       1.72028799    -11.73038732     -5.08069549
H       1.28958925    -10.69613727     -5.39535507
C       8.51778849     -2.95530231      6.89557454
H       2.15098588    -12.76463809     -4.76603709
H       9.23378551     -2.20999932      6.22705826
H       7.47900427     -2.32523165      6.68988757
C       8.58069446     -4.64741400      6.73493467
H       7.65350139     -5.06209182      6.02429192
C       7.48721411      0.67707678     -4.42792551
H       8.22151856     -5.24425664      7.76122315
H       7.45579692      1.06405617     -5.59732332
H       7.76643744      1.72769034     -3.84490859
C       6.02332725     -0.03863911     -3.94327745
H       5.73137378      0.00074942     -2.74377996
C       6.77340498      9.34954477    -15.74976683
H       5.91418965     -1.26261389     -4.05864717
H       6.12739829     10.15767179    -16.20914518
H      -0.78905683     12.40473109     11.33158322
C      12.38100449     -6.84827836    -13.58138237
H     -18.29692305      0.82588878     -2.78806934
H     -19.07195165     -0.84189123     -2.17321065
C      -1.53146274      3.00200945    -10.14624131
H     -19.80193677      0.16394440     -3.82587933
C      -2.52954761     -5.57714852     12.53099213
H      -2.69678092      2.93703264     -9.87068233
H      -1.15558742     -5.71774236     10.63275872
H      -3.50581062     -5.20238822     13.06336896
C       4.66544280      0.50189354     -4.64174860
H      -2.52219618      3.03187521      3.08985860
C      -3.32297399      3.02989044      4.02520452
H       3.70222462      0.92150205     -5.17390483
H      -3.22284586      4.08411855      4.65345486
H      -3.07902304      2.08208479      4.77238148
H      -4.46783087      2.92148322      3.58512315
H      11.95150688     -5.76756633    -13.28894542
H      12.90362892     -7.01741024    -14.64730179
H      12.28787766     -7.75985849    -12.80789989
H       9.00707412      5.91003933     16.63520084
H       7.27629461      4.44359037     14.29311094
H      -1.12905274     -7.31637729     11.80675001
H      11.06422067      3.30580740     16.18287801
H      -8.70101793     -4.16259184     22.46177845
H       6.78100962      6.00659841     11.12595411
H      -2.36325948     13.39212657     23.36573642
H       9.97413630      5.67393703     12.55451634
H      10.21695424     -0.85971170     -6.04415039
H      -2.54609935     11.47239390     11.03750204
H      12.45566884     -0.23830064     -3.40311858
H      -0.86715312      2.00469082    -10.18954860
H      10.13301898     -6.45013504      5.59748242
H      25.95114173     -1.25922372     -0.91414506
H       9.09342949      4.23051192     12.17820820
C      17.30322965     -4.04092092     16.91429424
C      -1.19266103     -6.09038335     11.80190152
C       9.03916914      4.95612989     15.83916205
C       8.23442615      5.23920949     14.33530024
C      10.60994257      4.41234293     15.99326040
C       7.90159480      6.15994100     11.56423886
C       8.79731994      5.31675168     12.70523442
C      -1.99119233     12.56837488     11.12131677
C      -1.84390843     14.35645660     22.97263680
C      10.37997935     -0.70792972     -4.83191702
C      11.90082699     -0.04720629     -4.48505607
C      13.07699393     -0.52906371     -5.42311813
C      25.65424051     -0.29178792     -1.55745192
C       8.94936705     -0.03885749     -4.43994445
C       9.96372016     -5.43444686      6.23437756
H      25.20112132     -0.42093169     -2.66014452
H      -6.76572579     -5.60043037     -4.09964924
H      16.35524265     -3.75935048     17.46515407
H      -8.57271924     -3.49036836     22.83601772
H      -0.18941362     -5.66083808     12.36414361
H      11.66580109      5.00555594     15.99897449
H       8.41102321      4.22598534     16.62548485
H       8.12309749      7.15983181     10.91731187
H      -1.32455729     15.32078666     22.57953739
H       7.60052950      6.29313747     14.52137326
H      10.21576414     -1.85902772     -4.42103160
H      -2.14305449     13.18700230     10.06758102
H      12.07995107      1.16910958     -4.53717698
H      -1.02687648      4.06449954    -10.37934093
H      11.13976713     -5.20713380      6.39754049
H      25.81045847      0.80479166     -1.09806617
H      -2.48655863     13.20937223     12.04860079
