   94

C       7.70676234     -7.29943840    -11.29294025
C      -2.90896215    -12.74921023    -10.23131789
H       8.38333812     -6.56877026    -10.62512066
C      -0.26794095     -0.82005214      8.32655757
H      -5.49491423      8.40709347     -2.36880680
H      -3.14278516    -11.96110905     -9.40766228
C       0.85101148     -0.65487091      9.56095988
H       7.36976468     -8.36662347    -10.86188514
H      -8.98114088     -6.99585102    -19.14432246
H      -8.97342969     -7.76524501    -19.01636379
C       3.97330752     -0.10145441     -3.35845766
H      16.26525229      6.32974144     13.57266113
C       8.30480595     -9.94054529      5.45525875
H       8.56165129     12.65057506      2.13611998
H       8.45351480     -9.28527916      4.49275312
H       2.50425844    -10.90118632     17.33758517
C       6.59310753    -10.69452437      7.45359107
H       5.49723451    -10.77278008      6.95163646
C       8.19720646     12.76939869      4.57448541
H       6.27765676    -10.48364234      8.60020003
H      10.02634537     13.59156780      5.96337458
H       7.08368651     13.26489921      4.50101885
C       8.66003241     11.98755579      3.17245353
H      16.85665692      2.91566089     -5.08201493
C      15.75282822      2.69569544     -4.97145247
H       2.06130583      0.96574326     -2.70337170
H       8.07324681     10.91694010      2.98541547
H      -2.53866815     10.59090038     11.83149567
C      18.21528337    -11.54996963    -10.49227721
H      -1.41774997     -0.62462096      8.70092575
H      -5.37925158      8.25435560     -0.47221252
C       0.91027285     -2.23209489     -2.42616908
H       0.89436479     -1.82724028      9.94790516
C       1.47819573    -10.71751696     17.93036419
H       0.37653844     -2.13890482     -1.34654521
H     -10.96213609    -12.27297242     15.66815272
H       1.07348491     -9.60107587     18.09678088
C      -0.24731795     -0.44390803     -4.15075626
H      -2.30448056      8.53360720     -1.02974434
C      -2.96966215     10.78962486     -1.59002115
H      -1.24413494      0.00818401     -4.58481504
H      -3.17870683     11.47996157     -0.58738249
H      -1.82737846     11.10206667     -1.93627612
H      -3.56461790     11.40237133     -2.47878000
H      17.95476549    -10.83991249    -11.42637654
H      17.48129618    -12.49697961    -10.58536201
H      19.56890555    -11.97233191     -8.39281464
H       3.54438463      1.37980301      7.81044563
H       0.36480307      0.23693101     10.26004325
H       0.85684386    -11.65028868     18.35672652
H       4.60006136     -0.35642329     -4.34922640
H      -9.42675544     -2.95204824     23.99740376
H       6.31473425     15.06792036     16.37399236
H       9.23996160     11.95186242      6.61763358
H       3.13135933     -0.36034082     12.25793348
H      26.59648769      7.39426669     -2.17327341
H      -4.57246620      9.51177598     11.49105931
H      27.28666125      7.54264242     -1.84154386
H       0.62394925     -2.00455115      6.30218111
H       8.37290978    -12.00664970      6.47843406
H       7.36043866     -6.95163893    -12.38700228
H       4.53456075     -0.73533668     11.07531363
C      -0.23585401     -1.21849941      6.70450102
C     -10.36016020    -12.21606716     16.66242232
C       3.08878378      0.74869501      8.67929198
C       2.41621850     -0.15441797      9.79023660
C       5.05348495      0.25968891     -2.26694822
C       8.19313382     13.85504568      7.18246161
C       3.38077385     -0.40507844     11.07903033
C      -3.55556718     10.05133818     11.66127749
C       8.94868938     13.00191333      6.04303883
C      -4.66431865      8.21519052     -1.47850655
C       1.12497304     -1.12159591     -3.63335813
C       2.35449361     -0.07699115     -3.24092119
C      19.35055618    -11.30472553     -9.36818699
C      -3.29386294      9.16547159     -1.36912592
C       8.09034680    -10.84454984      6.76887078
H       9.82539434     11.62320318      3.00407935
H      -2.67513949    -13.53731141    -11.05497358
H      -1.20846426     -1.81682726      6.23423945
H      -9.29845674     -2.27982476     24.37164303
H      -9.75818431    -12.15916191     17.65669192
H      16.08941789      7.08319455     13.47371370
H       5.86970567      0.59465305     -1.50107413
H       7.01095230     15.27452935     16.65858531
H       7.64250960     14.51761027      7.98238298
H       1.29604081     -1.68885253     -4.71207616
H      -4.47906913      7.01879537     -1.71571400
H      -7.60020280     21.22156798      9.78123602
H       1.28603558     -3.37775263     -2.36388049
H      -0.10777060     -0.23932012      5.96433885
H       9.04116192    -10.56318394      7.49664764
H      20.17331540    -10.42894099     -9.35669922
H      -7.73341433     21.23018717     10.54972831
   94

C       7.58902314     -7.24160265    -11.41485892
C      -2.95826432    -12.78084186    -10.22360004
H       8.26617264     -6.51128920    -10.74720959
C      -0.28093075     -0.72122091      8.44272572
H      -5.49940581      8.42195030     -2.36802499
H      -3.19251370    -11.99265781     -9.40016310
C       0.83900902     -0.57640825      9.68388040
H       7.25222061     -8.30893627    -10.98403986
H      -8.98280727     -6.99466450    -19.14686994
H      -8.97509605     -7.76405844    -19.01891073
C       3.98970180     -0.07901000     -3.39070433
H      16.26596226      6.33013083     13.57289212
C       8.31985513     -9.95376681      5.45978224
H       8.56198507     12.65119511      2.13586544
H       8.47560708     -9.30194309      4.49604042
H       2.50455454    -10.90229384     17.33941753
C       6.61054438    -10.71023528      7.46256323
H       5.51520010    -10.80353302      6.96232545
C       8.19775429     12.77008703      4.57423797
H       6.29446692    -10.49853571      8.60881065
H      10.02716326     13.59201821      5.96296336
H       7.08399903     13.26505525      4.50093528
C       8.66041928     11.98814871      3.17218348
H      16.85735983      2.91644005     -5.08207249
C      15.75352263      2.69649412     -4.97158245
H       2.07127303      0.98929282     -2.74507897
H       8.07354436     10.91761120      2.98498521
H      -2.54090867     10.59568670     11.83309391
C      18.06020220    -11.45241327    -10.22268363
H      -1.44270818     -0.58764815      8.79956980
H      -5.38470509      8.26595484     -0.46992493
C       0.93622376     -2.22601772     -2.57067799
H       0.86654360     -1.74681591     10.07786021
C       1.47836155    -10.71859793     17.93196029
H       0.34369914     -2.15081603     -1.52241967
H     -10.96236996    -12.27316612     15.66840081
H       1.07370599     -9.60216481     18.09855411
C      -0.23324507     -0.39878265     -4.23063936
H      -2.31002911      8.54477105     -1.02730118
C      -2.97656879     10.80107375     -1.58831796
H      -1.25430328      0.03873570     -4.62043720
H      -3.18608957     11.49127778     -0.58568788
H      -1.83484368     11.11483479     -1.93512825
H      -3.57234904     11.41289437     -2.47717617
H      17.86876886    -10.83445312    -11.23302432
H      17.41402524    -12.43865293    -10.44279872
H      19.31783575    -11.83674065     -8.06770740
H       3.57177480      1.42978376      7.90032192
H       0.35999818      0.31988206     10.37957685
H       0.85680282    -11.65136857     18.35802006
H       4.62352426     -0.34176664     -4.37520426
H      -9.42700597     -2.95212089     23.99774615
H       6.31492808     15.06854889     16.37424729
H       9.23951051     11.95324824      6.61806837
H       3.17828783     -0.34548720     12.32107593
H      26.59658236      7.39439334     -2.17324617
H      -4.57472244      9.51658011     11.49261479
H      27.28675731      7.54275617     -1.84151381
H       0.86333603     -1.71394201      6.53413914
H       8.38922558    -12.01892689      6.48351602
H       7.24273889     -6.89418633    -12.50905934
H       4.55692763     -0.73241012     11.11248548
C      -0.19613228     -1.15237690      6.81943929
C     -10.36037994    -12.21626252     16.66266230
C       3.10134628      0.81939456      8.77721881
C       2.41347026     -0.08297164      9.88431390
C       5.06165680      0.27572244     -2.28918003
C       8.19372369     13.85664816      7.18210194
C       3.40814489     -0.38632514     11.13832708
C      -3.55785169     10.05619649     11.66287064
C       8.94908137     13.00314153      6.04280087
C      -4.67045229      8.22747632     -1.47673157
C       1.14734620     -1.07554941     -3.73765813
C       2.36952138     -0.04316924     -3.29927142
C      19.04860274    -11.12226505     -8.99362324
C      -3.29935353      9.17671901     -1.36686720
C       8.10597249    -10.85697267      6.77385890
H       9.82567131     11.62345440      3.00378961
H      -2.72414455    -13.56898879    -11.04711131
H       0.06712918     -3.92984862      4.48891598
H      -9.29870798     -2.27989702     24.37198507
H      -9.75839174    -12.15935889     17.65692484
H      16.09009316      7.08357386     13.47392901
H       5.87795915      0.60589134     -1.52134605
H       7.01117023     15.27509317     16.65882803
H       7.64256063     14.51720858      7.98332152
H       1.32262513     -1.62184677     -4.82598927
H      -4.48810129      7.03068560     -1.71407149
H      -7.60105200     21.22386540      9.78092709
H       1.29869090     -3.37559474     -2.52850701
H      -0.17231222     -0.17655197      6.06405498
H       9.05625965    -10.57418568      7.50168185
H      19.90614774    -10.28302334     -8.98228963
H      -7.73426521     21.23248799     10.54941906
   94

C       7.46929612     -7.18275677    -11.53712518
C      -3.00794424    -12.81144467    -10.21384774
H       8.14696181     -6.45273807    -10.86966373
C      -0.32113584     -0.71089457      8.43412626
H      -5.50477289      8.43771625     -2.36745528
H      -3.24239194    -12.02328376     -9.39044376
C       0.83249263     -0.60205059      9.63838930
H       7.13272748     -8.25024421    -11.10653950
H      -8.98438313     -6.99343706    -19.14912664
H      -8.97666763     -7.76282931    -19.02115746
C       3.97132866     -0.05241024     -3.43626015
H      16.26617175      6.33046922     13.57322277
C       8.39037027    -10.04440317      5.48985107
H       8.56227980     12.65230539      2.13577795
H       8.61394044     -9.43329465      4.51281446
H       2.50432301    -10.90293665     17.34187379
C       6.66455672    -10.79298230      7.50906118
H       5.57078735    -10.94054861      7.01842804
C       8.19814142     12.77091778      4.57419777
H       6.34532014    -10.57020099      8.65262996
H      10.02777608     13.59236232      5.96290613
H       7.08412944     13.26530635      4.50109142
C       8.66075857     11.98914218      3.17202211
H      16.85845661      2.91754885     -5.08260818
C      15.75457268      2.69771826     -4.97238627
H       2.05561049      1.01406339     -2.77496471
H       8.07380253     10.91869829      2.98455890
H      -2.54198095     10.59766566     11.83427153
C      17.89550630    -11.34912740     -9.94499709
H      -1.47726612     -0.57175802      8.81098030
H      -5.39119532      8.27877955     -0.46780850
C       0.87574274     -2.18390425     -2.61598541
H       0.86355600     -1.77769876     10.01598861
C       1.47781015    -10.71904089     17.93379209
H       0.23573025     -2.12626685     -1.59448617
H     -10.96240134    -12.27316751     15.66837043
H       1.07322204     -9.60254535     18.10010512
C      -0.25008298     -0.35133064     -4.27597652
H      -2.31646267      8.55690094     -1.02495094
C      -2.98401456     10.81335886     -1.58675662
H      -1.28644905      0.07195637     -4.63952152
H      -3.19397203     11.50344254     -0.58414224
H      -1.84282415     11.12832666     -1.93413094
H      -3.58058483     11.42418404     -2.47577045
H      17.82030296    -10.83262663    -11.02415274
H      17.38970519    -12.37994103    -10.28805027
H      19.05438304    -11.70167080     -7.76204071
H       3.53109963      1.45876222      7.89385125
H       0.35780797      0.27847770     10.35982770
H       0.85603011    -11.65178670     18.35957517
H       4.59836169     -0.33008168     -4.42131709
H      -9.42695083     -2.95209997     23.99768638
H       6.31487490     15.06842801     16.37422533
H       9.23877725     11.95445619      6.61868188
H       3.14719588     -0.33762484     12.29814293
H      26.59672563      7.39454379     -2.17324821
H      -4.57587661      9.51869268     11.49386197
H      27.28689953      7.54289108     -1.84150676
H       0.40742073     -1.92599885      6.44004237
H       8.44212465    -12.09140856      6.52578290
H       7.12311959     -6.83578836    -12.63150136
H       4.54168658     -0.71463745     11.10950912
C      -0.35046702     -1.04288953      6.80860479
C     -10.36043846    -12.21627293     16.66264909
C       3.06891905      0.80681109      8.74393787
C       2.40736142     -0.11962213      9.84302579
C       5.05658042      0.33519601     -2.35797472
C       8.19404676     13.85801758      7.18204373
C       3.38771532     -0.38463731     11.11758064
C      -3.55895098     10.05821829     11.66407701
C       8.94926684     13.00425627      6.04282565
C      -4.67754730      8.24081498     -1.47506816
C       1.12418671     -1.03842502     -3.77979242
C       2.35194922     -0.01944089     -3.32884828
C      18.69977554    -10.92549580     -8.60794424
C      -3.30572179      9.18888693     -1.36478406
C       8.15732051    -10.92886380      6.81290372
H       9.82590736     11.62413388      3.00360428
H      -2.77367540    -13.59957424    -11.03733426
H       2.67558580     -4.48182828      3.98921451
H      -9.29864817     -2.27987436     24.37192057
H      -9.75847184    -12.15937426     17.65692526
H      16.09025332      7.08389456     13.47421320
H       5.88911349      0.67424259     -1.61152543
H       7.01111126     15.27498882     16.65880825
H       7.64227416     14.51647695      7.98458098
H       1.30592261     -1.58064624     -4.86924940
H      -4.49823894      7.04358354     -1.71237529
H      -7.60187656     21.22612897      9.78065784
H       1.17096446     -3.35330159     -2.62395794
H      -0.15641448     -0.12369811      6.02190254
H       9.10464245    -10.63832403      7.54152940
H      19.61437229    -10.14653939     -8.61950485
H      -7.73508725     21.23474309     10.54915034
   94

C       7.34985346     -7.12385699    -11.65904605
C      -3.05731938    -12.84183445    -10.20414429
H       8.02806191     -6.39410242    -10.99183923
C      -0.27545422     -0.78886319      8.36295415
H      -5.51076953      8.45408912     -2.36615416
H      -3.29198051    -12.05368814     -9.38078559
C       0.83926255     -0.64144934      9.59765248
H       7.01366198     -8.19154590    -11.22870843
H      -8.98594122     -6.99221834    -19.15138996
H      -8.97821964     -7.76160878    -19.02341017
C       3.92551329      0.01394655     -3.50112890
H      16.26639796      6.33089190     13.57369569
C       8.48469435    -10.21432886      5.57968283
H       8.56247826     12.65379648      2.13590906
H       8.88864176     -9.73339668      4.58722129
H       2.50356865    -10.90262181     17.34293088
C       6.68057487    -10.87462122      7.58262485
H       5.58979941    -11.03337382      7.08803340
C       8.19838933     12.77199353      4.57440984
H       6.34900889    -10.61016710      8.71426151
H      10.02831274     13.59281063      5.96307978
H       7.08409178     13.26573803      4.50152936
C       8.66102975     11.99051651      3.17207298
H      16.86027441      2.91918392     -5.08361656
C      15.75627256      2.69972374     -4.97389721
H       2.01041434      1.05206807     -2.79604021
H       8.07395426     10.92018915      2.98436203
H      -2.54280674     10.59849940     11.83503868
C      17.72833059    -11.24956412     -9.67529241
H      -1.44346858     -0.63169827      8.69212496
H      -5.39824192      8.29212281     -0.46488591
C       0.79513861     -2.12980710     -2.61229628
H       0.87533182     -1.81451229      9.98248875
C       1.47685439    -10.71861920     17.93445272
H       0.16493847     -2.05716373     -1.58457428
H     -10.96228139    -12.27301548     15.66821551
H       1.07228982     -9.60206149     18.10036611
C      -0.28650270     -0.31132992     -4.29667781
H      -2.32359267      8.56966338     -1.02155669
C      -2.99183261     10.82610411     -1.58475802
H      -1.32936296      0.10301984     -4.65112037
H      -3.20216828     11.51609029     -0.58216632
H      -1.85117165     11.14221484     -1.93272618
H      -3.58916225     11.43586848     -2.47398415
H      17.79418969    -10.82297218    -10.79327399
H      17.39117818    -12.31296556    -10.11196820
H      18.76907192    -11.55786689     -7.45838415
H       3.52555121      1.44845159      7.87624919
H       0.33922968      0.23519946     10.30609225
H       0.85508875    -11.65136447     18.36024438
H       4.53973294     -0.28904591     -4.48697459
H      -9.42679568     -2.95205808     23.99741281
H       6.31477687     15.06823584     16.37418639
H       9.23795261     11.95577614      6.61951386
H       3.13299032     -0.33471963     12.27837339
H      26.59690418      7.39469522     -2.17326674
H      -4.57652627      9.51924176     11.49452653
H      27.28707516      7.54302566     -1.84151179
H       0.54092908     -2.00067539      6.32764031
H       8.45687782    -12.22039834      6.65972768
H       7.00368464     -6.77734570    -12.75356750
H       4.53350144     -0.72251425     11.10085402
C      -0.21597891     -1.14197679      6.75018790
C     -10.36033389    -12.21611944     16.66250297
C       3.06880521      0.78758672      8.72230320
C       2.40495250     -0.13923944      9.81935468
C       5.02814716      0.48468670     -2.47273399
C       8.19426601     13.85945362      7.18222776
C       3.37945413     -0.39241996     11.09982463
C      -3.55967236     10.05888111     11.66478406
C       8.94936985     13.00548961      6.04308205
C      -4.68529156      8.25477799     -1.47266444
C       1.08080778     -1.00487504     -3.78846540
C       2.30919620      0.01804465     -3.34895606
C      18.35903509    -10.75978926     -8.26025327
C      -3.31269790      9.20160405     -1.36204651
C       8.18580677    -11.04847463      6.92231824
H       9.82606769     11.62518476      3.00361081
H      -2.82289298    -13.62995410    -11.02759693
H       4.45077207     -4.58812139      3.16475923
H      -9.29849528     -2.27983519     24.37165259
H      -9.75838676    -12.15922277     17.65679068
H      16.09042472      7.08429603     13.47462238
H       5.87091333      0.86116764     -1.75595037
H       7.01100301     15.27482539     16.65877361
H       7.64184293     14.51579534      7.98605591
H       1.26835239     -1.55424144     -4.87356617
H      -4.50911094      7.05710367     -1.70993418
H      -7.60268133     21.22830141      9.78040094
H       0.98894928     -3.32010248     -2.65851805
H      -0.13068620     -0.21501655      5.95743411
H       9.12446572    -10.75485236      7.66141044
H      19.29346927    -10.00190540     -8.25956592
H      -7.73588892     21.23690617     10.54889405
   94

C       7.22927873     -7.06552295    -11.79699896
C      -3.10801070    -12.87234799    -10.19498674
H       7.91046519     -6.33586256    -11.13283358
C      -0.25761730     -0.81162961      8.33708583
H      -5.51635529      8.46929625     -2.36489005
H      -3.34305989    -12.08421055     -9.37172206
C       0.84661333     -0.65950682      9.57936638
H       6.89450762     -8.13407652    -11.36789725
H      -8.98744721     -6.99088754    -19.15346375
H      -8.97973362     -7.76027991    -19.02549514
C       3.84674398      0.12445168     -3.48626512
H      16.26582207      6.33066237     13.57364065
C       8.42041643    -10.23415549      5.78521983
H       8.56228942     12.65403983      2.13633762
H       9.05371792     -9.83982546      4.88131682
H       2.50273900    -10.90145089     17.34265916
C       6.58298001    -10.84305056      7.64626758
H       5.50995782    -10.90672114      7.09631533
C       8.19832764     12.77207605      4.57483254
H       6.22708568    -10.52787017      8.75612982
H      10.02863490     13.59233600      5.96329841
H       7.08381578     13.26532345      4.50213375
C       8.66087283     11.99066016      3.17243575
H      16.86604750      2.92522974     -5.08640497
C      15.76147211      2.70815818     -4.97796957
H       1.91700430      1.08063757     -2.73793885
H       8.07366992     10.92041608      2.98469263
H      -2.54369131     10.60004838     11.83612161
C      17.57641843    -11.16004166     -9.41720104
H      -1.43067742     -0.65390993      8.64551577
H      -5.40516736      8.30463464     -0.46195583
C       0.76606721     -2.10333465     -2.47607445
H       0.88161416     -1.83256333      9.96404788
C       1.47600852    -10.71753447     17.93416494
H       0.22087740     -2.00592790     -1.40224054
H     -10.96221404    -12.27289605     15.66810305
H       1.07144344     -9.60094430     18.09982769
C      -0.33462227     -0.34745705     -4.21824392
H      -2.33066192      8.58173267     -1.01773314
C      -2.99961406     10.83809282     -1.58259513
H      -1.35640632      0.08415262     -4.60970150
H      -3.21037584     11.52805974     -0.58008752
H      -1.85947852     11.15537345     -1.93112294
H      -3.59766758     11.44673700     -2.47209765
H      17.77675331    -10.80242130    -10.54287330
H      17.40364889    -12.23563969     -9.91447423
H      18.47060610    -11.40994502     -7.15432959
H       3.54841758      1.38711503      7.82247143
H       0.34407827      0.21577780     10.28728463
H       0.85446239    -11.65036143     18.36008505
H       4.44681501     -0.13008176     -4.49382783
H      -9.42672047     -2.95202354     23.99729572
H       6.31471826     15.06795492     16.37409066
H       9.23683760     11.95618278      6.62050641
H       3.14857252     -0.33850074     12.24735572
H      26.59724342      7.39500270     -2.17326925
H      -4.57744356      9.52084816     11.49565955
H      27.28740956      7.54329419     -1.84148714
H       0.59816628     -2.02767775      6.28247131
H       8.36917230    -12.27555363      6.81788578
H       6.88067572     -6.71809277    -12.89039786
H       4.54032236     -0.75132209     11.06461173
C      -0.14724821     -1.17385193      6.73287974
C     -10.36027690    -12.21599578     16.66239634
C       3.08640008      0.74176671      8.67741722
C       2.41440991     -0.16081516      9.78882504
C       4.92605807      0.66445191     -2.46566253
C       8.19435243     13.86015833      7.18246952
C       3.39015031     -0.40822828     11.06863701
C      -3.56056443     10.06044311     11.66588885
C       8.94925749     13.00581740      6.04347753
C      -4.69277071      8.26772112     -1.47014515
C       1.03768441     -1.01787011     -3.69302337
C       2.23851804      0.05041003     -3.28660147
C      18.02523029    -10.61859469     -7.94556853
C      -3.31957889      9.21354972     -1.35911763
C       8.11508485    -11.10530594      7.09736621
H       9.82579350     11.62497663      3.00395178
H      -2.87320373    -13.66046180    -11.01834303
H       7.22459623     -5.78608187      0.32128935
H      -9.29841921     -2.27980204     24.37153765
H      -9.75834168    -12.15909722     17.65669096
H      16.08989303      7.08407639     13.47456462
H       5.71873754      1.07109436     -1.70877698
H       7.01093466     15.27457105     16.65868249
H       7.64137828     14.51457906      7.98748895
H       1.23290688     -1.58090018     -4.76982120
H      -4.51966473      7.06957669     -1.70717954
H      -7.60349795     21.23051721      9.78014852
H       0.93695182     -3.29816345     -2.49609015
H      -0.11745586     -0.25654608      5.92864025
H       9.04611220    -10.82911120      7.85146308
H      18.95370976     -9.85292661     -7.90525928
H      -7.73670316     21.23911559     10.54864209
   94

C       7.09987697     -7.00681072    -11.95119416
C      -3.15795096    -12.90217781    -10.18454113
H       7.78498358     -6.27523448    -11.29346736
C      -0.25804883     -0.80778611      8.34471556
H      -5.51866595      8.48053289     -2.36466831
H      -3.39271778    -12.11405044     -9.36117352
C       0.84451689     -0.65907232      9.58708014
H       6.76660006     -8.07597887    -11.52289360
H      -8.98885834     -6.98948904    -19.15535401
H      -8.98116296     -7.75888575    -19.02741044
C       3.87579011      0.02788171     -3.36499659
H      16.26557881      6.33051789     13.57355069
C       8.31752731    -10.09097298      5.69940653
H       8.56188969     12.65287984      2.13602955
H       8.55121267     -9.35337257      4.82391601
H       2.50302045    -10.90130407     17.34139221
C       6.54926874    -10.79003926      7.59427444
H       5.47069848    -10.83010077      7.05224084
C       8.19834070     12.77138883      4.57453092
H       6.20848575    -10.49771622      8.71479606
H      10.02892758     13.59162192      5.96272134
H       7.08364321     13.26421348      4.50197691
C       8.66051342     11.98958230      3.17218843
H      16.87191610      2.93457647     -5.08829486
C      15.76649202      2.72162708     -4.98048384
H       1.94474395      1.03852151     -2.68047262
H       8.07322035     10.91939185      2.98439760
H      -2.54505270     10.60254995     11.83735845
C      17.44433303    -11.07779096     -9.16437044
H      -1.43616707     -0.65973345      8.63602481
H      -5.40899645      8.31342140     -0.46027458
C       0.84295871     -2.18232232     -2.39450932
H       0.87684069     -1.83214313      9.97169119
C       1.47648585    -10.71748350     17.93328010
H       0.30517902     -2.08507274     -1.31730292
H     -10.96228615    -12.27294976     15.66818742
H       1.07185689     -9.60095112     18.09921005
C      -0.30640396     -0.42604041     -4.13156409
H      -2.33434238      8.58982558     -1.01596064
C      -3.00538637     10.84669249     -1.58099767
H      -1.30663055      0.03262213     -4.54781367
H      -3.21680276     11.53668780     -0.57863625
H      -1.86582731     11.16535166     -1.93007441
H      -3.60427921     11.45436457     -2.47063127
H      17.76335058    -10.77269052    -10.27724994
H      17.42124827    -12.14849580     -9.69838195
H      18.17127986    -11.26483224     -6.85919124
H       3.55268951      1.38149139      7.82139929
H       0.33918456      0.21296146     10.29680846
H       0.85501499    -11.65032687     18.35928490
H       4.47666058     -0.17164136     -4.38394102
H      -9.42677419     -2.95202114     23.99739072
H       6.31471874     15.06797892     16.37409750
H       9.23582067     11.95647001      6.62095943
H       3.15546204     -0.33307636     12.24369778
H      26.59754412      7.39534349     -2.17322555
H      -4.57883429      9.52339529     11.49692080
H      27.28771068      7.54358825     -1.84142374
H       0.58346440     -2.03281094      6.28262491
H       8.35108556    -12.15073376      6.68621625
H       6.74860336     -6.65857185    -13.04336719
H       4.54247384     -0.75724224     11.05926149
C      -0.12425148     -1.15825492      6.74546228
C     -10.36033657    -12.21604700     16.66247330
C       3.08664106      0.73727841      8.67505522
C       2.41352800     -0.16155026      9.78882236
C       4.94218330      0.47089229     -2.29065475
C       8.19450007     13.86076190      7.18199401
C       3.39374569     -0.40924210     11.06487298
C      -3.56194167     10.06296915     11.66713972
C       8.94912190     13.00590191      6.04316040
C      -4.69693924      8.27663675     -1.46872010
C       1.07191000     -1.08477809     -3.60918265
C       2.26262806     -0.00252228     -3.20951707
C      17.69940807    -10.49492576     -7.65739113
C      -3.32331557      9.22177368     -1.35714537
C       8.07397328    -10.99471811      6.99902226
H       9.82531800     11.62352883      3.00369054
H      -2.92322019    -13.69027496    -11.00794661
H       9.15597620     -6.66049856     -1.50859331
H      -9.29847049     -2.27979813     24.37162912
H      -9.75838642    -12.15914492     17.65675893
H      16.08968547      7.08394252     13.47449181
H       5.72261709      0.83862260     -1.50285738
H       7.01093668     15.27459169     16.65868797
H       7.64112703     14.51327459      7.98830353
H       1.27286447     -1.64726875     -4.68524603
H      -4.52647884      7.07809289     -1.70559256
H      -7.60430663     21.23272453      9.77983090
H       1.15644992     -3.34695741     -2.34925368
H      -0.12767066     -0.25980303      5.92477274
H       9.02130493    -10.71828809      7.73151570
H      18.60914840     -9.71006602     -7.56815122
H      -7.73751385     21.24132843     10.54832408
   94

C       6.96907284     -6.94396894    -12.07725784
C      -3.20612521    -12.93152495    -10.17346396
H       7.65066159     -6.20954904    -11.41906675
C      -0.25713160     -0.80441800      8.35020747
H      -5.52115779      8.49235031     -2.36434959
H      -3.44038748    -12.14336859     -9.34997710
C       0.84253659     -0.65896224      9.59384269
H       6.63536917     -8.01252243    -11.64786395
H      -8.99021870     -6.98815523    -19.15728352
H      -8.98252992     -7.75755365    -19.02934986
C       3.92273516     -0.05462502     -3.32145569
H      16.26545788      6.33042672     13.57345820
C       8.29240701     -9.99211692      5.58276507
H       8.56164762     12.65185355      2.13561999
H       8.39998315     -9.26362832      4.67188092
H       2.50356420    -10.90127490     17.33969995
C       6.56137520    -10.73959114      7.52811895
H       5.47242873    -10.80164721      7.00920405
C       8.19843798     12.77075790      4.57412448
H       6.23585043    -10.48605691      8.66270852
H      10.02927416     13.59096326      5.96207318
H       7.08354452     13.26313439      4.50170736
C       8.66029765     11.98861737      3.17182743
H      16.87142670      2.93943528     -5.08764312
C      15.76571557      2.72823290     -4.97920467
H       2.00234757      1.00522082     -2.66540636
H       8.07290931     10.91849134      2.98394930
H      -2.54635415     10.60493371     11.83845885
C      17.32371568    -10.99717645     -8.91032920
H      -1.44025327     -0.66670214      8.62351503
H      -5.41284933      8.32259203     -0.45850969
C       0.88255680     -2.22435425     -2.37550244
H       0.87250371     -1.83211767      9.97812017
C       1.47725253    -10.71752580     17.93200909
H       0.33900117     -2.12706517     -1.30130329
H     -10.96224819    -12.27297102     15.66819893
H       1.07258187     -9.60103970     18.09818343
C      -0.26961307     -0.45319015     -4.10117831
H      -2.33805905      8.59833379     -1.01423719
C      -3.01118043     10.85569989     -1.57941798
H      -1.26755930      0.01229046     -4.51562075
H      -3.22322104     11.54565411     -0.57715155
H      -1.87221190     11.17576560     -1.92905184
H      -3.61093918     11.46242443     -2.46914432
H      17.74765901    -10.73425381     -9.99762831
H      17.43612069    -12.05078382     -9.46435555
H      17.87854687    -11.12545839     -6.57702233
H       3.55447866      1.38126490      7.82379335
H       0.33345596      0.20928137     10.30536348
H       0.85583672    -11.65034198     18.35816638
H       4.53007761     -0.28135793     -4.33092116
H      -9.42677474     -2.95203279     23.99741053
H       6.31471606     15.06798639     16.37407905
H       9.23486355     11.95680373      6.62131425
H       3.16056541     -0.32750794     12.24123796
H      26.59761334      7.39550199     -2.17318552
H      -4.58014203      9.52578993     11.49802377
H      27.28778436      7.54372384     -1.84138277
H       0.56725693     -2.03846576      6.28090600
H       8.35486013    -12.06383043      6.57653915
H       6.62082651     -6.59854109    -13.17129597
H       4.54382011     -0.76164818     11.05615517
C      -0.09677547     -1.14067180      6.75584524
C     -10.36028452    -12.21606709     16.66247619
C       3.08581926      0.73547710      8.67486652
C       2.41232889     -0.16195628      9.78954029
C       4.99349352      0.32244981     -2.22778735
C       8.19467652     13.86138563      7.18142556
C       3.39622702     -0.40980542     11.06245449
C      -3.56324658     10.06535893     11.66824147
C       8.94904364     13.00603385      6.04275098
C      -4.70122287      8.28608621     -1.46727905
C       1.10744955     -1.11757658     -3.58338933
C       2.30713968     -0.04299470     -3.18745877
C      17.38504186    -10.38460385     -7.39056371
C      -3.32709801      9.23042183     -1.35517407
C       8.07216989    -10.90686795      6.88318016
H       9.82498789     11.62219532      3.00332620
H      -2.97176085    -13.71963964    -10.99696050
H      10.46546812     -7.26318461     -2.35346821
H      -9.29847263     -2.27980929     24.37164860
H      -9.75832025    -12.15916331     17.65675313
H      16.08958232      7.08385721     13.47441219
H       5.78871562      0.66451497     -1.44376627
H       7.01093400     15.27459769     16.65867062
H       7.64090103     14.51196142      7.98903887
H       1.30844989     -1.67923805     -4.66018004
H      -4.53344314      7.08716434     -1.70407058
H      -7.60510608     21.23491381      9.77950861
H       1.23730316     -3.37641134     -2.31124999
H      -0.13745989     -0.26353457      5.91827971
H       9.02336976    -10.62865345      7.61068554
H      18.27048410     -9.57822461     -7.25333901
H      -7.73831527     21.24352241     10.54800141
   94

C       6.84596444     -6.88107362    -12.18093063
C      -3.25361462    -12.96086749    -10.16246928
H       7.52167127     -6.14518335    -11.51821088
C      -0.25507642     -0.80208571      8.35416248
H      -5.52456492      8.50536036     -2.36380806
H      -3.48748378    -12.17268069     -9.33889930
C       0.84111854     -0.65952388      9.59964336
H       6.51078740     -7.94895095    -11.75088951
H      -8.99153437     -6.98686094    -19.15923679
H      -8.98384471     -7.75625951    -19.03130406
C       3.94749035     -0.09048900     -3.30787470
H      16.26533858      6.33024318     13.57324832
C       8.29133730     -9.95229919      5.50661195
H       8.56160411     12.65113846      2.13529888
H       8.41230956     -9.26694578      4.56257165
H       2.50394867    -10.90123428     17.33848958
C       6.57750605    -10.70870188      7.48249713
H       5.48412403    -10.78520691      6.97495991
C       8.19864169     12.77031694      4.57379754
H       6.25886146    -10.47856412      8.62421114
H      10.02971927     13.59038683      5.96154763
H       7.08354992     13.26223769      4.50151608
C       8.66027232     11.98792874      3.17153151
H      16.86626876      2.93831605     -5.08517514
C      15.76094076      2.72563600     -4.97550926
H       2.03234848      0.99100602     -2.66023557
H       8.07277904     10.91787710      2.98354928
H      -2.54763403     10.60726781     11.83957507
C      17.22019988    -10.92194371     -8.66554922
H      -1.44294087     -0.67478063      8.60894963
H      -5.41755150      8.33286114     -0.45648602
C       0.90015534     -2.24065299     -2.36613587
H       0.86884258     -1.83276515      9.98356472
C       1.47778450    -10.71752950     17.93107589
H       0.35234668     -2.14213643     -1.29425952
H     -10.96218740    -12.27297232     15.66817810
H       1.07309222     -9.60106945     18.09739423
C      -0.24967743     -0.46401926     -4.08719730
H      -2.34269780      8.60798053     -1.01209341
C      -3.01751528     10.86571033     -1.57774833
H      -1.24865621      0.00406330     -4.49619153
H      -3.23011569     11.55560706     -0.57555705
H      -1.87912220     11.18711415     -1.92794099
H      -3.61810420     11.47146178     -2.46759802
H      17.73264808    -10.69507340     -9.72126038
H      17.44934411    -11.94983310     -9.22944654
H      17.63421586    -11.00509753     -6.32432572
H       3.55657420      1.38106304      7.82588949
H       0.32796544      0.20482928     10.31279746
H       0.85640562    -11.65031977     18.35735194
H       4.55643677     -0.33989957     -4.31119648
H      -9.42676084     -2.95204311     23.99740391
H       6.31471750     15.06796869     16.37405387
H       9.23398325     11.95720064      6.62172598
H       3.16565769     -0.32230737     12.23826428
H      26.59746787      7.39547035     -2.17314670
H      -4.58142467      9.52812834     11.49914350
H      27.28764567      7.54369523     -1.84135928
H       0.55051820     -2.04476579      6.27865664
H       8.36296169    -12.02436173      6.51592228
H       6.50256581     -6.53859111    -13.27746947
H       4.54533294     -0.76644002     11.05277902
C      -0.06548910     -1.12284806      6.76476505
C     -10.36021562    -12.21606781     16.66245032
C       3.08556409      0.73337680      8.67426001
C       2.41157157     -0.16283303      9.78963461
C       5.02146268      0.26155336     -2.20915723
C       8.19492168     13.86206531      7.18095304
C       3.39886673     -0.41083437     11.05960135
C      -3.56452784     10.06769517     11.66935951
C       8.94906033     13.00625287      6.04243691
C      -4.70642259      8.29672453     -1.46562749
C       1.12683379     -1.13124331     -3.57173617
C       2.33150818     -0.06076060     -3.17848812
C      17.11716402    -10.29403189     -7.15077578
C      -3.33174002      9.24016171     -1.35303164
C       8.07992841    -10.86445035      6.81290033
H       9.82484303     11.62112349      3.00302611
H      -3.01959836    -13.74900718    -10.98604167
H      11.68936129     -7.92570221     -3.17797641
H      -9.29846075     -2.27981962     24.37164270
H      -9.75824385    -12.15916331     17.65672256
H      16.08948095      7.08368133     13.47422860
H       5.82518224      0.59216281     -1.42917211
H       7.01093532     15.27457956     16.65864600
H       7.64070651     14.51068998      7.98984853
H       1.32936460     -1.69289896     -4.64843043
H      -4.54144630      7.09741906     -1.70235169
H      -7.60591270     21.23711835      9.77920353
H       1.26278865     -3.39002212     -2.29613964
H      -0.14737329     -0.26868932      5.91125278
H       9.03169390    -10.58534815      7.53986310
H      17.98063880     -9.47021223     -6.97689986
H      -7.73912281     21.24572847     10.54769616
   94

C       6.73504960     -6.82235907    -12.27644885
C      -3.30100493    -12.99041988    -10.15185800
H       7.40978112     -6.08847016    -11.61037765
C      -0.25252451     -0.80018975      8.35728239
H      -5.52846070      8.51899144     -2.36315695
H      -3.53469637    -12.20221593     -9.32825494
C       0.83981792     -0.66021949      9.60506058
H       6.39936479     -7.89039864    -11.84703786
H      -8.99280838     -6.98558901    -19.16120872
H      -8.98511390     -7.75498708    -19.03327332
C       3.95557910     -0.10246833     -3.30080533
H      16.26527292      6.33004545     13.57301499
C       8.29787706     -9.94267475      5.47461508
H       8.56166260     12.65069972      2.13503686
H       8.43376905     -9.27579906      4.51863349
H       2.50412251    -10.90121599     17.33796309
C       6.58693949    -10.69825753      7.46329332
H       5.49215853    -10.78000407      6.95953883
C       8.19890571     12.77006576      4.57353321
H       6.27015569    -10.47555391      8.60715175
H      10.03022510     13.58992470      5.96111163
H       7.08360896     13.26151534      4.50139466
C       8.66035199     11.98749555      3.17127985
H      16.86081745      2.93101234     -5.08288847
C      15.75618108      2.71509025     -4.97246914
H       2.04190215      0.98763166     -2.65565047
H       8.07274963     10.91752396      2.98318020
H      -2.54892034     10.60960875     11.84072085
C      17.15602052    -10.86142221     -8.44566296
H      -1.44478039     -0.68334804      8.59351191
H      -5.42272256      8.34372006     -0.45433360
C       0.90636511     -2.24698116     -2.35802524
H       0.86531627     -1.83350802      9.98874197
C       1.47802042    -10.71753097     17.93066653
H       0.35556346     -2.14737257     -1.28781750
H     -10.96216096    -12.27297373     15.66816978
H       1.07331904     -9.60108189     18.09704586
C      -0.24162482     -0.46979420     -4.07740651
H      -2.34783874      8.61822600     -1.00972719
C      -3.02414237     10.87624587     -1.57603547
H      -1.24146401      0.00052484     -4.48151276
H      -3.23726990     11.56608141     -0.57391266
H      -1.88631550     11.19894475     -1.92678723
H      -3.62553842     11.48100769     -2.46602854
H      17.72479656    -10.66903715     -9.47827311
H      17.46552866    -11.85892050     -9.02383227
H      17.52239530    -10.92372845     -6.11548766
H       3.55877679      1.38111042      7.82821344
H       0.32240451      0.20019066     10.31973013
H       0.85665663    -11.65030959     18.35699370
H       4.56354942     -0.36080532     -4.30257870
H      -9.42675665     -2.95204700     23.99740390
H       6.31472353     15.06795244     16.37403528
H       9.23315381     11.95770024      6.62218287
H       3.17049396     -0.31707536     12.23530616
H      26.59713747      7.39518914     -2.17313884
H      -4.58271278      9.53047120     11.50029410
H      27.28731927      7.54345183     -1.84137634
H       0.53285002     -2.05068844      6.27739848
H       8.36880820    -12.01273402      6.49207546
H       6.39327823     -6.48036497    -13.37369461
H       4.54673620     -0.77112403     11.04963306
C      -0.03281782     -1.10504536      6.77275491
C     -10.36018570    -12.21606887     16.66243981
C       3.08550064      0.73138962      8.67380505
C       2.41085550     -0.16372453      9.78969778
C       5.03034983      0.24136147     -2.20035074
C       8.19521020     13.86283590      7.18055869
C       3.40136991     -0.41188528     11.05683094
C      -3.56581510     10.07003706     11.67050799
C       8.94913565     13.00658932      6.04219417
C      -4.71212062      8.30798914     -1.46386796
C       1.13512106     -1.13710019     -3.56295228
C       2.33977235     -0.06609367     -3.17092956
C      16.96597408    -10.23353111     -6.93499480
C      -3.33684972      9.25047532     -1.35080309
C       8.08620664    -10.85133551      6.78465110
H       9.82480164     11.62030620      3.00276516
H      -3.06718578    -13.77857949    -10.97546653
H      12.64482782     -8.47632728     -4.06928971
H      -9.29845738     -2.27982350     24.37164295
H      -9.75821070    -12.15916397     17.65671000
H      16.08942757      7.08349030     13.47402432
H       5.83605326      0.56786597     -1.42085354
H       7.01094179     15.27456238     16.65862703
H       7.64052749     14.50948936      7.99072611
H       1.34100433     -1.69849108     -4.63926216
H      -4.55001737      7.10829870     -1.70052596
H      -7.60672509     21.23933596      9.77890797
H       1.26939073     -3.39611259     -2.28566457
H      -0.15767311     -0.27460459      5.90529850
H       9.03790429    -10.57272628      7.51217343
H      17.82523015     -9.40637052     -6.75238763
H      -7.73993556     21.24794597     10.54740053
   94

C       6.63731929     -6.76899465    -12.36750941
C      -3.34806237    -13.02074229    -10.14185477
H       7.31711420     -6.04126586    -11.69957701
C      -0.24829050     -0.79725361      8.36120126
H      -5.53080119      8.53592942     -2.36355278
H      -3.58188526    -12.23264112     -9.31819913
C       0.83785783     -0.66106003      9.61273024
H       6.30279143     -7.83794323    -11.93918822
H      -8.99341417     -6.98433826    -19.16294311
H      -8.98570298     -7.75373226    -19.03498444
C       3.96005572     -0.11091376     -3.29484366
H      16.26525229      6.32974144     13.57266113
C       8.30430008     -9.93993991      5.45710460
H       8.56179742     12.65022876      2.13463208
H       8.44830528     -9.28163842      4.49599005
H       2.50425844    -10.90118632     17.33758517
C       6.59372531    -10.69395871      7.45228777
H       5.49835820    -10.77832509      6.95015797
C       8.19946685     12.76969984      4.57318536
H       6.27743672    -10.47359496      8.59684735
H      10.03112560     13.58928035      5.96047971
H       7.08385449     13.26040678      4.50126134
C       8.66064572     11.98700285      3.17086187
H      16.85665692      2.91566089     -5.08201493
C      15.75282822      2.69569544     -4.97145247
H       2.04691661      0.98857167     -2.65175522
H       8.07294844     10.91712751      2.98251211
H      -2.55030205     10.61210351     11.84190089
C      16.93488446    -10.70801750     -8.04352739
H      -1.44752026     -0.69763510      8.56390640
H      -5.42751597      8.35529360     -0.45169550
C       0.91084819     -2.25274556     -2.34989427
H       0.85875177     -1.83422382      9.99678652
C       1.47819573    -10.71751696     17.93036419
H       0.35645546     -2.15114996     -1.28177828
H     -10.96213609    -12.27297242     15.66815272
H       1.07348491     -9.60107587     18.09678088
C      -0.23377494     -0.47640040     -4.06670409
H      -2.35269724      8.62868550     -1.00667559
C      -3.03149013     10.88716143     -1.57442784
H      -1.23411505     -0.00292654     -4.46533431
H      -3.24557818     11.57686470     -0.57242104
H      -1.89471236     11.21223594     -1.92621658
H      -3.63433540     11.49001162     -2.46475338
H      17.61058749    -10.58377724     -9.01782160
H      17.38748574    -11.63909391     -8.63291797
H      16.92966413    -10.68058690     -5.74162968
H       3.56305999      1.38124187      7.83107859
H       0.31270279      0.19190802     10.33046730
H       0.85684386    -11.65028868     18.35672652
H       4.56444100     -0.37502096     -4.29743807
H      -9.42675544     -2.95204824     23.99740376
H       6.31473425     15.06792036     16.37399237
H       9.23185899     11.95865175      6.62307981
H       3.17629992     -0.30990072     12.22967483
H      26.59648769      7.39426669     -2.17327341
H      -4.58410010      9.53297911     11.50146453
H      27.28666125      7.54264242     -1.84154386
H       0.50428078     -2.05600394      6.27883833
H       8.37390983    -12.00850051      6.47859802
H       6.29241253     -6.42581614    -13.46349421
H       4.54917333     -0.77635533     11.04535672
C       0.01922339     -1.07678051      6.78459466
C     -10.36016020    -12.21606716     16.66242232
C       3.08628569      0.72813055      8.67216808
C       2.41041229     -0.16607758      9.78809411
C       5.03423035      0.22793799     -2.19257551
C       8.19558535     13.86373458      7.18027194
C       3.40533362     -0.41197138     11.05173319
C      -3.56720108     10.07254131     11.67168271
C       8.94933406     13.00724228      6.04190453
C      -4.71803343      8.32043335     -1.46206054
C       1.14381198     -1.14264494     -3.55391811
C       2.34483094     -0.06743523     -3.16293749
C      16.38091244    -10.05997078     -6.62196276
C      -3.34160773      9.26104466     -1.34820931
C       8.09145913    -10.84643029      6.76923932
H       9.82489562     11.61920620      3.00227534
H      -3.11423959    -13.80884348    -10.96551044
H      15.32869746     -9.66555189     -6.07694902
H      -9.29845674     -2.27982476     24.37164303
H      -9.75818431    -12.15916191     17.65669192
H      16.08941789      7.08319455     13.47371370
H       5.83995889      0.55228998     -1.41249110
H       7.01095230     15.27452936     16.65858531
H       7.64034506     14.50799064      7.99200007
H       1.35765622     -1.70273162     -4.62953351
H      -4.56158762      7.11997630     -1.69845928
H      -7.60753443     21.24150729      9.77855226
H       1.27259787     -3.40209773     -2.27434061
H      -0.17366616     -0.28537735      5.89981668
H       9.04324520    -10.56877164      7.49717270
H      17.20544261     -9.21813350     -6.35578645
H      -7.74074597     21.25012648     10.54704455
