   94
energy=      0.00000000
C      -5.70103980     -0.66640555     -0.93506269
C      -4.10202199     -0.98949096     -0.34855136
H      -5.70117961      0.09368673     -1.92334307
C      -6.99255075     -0.25244340      0.14950519
H      -6.01166515     -1.52994253     -1.77704006
H      -3.76012327      0.15579655     -0.03719077
C      -2.47949994     -1.43622914     -0.55877327
H      -4.34885735     -2.00945201      0.30866100
H      -6.00207026     -3.73485085    -11.08087942
H      -5.99435907     -4.50424484    -10.95292075
C      -1.24316156     -1.27357345     -1.69168426
H      -1.82903864     -0.79925874     -2.67688036
C       0.33847995     -0.57551462     -1.50504268
H      -1.24573424     -2.42558661     -2.16138549
H       0.38726634      0.42261527     -2.25050595
H       1.05273610     -1.23583949     -2.28960044
C       1.28988575     -0.18748337     -0.09112772
H       2.45324938      0.09463524     -0.45361168
C       0.88960564      0.86680359      1.24950905
H       1.80305535     -1.24796985      0.31235861
H       0.23200229      1.80813130      0.78188161
H       1.79309798      1.71552579      1.40148242
C       0.33546218      0.45656405      2.85998866
H       1.34538241      0.20893874      3.54894044
C       3.21431921      3.53425931    -10.57049662
H       0.16694146     -0.76831104      2.95608612
H       2.56831241      4.34238680    -11.02987537
H       0.20591932      6.56470461      9.82740475
C      11.52041492     -4.33492676     -8.82318332
H      -6.87567144      0.85954712      0.69246441
H      -7.00957951     -0.81121249      1.25903558
C      -8.60705800     -0.34018981     -0.27264645
H      -9.37961257      0.50934233     -0.65866831
C      -0.87256814      1.24793068      3.85816934
H      -9.38378629     -1.27002275     -0.27678202
H      -0.65088721      2.47379934      3.90227957
H      -0.52620765      1.22564650      5.05406213
C      -2.60002286      1.02343853      3.85289026
H      -3.00081523      1.63227628      2.84519357
C      -3.83607448      1.30251706      5.03006228
H      -2.82942061     -0.15874567      3.55157521
H      -3.86839198      2.36399989      5.66870330
H      -3.97048321      0.51555158      5.98083105
H      -5.04447772      1.34133710      4.74017021
H      11.09865949     -3.25202728     -8.52765745
H      12.05050185     -4.50179959     -9.88574385
H      11.43482219     -5.24442761     -8.04639763
H       6.42786048     -3.06652696     13.09031470
H       3.15720575     -3.01961829     14.55160514
H       6.60289482     -3.66518276     10.21972715
H       9.44724246     -3.40814378     10.98195179
H       2.71588628     -3.37308846     12.94920083
H       6.77255773      6.86525329      0.90200654
H      -1.45140619      7.35397029     13.11952476
H       8.45629225      6.50450489      4.08731674
H      14.71249626     -2.60925512      2.06131343
H      -1.01751236      5.81995578     10.59677316
H      17.46289258     -1.63454104      2.64074699
H      17.05234571     -2.06198139     -0.30298917
H      11.45870891     -1.98301217      4.39942601
H      19.97853178     -1.80993736      0.57355810
H       7.13988410      5.39161164      3.42959169
C       6.09235595     -2.24439624     12.22297181
C       6.94541589     -2.60974834     10.77961431
C       4.43066406     -2.00920566     12.30844314
C       3.32325643     -2.44180517     13.48119337
C       8.61370619     -2.54155277     10.83887765
C       7.37588274      7.23096157      1.88483276
C       7.42789236      6.59059869      3.41449158
C      -0.67939579      7.00728972     10.57347399
C      -1.10256321      7.80762634     12.03704256
C      15.16003394     -1.63351839      2.66858861
C      16.62473062     -1.07663924      1.91238662
C      17.46533765     -1.10450510      0.37881037
C      19.17638586     -0.99465309      0.09040336
C      13.63634104     -1.25464533      3.13726097
C      12.21227664     -1.23266333      3.86656278
H      19.67094260     -1.08023956     -1.04673690
H      -2.03969585     -2.10923993      0.36650595
H       6.51164596     -1.25014988     12.83601668
H       3.02359608     -1.43145386     14.12699161
H       6.62194276     -1.98433456      9.75807441
H       9.37005239     -1.59595451     10.80126729
H       3.87440438     -1.41277487     11.39051537
H       7.91185280      8.21396032      1.42980850
H      -0.52345867      8.64713221     12.72112641
H       6.74578376      7.25742024      4.19726289
H      15.35434963     -1.76072166      3.88074952
H      -0.90885423      7.73394626      9.60261301
H      16.56109163      0.13611779      2.18630863
H      16.92660321     -0.29090063     -0.39807683
H      11.34020936     -0.53027076      4.25778429
H      19.81471994      0.02343214      0.40526579
H      -2.09088186      8.50113308     12.23281834
   94
energy=      0.00000000
C      -6.06429204     -0.93021026     -2.20072026
C      -4.47027535     -1.25519841     -1.60692306
H      -6.05076697     -0.17295448     -3.19082716
C      -7.36229200     -0.50188456     -1.12957950
H      -6.36899940     -1.80611911     -3.03156249
H      -4.12674500     -0.11509185     -1.27899964
C      -2.86793095     -1.74069689     -1.86837111
H      -4.71674342     -2.23942741     -0.89851973
H      -6.11714691     -3.88520723    -11.51204565
H      -6.10943573     -4.65460122    -11.38408698
C      -1.62215670     -1.53085571     -2.97983919
H      -2.19090781     -1.07528638     -3.98370673
C      -0.08113246     -0.78280269     -2.69835126
H      -1.57573999     -2.66612920     -3.48669989
H      -0.00524772      0.23016271     -3.42225074
H       0.69673577     -1.37453380     -3.48051305
C       0.71591116     -0.41850507     -1.18527214
H       1.90987874     -0.15185672     -1.45666011
C       0.11036683      0.58632042      0.13144975
H       1.25989079     -1.45970880     -0.76999033
H      -0.36218560      1.61147725     -0.37890082
H       1.04086727      1.37695412      0.38718587
C      -0.78257940      0.21588906      1.62168956
H       0.02274117      0.36870079      2.55497534
C       3.21431922      3.53425931    -10.57049663
H      -0.52214224     -0.96658793      1.87661617
H       2.56831241      4.34238680    -11.02987537
H       0.40871873      9.57322849     12.03413867
C      11.52596592     -4.33336412     -8.82089930
H      -7.24667983      0.61405489     -0.59376274
H      -7.39021984     -1.04163525     -0.01079608
C      -8.97137742     -0.59826823     -1.57035159
H      -9.74279965      0.24458098     -1.97261668
C      -4.59563443     -1.02388115     11.20173797
H      -9.74583534     -1.52994831     -1.57826894
H      -4.59429912     -0.03339553     10.59373208
H      -4.47635175     -1.75177332     12.09989297
C      -2.42314409      0.53655420      2.23209484
H      -2.75790835      1.46983721      1.49599837
C      -3.62353444      0.93513512      3.45275474
H      -2.88478534     -0.60257747      2.13638903
H      -3.67671068      1.99666338      4.09373990
H      -3.85097009      0.25206983      4.46626890
H      -4.85378623      1.02173751      3.25138641
H      11.09666256     -3.25257562     -8.52846129
H      12.04865113     -4.50248626     -9.88678928
H      11.43288370     -5.24491278     -8.04737216
H       7.76481643     -3.63025930     13.90954740
H       4.64823458     -3.64890629     15.34400763
H       7.91861323     -4.24604736     11.04441416
H      10.77654782     -4.00216162     11.76334162
H       3.87383768     -3.90573209     13.78420682
H       7.36194978      7.44532172      0.66829901
H      -1.30638532     10.03892604     15.00075293
H       9.07864418      7.11222572      3.77739469
H      14.78373935     -2.68509765      2.03555967
H      -1.07497657      8.72228184     12.43523763
H      17.53433114     -1.52978934      2.73169665
H      17.03020451     -2.11857340     -0.27021176
H      11.67374080     -2.18727312      4.28166868
H      19.94529236     -1.86959618      0.57893533
H       7.68071752      5.97114144      3.24982338
C       7.42357089     -2.81977222     13.03547523
C       8.27613954     -3.18903128     11.59056398
C       5.75782823     -2.60592755     13.13528522
C       4.61131264     -3.04488795     14.27259302
C       9.94647978     -3.13140546     11.62438346
C       7.96269244      7.80536124      1.65417410
C       7.99994087      7.16037218      3.18203307
C      -0.68523881      9.89590941     12.50953743
C      -1.07768873     10.68973202     13.97233894
C      15.22052902     -1.72493879      2.67382515
C      16.66650551     -1.08945759      1.95977707
C      17.44655357     -1.15479899      0.39991478
C      19.15262865     -1.04030505      0.10389861
C      13.71031905     -1.29877875      3.12309771
C      12.28018582     -1.25738263      3.82849622
H      19.65223942     -1.11370523     -1.03060975
H      -2.43985009     -2.49629398     -1.00348626
H       7.85176805     -1.82495344     13.64248465
H       4.18693029     -2.04290413     14.85796685
H       7.95965598     -2.57173435     10.56165679
H      10.71482341     -2.19683300     11.55801371
H       5.23476029     -1.97666778     12.22228967
H       8.51711194      8.78078598      1.20397634
H      -0.26098891     11.47817631     14.46820354
H       7.28033758      7.77557244      3.97385761
H      15.40704475     -1.99830277      3.86276255
H      -0.95319299     10.53915603     11.48500342
H      16.61091573      0.11782696      2.26077176
H      16.86492136     -0.38570827     -0.39141806
H      11.59026693     -0.31453940      4.07523280
H      19.77753261     -0.01461249      0.41989429
H      -2.10023086     11.38979190     14.00631205
