   94

C       7.15099550     -6.80867511     -7.68443985
C       5.70187569     -7.62888029     -7.25072780
H       7.41444159     -5.97962120     -6.79395641
C       3.67191695     -0.89719290      4.92932365
H     -18.89185999     -7.18329685     -1.80818867
H       4.69514483     -7.02739837     -6.84776734
C       4.59217439     -1.44943010      6.31740075
H       5.74044509     -8.45268236     -6.32414275
H      -7.81523282     -6.27941550    -16.91792814
H      -7.80752163     -7.04880949    -16.78996947
C       9.05113567      1.65317699      6.96437754
H       9.77397372      1.01521206      7.73663048
C       5.67809289     -2.71991452      5.90249764
H       6.59256683      5.39591947     -4.73519370
H       5.93659914     -2.21461225      4.81932406
H      -0.14327518     -7.37313991     12.68688144
C       5.85026068     -4.11135328      6.76323140
H       4.92295080     -4.73032019      7.27911618
C       5.56106703      7.61600599     -4.97175722
H       6.32325814     -4.84829217      7.63381113
H       6.45595518      8.41384492     -5.16250745
H       4.47216212      8.08086362     -5.23377264
C       5.75796949      6.16199097     -4.21621998
H      10.49632071      4.38785729    -14.14197872
C       9.84365710      4.03684891    -13.28809332
H       9.47375729      2.09037261      4.40435473
H       5.24906483      5.31065983     -4.96390993
H      -3.00408555     13.84794160     10.96389429
C       8.54666323     -7.64651288     -8.25541806
H       2.82719350     -0.07294994      5.22772829
H     -19.27118577     -7.16726916     -1.12682601
C      -1.26400034     -8.37246218      0.62488750
H       3.50780464     -1.92591455      6.67153416
C      -1.16836749     -7.12814256     13.27901554
H      -2.07500282     -8.84335917      1.31388403
H      -3.40368365     -8.07766823     13.53437059
H      -1.16508772     -5.92173176     13.19496167
C      -3.94926243      0.01933685     -7.52171249
H       6.10009011      7.78194008     -2.34247746
C       4.15967631      6.92176517     -1.68412719
H      -4.45343486      0.92591181     -8.04908070
H       4.10531723      7.61485242     -0.65324002
H       3.55723437      5.92194035     -1.28850894
H       3.13924628      7.50562930     -2.07684464
H       8.81987472     -7.47626982     -9.45441920
H       8.44279426     -8.84527450     -8.55277164
H      10.43130328     -8.26147524     -6.52149164
H       5.43685849      1.77331220      8.27106389
H       4.20545150     -0.53907133      8.39988878
H      -2.03574099     -9.35619933     13.92869823
H       6.90108476      1.42962906      5.89919933
H      -8.74526115     -4.13751912     22.51988064
H       4.78406590     13.78957283     17.27527384
H       3.36453856     13.38800347     20.35887501
H       5.83788897     -1.97211590     10.12257797
H      17.43837817      4.39965506      0.15020648
H      -4.76113507     12.91559780     10.66978309
H      18.12855175      4.54803080      0.48193601
H       3.71741524     -1.44045817      2.21745392
H       7.21481980     -4.49757072      4.75572854
H       6.90724326     -5.82993066     -8.41672403
H       7.23388259     -1.88280725      9.25933725
C       3.25835115     -0.98771423      3.26016284
C      -2.26250979     -8.14629542     13.99853119
C       6.14860612      0.80045207      7.98796190
C       5.27272722     -0.69227636      7.78853651
C       7.41593436      1.25609762      6.98038660
C       5.07558290     14.28578061     18.35967589
C       6.09201165     -1.53377038      9.01676359
C      -4.20622018     14.01157358     10.75361368
C       4.08859977     13.76537313     19.51608868
C       6.83460478      5.87891032     -1.69865833
C      11.14537852      1.10670518      4.99538594
C       9.78603335      1.66130837      5.48331816
C       9.96542561     -7.54424521     -7.37883554
C       5.63095463      6.64957574     -2.55220701
C       6.93962954     -3.71548719      5.67445021
H       7.89188868      6.24858273     -1.23119932
H       5.08653194     -8.27801868     -8.10995690
H       2.08584684     -1.33587693      3.03478475
H      -8.61696245     -3.46529564     22.89411991
H      -2.38564357     -7.98142993     15.21515079
H       9.30273505      2.73129066      7.51688431
H       6.57897643      1.18398273      9.08935064
H       6.24267660     13.99125273     18.60107528
H       5.01438888     15.50676025     18.24745781
H      -3.44510011     -0.88724448     -6.99434558
H       6.84920517      4.72090323     -1.36505620
H      -4.35808925     14.63018583      9.69987001
H      -0.45299817     -7.90156529     -0.06410945
H       3.57318522     -0.20938612      2.36271446
H       8.13562725     -3.40941360      5.79476305
H      10.85142812     -6.71767884     -7.39099733
H      -4.70157084     14.65256910     11.68090732
   94

C       7.15095820     -6.80853843     -7.68461991
C       5.70210715     -7.62903635     -7.25057436
H       7.41441863     -5.97921959     -6.79438456
C       3.66475489     -0.91508599      4.95919982
H     -18.89186573     -7.18329967     -1.80819036
H       4.69541504     -7.02779050     -6.84717279
C       4.57164482     -1.47113724      6.35033772
H       5.74105902     -8.45296754     -6.32412226
H      -7.81523380     -6.27941722    -16.91793074
H      -7.80752245     -7.04881116    -16.78997175
C       9.04470788      1.65120413      6.96024630
H       9.76334769      1.01000311      7.73349371
C       5.76059199     -2.69197182      5.75100965
H       6.59331521      5.41103872     -4.72779783
H       6.02745134     -2.15894787      4.69710220
H      -0.14339338     -7.37316149     12.68698793
C       5.81757093     -4.06034970      6.76606514
H       4.89106557     -4.70292955      7.24950042
C       5.56035461      7.62079466     -4.98453196
H       6.25920356     -4.80688452      7.64246828
H       6.44994710      8.42040056     -5.19068070
H       4.47853999      8.09300345     -5.26145905
C       5.75501989      6.17411989     -4.21177161
H      10.49641352      4.38780515    -14.14219271
C       9.84375017      4.03679721    -13.28830694
H       9.48198866      2.09552085      4.40341741
H       5.23125343      5.31203609     -4.93610449
H      -3.00410272     13.84797825     10.96390851
C       8.54664680     -7.64627277     -8.25568775
H       2.84074000     -0.07003412      5.25472960
H     -19.27119136     -7.16727188     -1.12682762
C      -1.26394166     -8.37251503      0.62489411
H       3.49037231     -1.95969889      6.69265655
C      -1.16849036     -7.12815555     13.27910663
H      -2.07496150     -8.84340296      1.31387665
H      -3.40377912     -8.07771654     13.53443284
H      -1.16519916     -5.92174483     13.19506720
C      -3.94930969      0.01933014     -7.52178461
H       6.10828676      7.78315562     -2.34007289
C       4.16016848      6.91592052     -1.68303873
H      -4.45347639      0.92591455     -8.04914185
H       4.10450911      7.60675078     -0.65109132
H       3.55565932      5.91487331     -1.29226102
H       3.14217086      7.49895439     -2.08288026
H       8.81999538     -7.47561769     -9.45459558
H       8.44291026     -8.84491068     -8.55360205
H      10.42965201     -8.26088960     -6.51993064
H       5.43050692      1.77240678      8.25204136
H       4.20326380     -0.53464646      8.40866000
H      -2.03582930     -9.35624226     13.92875914
H       6.89604245      1.43579923      5.89298506
H      -8.74526524     -4.13751978     22.51988716
H       4.78405723     13.78970873     17.27521351
H       3.36468113     13.38789971     20.35895356
H       5.83255245     -1.97305135     10.13120667
H      17.43840560      4.39968084      0.15019078
H      -4.76115459     12.91563534     10.66979809
H      18.12857812      4.54805474      0.48192336
H       3.71010819     -1.46017184      2.25000654
H       7.24037423     -4.53773136      4.78332659
H       6.90689939     -5.82989881     -8.41693679
H       7.23674336     -1.88255066      9.26397446
C       3.25552511     -0.99290286      3.28927606
C      -2.26260960     -8.14634155     13.99860227
C       6.14214475      0.79557142      7.98146810
C       5.26972712     -0.70230453      7.79965064
C       7.40917154      1.25423256      6.97393397
C       5.07555163     14.28581597     18.35966755
C       6.09274796     -1.53889260      9.02528728
C      -4.20623724     14.01160994     10.75362726
C       4.08856016     13.76541643     19.51607669
C       6.83483787      5.87293614     -1.69194307
C      11.14674564      1.10306825      5.00073686
C       9.78661263      1.66136332      5.48256009
C       9.96515926     -7.54441885     -7.37866299
C       5.63525900      6.65165782     -2.54577957
C       6.95977189     -3.74583298      5.68971209
H       7.89409333      6.23896659     -1.22636026
H       5.08663374     -8.27813058     -8.10974489
H       2.08474349     -1.33982626      3.05739461
H      -8.61696618     -3.46529623     22.89412620
H      -2.38574050     -7.98148208     15.21522225
H       9.29748322      2.72856827      7.51392736
H       6.56782710      1.18660102      9.08191704
H       6.24256235     13.99116875     18.60132283
H       5.01445240     15.50678308     18.24726149
H      -3.44515281     -0.88726155     -6.99443045
H       6.85355738      4.71506628     -1.35626082
H      -4.35810618     14.63022182      9.69988341
H      -0.45292142     -7.90162439     -0.06408603
H       3.56240949     -0.19388591      2.40559822
H       8.15432848     -3.44593634      5.82263149
H      10.85218919     -6.71897069     -7.39178077
H      -4.70158724     14.65260475     11.68092170
   94

C       7.15092144     -6.80840170     -7.68480041
C       5.70233891     -7.62919184     -7.25042173
H       7.41439555     -5.97881717     -6.79481385
C       3.66424919     -0.93846353      4.99121621
H     -18.89187057     -7.18330167     -1.80819184
H       4.69568532     -7.02818168     -6.84658069
C       4.56068080     -1.51040823      6.38331469
H       5.74167278     -8.45325156     -6.32410224
H      -7.81523445     -6.27941828    -16.91793247
H      -7.80752300     -7.04881219    -16.78997327
C       9.03828014      1.64947729      6.95614686
H       9.75264578      1.00507404      7.73045357
C       5.84992645     -2.66344398      5.59857620
H       6.59390502      5.42624641     -4.72030807
H       6.12042238     -2.10371669      4.57220236
H      -0.14349788     -7.37320244     12.68711668
C       5.77677242     -3.99368294      6.76850193
H       4.85868717     -4.67558588      7.21125992
C       5.55957159      7.62553660     -4.99721558
H       6.19156352     -4.75712199      7.64344633
H       6.44389159      8.42653304     -5.21888745
H       4.48497270      8.10460635     -5.28925716
C       5.75190980      6.18634337     -4.20728315
H      10.49650584      4.38775300    -14.14240731
C       9.84384263      4.03674553    -13.28852123
H       9.49079463      2.10129927      4.40279249
H       5.21373512      5.31417483     -4.90821993
H      -3.00411298     13.84800061     10.96391740
C       8.54663249     -7.64603307     -8.25595348
H       2.86206764     -0.07234729      5.28432421
H     -19.27119609     -7.16727381     -1.12682904
C      -1.26392838     -8.37257644      0.62485792
H       3.47620210     -1.99687962      6.71404301
C      -1.16860441     -7.12818923     13.27921236
H      -2.07495856     -8.84345966      1.31383211
H      -3.40387346     -8.07777631     13.53450594
H      -1.16530415     -5.92177819     13.19519403
C      -3.94934250      0.01932604     -7.52183130
H       6.11642497      7.78432670     -2.33762298
C       4.16062976      6.91001107     -1.68188022
H      -4.45350520      0.92591663     -8.04918159
H       4.10369400      7.59859063     -0.64888188
H       3.55410213      5.90774901     -1.29591635
H       3.14510812      7.49221240     -2.08882247
H       8.82011955     -7.47496680     -9.45476762
H       8.44302869     -8.84454724     -8.55442756
H      10.42799905     -8.26029946     -6.51836195
H       5.42309549      1.77028198      8.23131931
H       4.20194889     -0.53138649      8.41408112
H      -2.03591720     -9.35629911     13.92883035
H       6.89120929      1.44181424      5.88633269
H      -8.74526960     -4.13752002     22.51989381
H       4.78404761     13.78984066     17.27514969
H       3.36482293     13.38779322     20.35902897
H       5.82653735     -1.97274759     10.14120930
H      17.43844639      4.39970887      0.15016952
H      -4.76116637     12.91565841     10.66980759
H      18.12861685      4.54808010      0.48190759
H       3.70214082     -1.48001602      2.28317430
H       7.25646645     -4.57481757      4.81496722
H       6.90655663     -5.82986750     -8.41715089
H       7.23942401     -1.88148128      9.27064820
C       3.25470229     -0.99963431      3.32057438
C      -2.26270868     -8.14640173     13.99868465
C       6.13541789      0.79003632      7.97393020
C       5.26808149     -0.71387045      7.80859330
C       7.40244102      1.25242390      6.96710165
C       5.07551929     14.28584782     18.35965554
C       6.09362617     -1.54228944      9.03564000
C      -4.20624742     14.01163225     10.75363579
C       4.08851961     13.76545651     19.51606125
C       6.83501549      5.86692506     -1.68527058
C      11.14833805      1.09961384      5.00635860
C       9.78757055      1.66192940      5.48204774
C       9.96489327     -7.54459385     -7.37848368
C       5.63949176      6.65372243     -2.53929097
C       6.97082192     -3.77229307      5.70912450
H       7.89623129      6.22931963     -1.22157997
H       5.08673645     -8.27824266     -8.10953352
H       2.08480856     -1.34377924      3.08366947
H      -8.61697010     -3.46529636     22.89413249
H      -2.38583718     -7.98154750     15.21530481
H       9.29196060      2.72606698      7.51116207
H       6.55569235      1.18948171      9.07337476
H       6.24244700     13.99108158     18.60156694
H       5.01451482     15.50680235     18.24706147
H      -3.44518912     -0.88727220     -6.99448514
H       6.85785581      4.70920383     -1.34752022
H      -4.35811631     14.63024389      9.69989181
H      -0.45289499     -7.90168288     -0.06410529
H       3.55153380     -0.17881236      2.45162904
H       8.16526411     -3.48052628      5.85132379
H      10.85295052     -6.72026761     -7.39255533
H      -4.70159697     14.65262669     11.68093069
   94

C       7.15088633     -6.80826533     -7.68498093
C       5.70257233     -7.62934795     -7.25027018
H       7.41437340     -5.97841452     -6.79524372
C       3.66959812     -0.96534798      5.02393676
H     -18.89187416     -7.18330285     -1.80819295
H       4.69595670     -7.02857345     -6.84599173
C       4.55794215     -1.56011537      6.41466528
H       5.74228758     -8.45353574     -6.32408301
H      -7.81523484     -6.27941882    -16.91793345
H      -7.80752333     -7.04881271    -16.78997417
C       9.03193315      1.64786835      6.95207261
H       9.74195276      1.00027086      7.72747241
C       5.94407218     -2.63704753      5.45266999
H       6.59436370      5.44156321     -4.71272473
H       6.20833319     -2.04993886      4.45100278
H      -0.14357893     -7.37324487     12.68723653
C       5.73099458     -3.92180109      6.76579575
H       4.82853928     -4.64851946      7.16918285
C       5.55872599      7.63023526     -5.00981184
H       6.12400920     -4.70047535      7.63898765
H       6.43779974      8.43224055     -5.24712159
H       4.49146483      8.11567210     -5.31715871
C       5.74864701      6.19866259     -4.20275623
H      10.49659815      4.38770074    -14.14262264
C       9.84393503      4.03669363    -13.28873634
H       9.49999648      2.10741257      4.40239965
H       5.19650905      5.31707124     -4.88029623
H      -3.00411754     13.84801086     10.96392164
C       8.54662182     -7.64579377     -8.25621427
H       2.88943039     -0.07875608      5.31475521
H     -19.27119960     -7.16727496     -1.12683011
C      -1.26395294     -8.37264201      0.62479593
H       3.46542952     -2.03395214      6.73529111
C      -1.16869605     -7.12822544     13.27930856
H      -2.07498695     -8.84352198      1.31376854
H      -3.40395221     -8.07783039     13.53457318
H      -1.16538891     -5.92181401     13.19530925
C      -3.94936224      0.01932393     -7.52185604
H       6.12451120      7.78545294     -2.33512711
C       4.16106566      6.90404228     -1.68065767
H      -4.45352250      0.92591790     -8.04920275
H       4.10287892      7.59037217     -0.64661390
H       3.55256844      5.90057015     -1.29948627
H       3.14806151      7.48541020     -2.09467111
H       8.82024876     -7.47431697     -9.45493429
H       8.44315121     -8.84418413     -8.55524722
H      10.42634510     -8.25970377     -6.51678343
H       5.41518563      1.76730092      8.20963511
H       4.20126184     -0.52894314      8.41678223
H      -2.03599123     -9.35635199     13.92889618
H       6.88669683      1.44742193      5.87935217
H      -8.74527325     -4.13751986     22.51989920
H       4.78403719     13.78996951     17.27508322
H       3.36496402     13.38768449     20.35910192
H       5.81972014     -1.97190229     10.15207737
H      17.43849299      4.39973474      0.15014679
H      -4.76117165     12.91566908     10.66981225
H      18.12866083      4.54810302      0.48189161
H       3.69533952     -1.50123566      2.31698492
H       7.26331247     -4.60645602      4.84782732
H       6.90621624     -5.82983706     -8.41736577
H       7.24175727     -1.88019047      9.27881800
C       3.25638122     -1.00820220      3.35302407
C      -2.26279151     -8.14645733     13.99875972
C       6.12870918      0.78409405      7.96586099
C       5.26752306     -0.72633080      7.81606243
C       7.39582110      1.25063118      6.96005822
C       5.07548605     14.28587692     18.35964075
C       6.09444889     -1.54458089      9.04734774
C      -4.20625193     14.01164256     10.75363989
C       4.08847822     13.76549399     19.51604316
C       6.83514434      5.86087667     -1.67864756
C      11.15005054      1.09616403      5.01213854
C       9.78879595      1.66276421      5.48169655
C       9.96462878     -7.54476971     -7.37829614
C       5.64365821      6.65577091     -2.53274714
C       6.97171577     -3.79140362      5.72835154
H       7.89830677      6.21964081     -1.21685856
H       5.08684160     -8.27835609     -8.10932321
H       2.08683167     -1.34846541      3.11196192
H      -8.61697332     -3.46529607     22.89413750
H      -2.38591831     -7.98160689     15.21537993
H       9.28633342      2.72366806      7.50852370
H       6.54302647      1.19244506      9.06425783
H       6.24233071     13.99099196     18.60180847
H       5.01457631     15.50681885     18.24685864
H      -3.44521068     -0.88727763     -6.99451393
H       6.86210728      4.70331511     -1.33884210
H      -4.35812084     14.63025411      9.69989587
H      -0.45291160     -7.90174236     -0.06415445
H       3.54199172     -0.16530213      2.49950250
H       8.16751795     -3.51174693      5.87977168
H      10.85371266     -6.72156846     -7.39331868
H      -4.70160124     14.65263687     11.68093500
   94

C       7.15085364     -6.80812899     -7.68516007
C       5.70280842     -7.62950497     -7.25011885
H       7.41435304     -5.97801159     -6.79567251
C       3.67950665     -0.99369931      5.05609149
H     -18.89187628     -7.18330331     -1.80819359
H       4.69623012     -7.02896628     -6.84540499
C       4.56044153     -1.61264752      6.44409619
H       5.74290440     -8.45382043     -6.32406378
H      -7.81523500     -6.27941896    -16.91793382
H      -7.80752347     -7.04881284    -16.78997452
C       9.02565910      1.64621759      6.94798168
H       9.73130442      0.99544454      7.72447459
C       6.03982358     -2.61472804      5.31600547
H       6.59471912      5.45700701     -4.70504736
H       6.28721302     -1.99752339      4.33762531
H      -0.14363254     -7.37327581     12.68732477
C       5.68361495     -3.85076505      6.75745867
H       4.80186174     -4.62108520      7.12793012
C       5.55782720      7.63489196     -5.02232423
H       6.05907219     -4.64003421      7.63106080
H       6.43168324      8.43752159     -5.27537290
H       4.49802216      8.12620092     -5.34515101
C       5.74524293      6.21107789     -4.19819098
H      10.49669080      4.38764822    -14.14283845
C       9.84402784      4.03664127    -13.28895195
H       9.50931199      2.11349152      4.40210875
H       5.17957596      5.32071712     -4.85236815
H      -3.00411791     13.84801205     10.96392227
C       8.54661536     -7.64555432     -8.25646944
H       2.92049826     -0.08802506      5.34452597
H     -19.27120168     -7.16727540     -1.12683072
C      -1.26399929     -8.37270343      0.62472918
H       3.45800310     -2.06964053      6.75599886
C      -1.16875815     -7.12825090     13.27937816
H      -2.07503225     -8.84357965      1.31370611
H      -3.40400642     -8.07786737     13.53462229
H      -1.16544596     -5.92183927     13.19538999
C      -3.94937074      0.01932315     -7.52186344
H       6.13255604      7.78653199     -2.33258307
C       4.16148379      6.89802307     -1.67937769
H      -4.45352989      0.92591827     -8.04920918
H       4.10207294      7.58209881     -0.64429009
H       3.55106418      5.89334385     -1.30298384
H       3.15103701      7.47855900     -2.10042712
H       8.82038333     -7.47366746     -9.45509494
H       8.44327848     -8.84382079     -8.55606051
H      10.42469084     -8.25910167     -6.51519466
H       5.40727056      1.76375210      8.18775064
H       4.20094930     -0.52708970      8.41799000
H      -2.03604283     -9.35638874     13.92894498
H       6.88246991      1.45237000      5.87219171
H      -8.74527563     -4.13751940     22.51990254
H       4.78402627     13.79009610     17.27501488
H       3.36510463     13.38757407     20.35917308
H       5.81236184     -1.97127842     10.16322141
H      17.43853613      4.39975451      0.15012714
H      -4.76117211     12.91567038     10.66981307
H      18.12870137      4.54812016      0.48187855
H       3.69118895     -1.52456717      2.35132210
H       7.26203046     -4.63213108      4.87991156
H       6.90587904     -5.82980696     -8.41757983
H       7.24382050     -1.87927307      9.28765435
C       3.26079146     -1.01852908      3.38554948
C      -2.26284852     -8.14649575     13.99881419
C       6.12219955      0.77788629      7.95777323
C       5.26766741     -0.73918209      7.82304184
C       7.38930252      1.24873481      6.95297202
C       5.07545224     14.28590398     18.35962399
C       6.09517918     -1.54670636      9.05968383
C      -4.20625229     14.01164382     10.75364052
C       4.08843629     13.76552955     19.51602321
C       6.83523165      5.85478697     -1.67207825
C      11.15172273      1.09255226      5.01792917
C       9.79009008      1.66357283      5.48137908
C       9.96436635     -7.54494552     -7.37809979
C       5.64776629      6.65780321     -2.52615242
C       6.96352907     -3.80153354      5.74381964
H       7.90032407      6.20992441     -1.21219163
H       5.08695017     -8.27847093     -8.10911327
H       2.09138308     -1.35434705      3.14052037
H      -8.61697536     -3.46529550     22.89414053
H      -2.38597437     -7.98164745     15.21543436
H       9.28067400      2.72123377      7.50589208
H       6.53026471      1.19523705      9.05507979
H       6.24221381     13.99090053     18.60204817
H       5.01463720     15.50683326     18.24665383
H      -3.44521956     -0.88727920     -6.99452239
H       6.86631795      4.69739585     -1.33023090
H      -4.35812127     14.63025537      9.69989653
H      -0.45295467     -7.90179928     -0.06421487
H       3.53490519     -0.15396091      2.54788750
H       8.16177723     -3.53892842      5.90685960
H      10.85447572     -6.72287181     -7.39406964
H      -4.70160153     14.65263814     11.68093565
   94

C       7.15082352     -6.80799185     -7.68533709
C       5.70304735     -7.62966224     -7.24996716
H       7.41433473     -5.97760782     -6.79609925
C       3.69289934     -1.02216222      5.08718410
H     -18.89187683     -7.18330314     -1.80819374
H       4.69650592     -7.02935954     -6.84481942
C       4.56529854     -1.66359089      6.47241006
H       5.74352351     -8.45410518     -6.32404416
H      -7.81523491     -6.27941877    -16.91793358
H      -7.80752338     -7.04881267    -16.78997432
C       9.01938483      1.64438888      6.94379963
H       9.72067991      0.99049952      7.72137303
C       6.13512435     -2.59790436      5.18774737
H       6.59499557      5.47259179     -4.69727320
H       6.35617088     -1.94632676      4.23374595
H      -0.14365612     -7.37329095     12.68736965
C       5.63668288     -3.78182479      6.74526685
H       4.77876516     -4.59244688      7.08974797
C       5.55688277      7.63950470     -5.03475367
H       5.99792036     -4.57826386      7.62045312
H       6.42555126      8.44237358     -5.30362592
H       4.50464824      8.13619226     -5.37321469
C       5.74170833      6.22358740     -4.19358403
H      10.49678388      4.38759529    -14.14305420
C       9.84412124      4.03658827    -13.28916748
H       9.51848252      2.11921924      4.40177634
H       5.16293418      5.32509955     -4.82446267
H      -3.00411536     13.84800690     10.96392016
C       8.54661271     -7.64531398     -8.25671947
H       2.95357327     -0.09917353      5.37300138
H     -19.27120222     -7.16727524     -1.12683087
C      -1.26405158     -8.37274998      0.62467366
H       3.45308323     -2.10410800      6.77606643
C      -1.16878636     -7.12826203     13.27941280
H      -2.07508022     -8.84362234      1.31365861
H      -3.40403142     -8.07788371     13.53464727
H      -1.16547100     -5.92185040     13.19542706
C      -3.94936865      0.01932321     -7.52185596
H       6.14056784      7.78755795     -2.32998488
C       4.16188993      6.89195754     -1.67804242
H      -4.45352799      0.92591748     -8.04920293
H       4.10128317      7.57376936     -0.64190888
H       3.54959372      5.88607252     -1.30641711
H       3.15403872      7.47166500     -2.10608725
H       8.82052252     -7.47301735     -9.45525009
H       8.44341002     -8.84345642     -8.55686808
H      10.42303677     -8.25849287     -6.51359754
H       5.39959777      1.75983201      8.16607658
H       4.20073807     -0.52560499      8.41880938
H      -2.03606744     -9.35640554     13.92897071
H       6.87842273      1.45637446      5.86490092
H      -8.74527664     -4.13751884     22.51990374
H       4.78401519     13.79022104     17.27494523
H       3.36524504     13.38746254     20.35924301
H       5.80474647     -1.97136810     10.17428564
H      17.43856848      4.39976592      0.15011392
H      -4.76116918     12.91566508     10.66981096
H      18.12873160      4.54812968      0.48187056
H       3.69054303     -1.55015624      2.38617030
H       7.25400470     -4.65227982      4.91017785
H       6.90554505     -5.82977624     -8.41779207
H       7.24572233     -1.87899926      9.29657146
C       3.26802266     -1.03030327      3.41758260
C      -2.26287477     -8.14651304     13.99884158
C       6.11590598      0.77148298      7.94994426
C       5.26808915     -0.75207275      7.83032183
C       7.38281923      1.24656640      6.94590381
C       5.07541818     14.28592958     18.35960586
C       6.09582087     -1.54922978      9.07219150
C      -4.20624975     14.01163872     10.75363851
C       4.08839413     13.76556376     19.51600197
C       6.83528150      5.84864708     -1.66556355
C      11.15321364      1.08866649      5.02359842
C       9.79126142      1.66411223      5.48096303
C       9.96410590     -7.54512039     -7.37789569
C       5.65182174      6.65981573     -2.51950753
C       6.94825305     -3.80294662      5.75389107
H       7.90228454      6.20015997     -1.20757199
H       5.08706210     -8.27858624     -8.10890319
H       2.09879581     -1.36149324      3.16825975
H      -8.61697617     -3.46529487     22.89414153
H      -2.38600050     -7.98166532     15.21546167
H       9.27495160      2.71865654      7.50312046
H       6.51763397      1.19773117      9.04609605
H       6.24209663     13.99080779     18.60228654
H       5.01469784     15.50684616     18.24644760
H      -3.44521648     -0.88727767     -6.99451338
H       6.87048911      4.69143727     -1.32168621
H      -4.35811882     14.63025034      9.69989456
H      -0.45300775     -7.90184410     -0.06427049
H       3.53093421     -0.14483684      2.59605212
H       8.14938880     -3.56181894      5.93159389
H      10.85523947     -6.72417664     -7.39480924
H      -4.70159908     14.65263316     11.68093352
   94

C       7.15079552     -6.80785303     -7.68551254
C       5.70328861     -7.62981868     -7.24981548
H       7.41431825     -5.97720244     -6.79652443
C       3.70884440     -1.05018087      5.11738350
H     -18.89187578     -7.18330242     -1.80819345
H       4.69678392     -7.02975208     -6.84423462
C       4.57032026     -1.71150403      6.50084673
H       5.74414452     -8.45438925     -6.32402484
H      -7.81523450     -6.27941825    -16.91793260
H      -7.80752300     -7.04881216    -16.78997346
C       9.01301590      1.64229605      6.93944669
H       9.71002476      0.98539454      7.71809310
C       6.22966376     -2.58707362      5.06635642
H       6.59521329      5.48832763     -4.68939753
H       6.41581703     -1.89693077      4.13965110
H      -0.14364697     -7.37329234     12.68736715
C       5.59104426     -3.71426114      6.73070581
H       4.75891072     -4.56180156      7.05498306
C       5.55589810      7.64406806     -5.04709880
H       5.94086193     -4.51615743      7.60729531
H       6.41941017      8.44679278     -5.33186070
H       4.51134401      8.14564497     -5.40132436
C       5.73805255      6.23618677     -4.18892905
H      10.49687723      4.38754190    -14.14326928
C       9.84421515      4.03653455    -13.28938226
H       9.52731093      2.12436270      4.40127124
H       5.14657934      5.33020118     -4.79659958
H      -3.00411087     13.84799762     10.96391596
C       8.54661283     -7.64507208     -8.25696609
H       2.98765546     -0.11153123      5.40018944
H     -19.27120122     -7.16727455     -1.12683061
C      -1.26409700     -8.37277054      0.62463941
H       3.44925946     -2.13780840      6.79581110
C      -1.16877733     -7.12826249     13.27941026
H      -2.07511920     -8.84364097      1.31363327
H      -3.40402504     -8.07788132     13.53464665
H      -1.16546107     -5.92185088     13.19542084
C      -3.94935542      0.01932374     -7.52183366
H       6.14855165      7.78852114     -2.32732318
C       4.16228743      6.88584291     -1.67664944
H      -4.45351634      0.92591512     -8.04918411
H       4.10051411      7.56537619     -0.63946450
H       3.54815990      5.87875150     -1.30978876
H       3.15706818      7.46472724     -2.11164401
H       8.82066496     -7.47236586     -9.45540156
H       8.44354464     -8.84309032     -8.55767187
H      10.42138330     -8.25787776     -6.51199607
H       5.39222218      1.75567312      8.14473583
H       4.20035272     -0.52424191      8.41999719
H      -2.03606291     -9.35640441     13.92897147
H       6.87444172      1.45920236      5.85744863
H      -8.74527650     -4.13751843     22.51990321
H       4.78400420     13.79034485     17.27487464
H       3.36538555     13.38735042     20.35931215
H       5.79705206     -1.97240656     10.18510308
H      17.43858543      4.39976840      0.15010890
H      -4.76116403     12.91565550     10.66980661
H      18.12874723      4.54813120      0.48186871
H       3.69383235     -1.57781894      2.42167078
H       7.24049275     -4.66747399      4.93795470
H       6.90521369     -5.82974387     -8.41800280
H       7.24750555     -1.87940942      9.30522373
C       3.27811057     -1.04318609      3.44902486
C      -2.26286801     -8.14651125     13.99884028
C       6.10973840      0.76492437      7.94245760
C       5.26836374     -0.76475892      7.83837754
C       7.37628089      1.24399824      6.93884116
C       5.07538416     14.28595416     18.35958674
C       6.09634849     -1.55234118      9.08466288
C      -4.20624530     14.01162947     10.75363445
C       4.08835200     13.76559717     19.51597983
C       6.83529441      5.84244313     -1.65910167
C      11.15442354      1.08445350      5.02905020
C       9.79216122      1.66422261      5.48033715
C       9.96384698     -7.54529378     -7.37768658
C       5.65582744      6.66180092     -2.51280998
C       6.92788334     -3.79669525      5.75803812
H       7.90418630      6.19033243     -1.20299085
H       5.08717653     -8.27870061     -8.10869330
H       2.10925461     -1.36975065      3.19467828
H      -8.61697600     -3.46529444     22.89414096
H      -2.38599467     -7.98166279     15.21546029
H       9.26908950      2.71587570      7.50007460
H       6.50518382      1.19991491      9.03736125
H       6.24197943     13.99071413     18.60252394
H       5.01475857     15.50685803     18.24624034
H      -3.44520071     -0.88727327     -6.99448688
H       6.87461683      4.68542607     -1.31320299
H      -4.35811442     14.63024116      9.69989054
H      -0.45305752     -7.90186394     -0.06430943
H       3.53044768     -0.13769782      2.64384538
H       8.13177518     -3.58049594      5.95315012
H      10.85600364     -6.72548262     -7.39554056
H      -4.70159481     14.65262414     11.68092922
   94

C       7.15076888     -6.80771189     -7.68568798
C       5.70353126     -7.62997321     -7.24966495
H       7.41430318     -5.97679485     -6.79694966
C       3.72634480     -1.07769218      5.14719931
H     -18.89187318     -7.18330122     -1.80819278
H       4.69706356     -7.03014270     -6.84365097
C       4.57401933     -1.75644772      6.53056804
H       5.74476667     -8.45467196     -6.32400728
H      -7.81523368     -6.27941734    -16.91793076
H      -7.80752225     -7.04881128    -16.78997178
C       9.00645956      1.63990669      6.93485377
H       9.69927042      0.98013307      7.71457905
C       6.32393904     -2.58177703      4.95095970
H       6.59539007      5.50422172     -4.68141529
H       6.46747750     -1.85094893      4.05487723
H      -0.14360346     -7.37328481     12.68731813
C       5.54692501     -3.64698788      6.71459608
H       4.74197248     -4.52859455      7.02317802
C       5.55487757      7.64857399     -5.05935790
H       5.88791122     -4.45379830      7.59152918
H       6.41326464      8.45077566     -5.36005395
H       4.51810884      8.15455841     -5.42945034
C       5.73428464      6.24887000     -4.18421856
H      10.49697056      4.38748803    -14.14348303
C       9.84430936      4.03648013    -13.28959556
H       9.53564995      2.12875672      4.40047968
H       5.13050618      5.33600152     -4.76879413
H      -3.00410522     13.84798597     10.96391017
C       8.54661443     -7.64482831     -8.25721184
H       3.02205793     -0.12466242      5.42642590
H     -19.27119872     -7.16727340     -1.12682999
C      -1.26412539     -8.37275466      0.62463268
H       3.44520764     -2.17120740      6.81574460
C      -1.16872946     -7.12825877     13.27937204
H      -2.07513992     -8.84362785      1.31363342
H      -3.40398724     -8.07786457     13.53462169
H      -1.16541493     -5.92184696     13.19537656
C      -3.94933004      0.01932451     -7.52179571
H       6.15651096      7.78940943     -2.32458727
C       4.16267852      6.87967249     -1.67519443
H      -4.45349407      0.92591076     -8.04915204
H       4.09976902      7.55690815     -0.63694962
H       3.54676492      5.87137218     -1.31309907
H       3.16012578      7.45774076     -2.11708831
H       8.82080899     -7.47171257     -9.45555196
H       8.44368083     -8.84272212     -8.55847453
H      10.41973090     -8.25725734     -6.51039547
H       5.38508958      1.75135451      8.12371645
H       4.19955719     -0.52279755      8.42199317
H      -2.03602911     -9.35638998     13.92894795
H       6.87042468      1.46072113      5.84977060
H      -8.74527556     -4.13751841     22.51990154
H       4.78399349     13.79046791     17.27480338
H       3.36552639     13.38723815     20.35938081
H       5.78937614     -1.97447536     10.19560134
H      17.43858446      4.39976247      0.15011277
H      -4.76115757     12.91564347     10.66980056
H      18.12874593      4.54812528      0.48187327
H       3.70127940     -1.60720848      2.45804354
H       7.22237645     -4.67793974      4.96250215
H       6.90488400     -5.82970911     -8.41821339
H       7.24917011     -1.88044937      9.31340661
C       3.29104450     -1.05685439      3.48001185
C      -2.26282828     -8.14649510     13.99881164
C       6.10356682      0.75823691      7.93530053
C       5.26813325     -0.77709088      7.84743787
C       7.36958725      1.24099271      6.93174838
C       5.07535040     14.28597810     18.35956690
C       6.09672249     -1.55604831      9.09700953
C      -4.20623968     14.01161785     10.75362880
C       4.08831010     13.76563019     19.51595711
C       6.83526894      5.83615799     -1.65268981
C      11.15528741      1.07990983      5.03422363
C       9.79268041      1.66381934      5.47941663
C       9.96358902     -7.54546558     -7.37747614
C       5.65978491      6.66374863     -2.50605594
C       6.90402771     -3.78381795      5.75613394
H       7.90602572      6.18042378     -1.19843908
H       5.08729208     -8.27881272     -8.10848464
H       2.12285483     -1.37885938      3.21954024
H      -8.61697520     -3.46529445     22.89413938
H      -2.38595710     -7.98164484     15.21543156
H       9.26300633      2.71287703      7.49664823
H       6.49286718      1.20182541      9.02883816
H       6.24186243     13.99061984     18.60276058
H       5.01481963     15.50686921     18.24603230
H      -3.44517103     -0.88726596     -6.99444174
H       6.87869421      4.67934604     -1.30477366
H      -4.35810877     14.63022953      9.69988486
H      -0.45309335     -7.90184516     -0.06432275
H       3.53367626     -0.13219304      2.69144056
H       8.11015086     -3.59522031      5.97084532
H      10.85676799     -6.72678999     -7.39626789
H      -4.70158944     14.65261284     11.68092323
   94

C       7.15074272     -6.80756801     -7.68586494
C       5.70377426     -7.63012486     -7.24951648
H       7.41428902     -5.97638463     -6.79737653
C       3.74429536     -1.10482527      5.17723802
H     -18.89186911     -7.18329961     -1.80819180
H       4.69734414     -7.03053026     -6.84306873
C       4.57561387     -1.79905322      6.56234730
H       5.74538901     -8.45495262     -6.32399270
H      -7.81523239     -6.27941602    -16.91792795
H      -7.80752107     -7.04881000    -16.78996918
C       8.99963297      1.63723579      6.92996566
H       9.68834485      0.97475411      7.71079198
C       6.41806524     -2.58087829      4.84171930
H       6.59554274      5.52027962     -4.67332294
H       6.51307259     -1.81084839      3.97838009
H      -0.14352648     -7.37327352     12.68722687
C       5.50426098     -3.57911588      6.69753648
H       4.72777641     -4.49264431      6.99377009
C       5.55382576      7.65301293     -5.07153102
H       5.83904642     -4.39103572      7.57318471
H       6.40711874      8.45432063     -5.38818061
H       4.52494157      8.16293408     -5.45756066
C       5.73041453      6.26163063     -4.17944601
H      10.49706361      4.38743371    -14.14369487
C       9.84440363      4.03642508    -13.28980675
H       9.54339223      2.13228823      4.39930438
H       5.11471008      5.34247867     -4.74105954
H      -3.00409896     13.84797326     10.96390322
C       8.54661617     -7.64458248     -8.25745903
H       3.05615565     -0.13828448      5.45219922
H     -19.27119482     -7.16727187     -1.12682910
C      -1.26412848     -8.37269340      0.62465751
H       3.44014757     -2.20485335      6.83629225
C      -1.16864402     -7.12825676     13.27930195
H      -2.07513495     -8.84357681      1.31366028
H      -3.40392015     -8.07783812     13.53457517
H      -1.16533394     -5.92184440     13.19530103
C      -3.94929195      0.01932540     -7.52174189
H       6.16444971      7.79021032     -2.32176747
C       4.16306568      6.87343996     -1.67367421
H      -4.45346072      0.92590422     -8.04910659
H       4.09905149      7.54835473     -0.63435822
H       3.54541106      5.86392660     -1.31634931
H       3.16321236      7.45070125     -2.12241247
H       8.82095294     -7.47105732     -9.45570368
H       8.44381700     -8.84235164     -8.55927838
H      10.41808007     -8.25663280     -6.50880071
H       5.37808306      1.74689532      8.10295193
H       4.19819050     -0.52118912      8.42495007
H      -2.03596806     -9.35636712     13.92890259
H       6.86628403      1.46089859      5.84179000
H      -8.74527415     -4.13751894     22.51989928
H       4.78398319     13.79059043     17.27473159
H       3.36566770     13.38712597     20.35944919
H       5.78177041     -1.97755344     10.20575430
H      17.43856449      4.39974922      0.15012541
H      -4.76115050     12.91563039     10.66979327
H      18.12872670      4.54811294      0.48188395
H       3.71294675     -1.63782226      2.49547926
H       7.20025109     -4.68339385      4.98282336
H       6.90455496     -5.82967140     -8.41842517
H       7.25071016     -1.88203164      9.32101331
C       3.30672907     -1.07094522      3.51074078
C      -2.26275791     -8.14646962     13.99875874
C       6.09726035      0.75143009      7.92841138
C       5.26716664     -0.78902203      7.85753510
C       7.36263591      1.23760470      6.92458416
C       5.07531703     14.28600156     18.35954649
C       6.09691757     -1.56029345      9.10918879
C      -4.20623345     14.01160519     10.75362197
C       4.08826858     13.76566303     19.51593397
C       6.83520350      5.82977395     -1.64632622
C      11.15576751      1.07506848      5.03908715
C       9.79274341      1.66287753      5.47814090
C       9.96333144     -7.54563581     -7.37726783
C       5.66369597      6.66564834     -2.49924251
C       6.87789367     -3.76516491      5.74831405
H       7.90779910      6.17041552     -1.19390878
H       5.08740732     -8.27892139     -8.10827798
H       2.13959605     -1.38846668      3.24269594
H      -8.61697408     -3.46529505     22.89413734
H      -2.38589022     -7.98161672     15.21537860
H       9.25663254      2.70968573      7.49276339
H       6.48058908      1.20350508      9.02045048
H       6.24174577     13.99052504     18.60299657
H       5.01488119     15.50687988     18.24582362
H      -3.44512675     -0.88725567     -6.99437760
H       6.88271380      4.67318055     -1.29639100
H      -4.35810240     14.63021674      9.69987792
H      -0.45310638     -7.90177535     -0.06430334
H       3.54072704     -0.12786153      2.73914388
H       8.08547679     -3.60619969      5.98407775
H      10.85753222     -6.72809913     -7.39699530
H      -4.70158349     14.65260059     11.68091598
   94

C       7.15074688     -6.80740763     -7.68604550
C       5.70413576     -7.63037254     -7.24931688
H       7.41429655     -5.97582475     -6.79792798
C       3.77629947     -1.16057444      5.23729790
H     -18.89185999     -7.18329685     -1.80818867
H       4.69775458     -7.03111253     -6.84226859
C       4.57312487     -1.88159714      6.63047271
H       5.74625968     -8.45538283     -6.32398617
H      -7.81523282     -6.27941550    -16.91792814
H      -7.80752163     -7.04880949    -16.78996947
C       8.98556786      1.63168352      6.91962973
H       9.66726085      0.96434188      7.70201254
C       6.59507948     -2.58899151      4.64733751
H       6.59670450      5.55145417     -4.65698216
H       6.59322077     -1.75878581      3.84544650
H      -0.14327820     -7.37314025     12.68687636
C       5.42278357     -3.44100112      6.66706585
H       4.70912764     -4.41416826      6.94907524
C       5.55244672      7.65935635     -5.09695421
H       5.75720544     -4.26388639      7.53403026
H       6.39466040      8.46179709     -5.43889721
H       4.53899733      8.17912670     -5.50948904
C       5.72259843      6.28532822     -4.17015437
H      10.49716487      4.38741165    -14.14392127
C       9.84450126      4.03640327    -13.29003587
H       9.55297950      2.13479877      4.39442551
H       5.08490087      5.35524735     -4.68698805
H      -3.00408555     13.84794160     10.96389429
C       8.54663481     -7.64430700     -8.25773767
H       3.12133709     -0.16762853      5.50196652
H     -19.27118577     -7.16726916     -1.12682601
C      -1.26400047     -8.37246229      0.62488738
H       3.42765031     -2.27710654      6.87685034
C      -1.16836750     -7.12814258     13.27901554
H      -2.07500282     -8.84335917      1.31388414
H      -3.40368280     -8.07766997     13.53436823
H      -1.16508483     -5.92173145     13.19496654
C      -3.94926495      0.01933527     -7.52171282
H       6.17977136      7.79015133     -2.31674625
C       4.16362438      6.86142268     -1.67058377
H      -4.45343360      0.92591261     -8.04908054
H       4.09831454      7.53296573     -0.62986131
H       3.54258560      5.85007464     -1.32126686
H       3.16913511      7.43685034     -2.13287026
H       8.82112300     -7.47022092     -9.45586163
H       8.44409019     -8.84189324     -8.56038962
H      10.41569583     -8.25567094     -6.50645558
H       5.36443455      1.73705471      8.06467294
H       4.19300109     -0.51809677      8.42994918
H      -2.03573915     -9.35619917     13.92870132
H       6.85697524      1.45835932      5.82669823
H      -8.74526115     -4.13751912     22.51988065
H       4.78394046     13.79083220     17.27460112
H       3.36584738     13.38697869     20.35953537
H       5.76582050     -1.98451514     10.22469351
H      17.43837818      4.39965507      0.15020648
H      -4.76113507     12.91559780     10.66978309
H      18.12855176      4.54803080      0.48193601
H       3.74880689     -1.69736994      2.56990494
H       7.14621112     -4.67813746      5.00806565
H       6.90415971     -5.82961739     -8.41860698
H       7.25296974     -1.88523375      9.33486207
C       3.34579088     -1.09677935      3.56866222
C      -2.26250980     -8.14629542     13.99853122
C       6.08412088      0.73720658      7.91601908
C       5.26288654     -0.81218081      7.87813485
C       7.34812008      1.23100761      6.91155166
C       5.07526245     14.28603612     18.35951382
C       6.09625724     -1.56951920      9.13227609
C      -4.20622018     14.01157358     10.75361368
C       4.08829213     13.76564129     19.51594280
C       6.83506487      5.81661455     -1.63392378
C      11.15389049      1.06582156      5.04493173
C       9.79020048      1.66006855      5.47377487
C       9.96297540     -7.54581612     -7.37691710
C       5.67071237      6.66782252     -2.48599494
C       6.82220477     -3.71546390      5.71968305
H       7.91092326      6.15110688     -1.18505022
H       5.08762266     -8.27908520     -8.10803735
H       2.18224790     -1.40400279      3.27851919
H      -8.61696245     -3.46529563     22.89411992
H      -2.38564619     -7.98142837     15.21515033
H       9.24429866      2.70335102      7.48356094
H       6.45695213      1.20472543      9.00496910
H       6.24154859     13.99036592     18.60341163
H       5.01496159     15.50688879     18.24544177
H      -3.44509885     -0.88724369     -6.99434542
H       6.89160244      4.66064669     -1.27975320
H      -4.35808925     14.63018583      9.69987001
H      -0.45299823     -7.90156556     -0.06410960
H       3.56729145     -0.11797042      2.83372098
H       8.03071718     -3.61548765      5.99350247
H      10.85867209     -6.72995209     -7.39809748
H      -4.70157084     14.65256910     11.68090732
