   94

C       7.15074688     -6.80740763     -7.68604550
C       5.70413576     -7.63037254     -7.24931688
H       7.41429655     -5.97582475     -6.79792798
C       3.77629947     -1.16057444      5.23729790
H     -18.89185999     -7.18329685     -1.80818867
H       4.69775458     -7.03111253     -6.84226859
C       4.57312487     -1.88159714      6.63047271
H       5.74625968     -8.45538283     -6.32398617
H      -7.81523282     -6.27941550    -16.91792814
H      -7.80752163     -7.04880949    -16.78996947
C       8.98556786      1.63168352      6.91962973
H       9.66726085      0.96434188      7.70201254
C       6.59507948     -2.58899151      4.64733751
H       6.59670450      5.55145417     -4.65698216
H       6.59322077     -1.75878581      3.84544650
H      -0.14327820     -7.37314025     12.68687636
C       5.42278357     -3.44100112      6.66706585
H       4.70912764     -4.41416826      6.94907524
C       5.55244672      7.65935635     -5.09695421
H       5.75720544     -4.26388639      7.53403026
H       6.39466040      8.46179709     -5.43889721
H       4.53899733      8.17912670     -5.50948904
C       5.72259843      6.28532822     -4.17015437
H      10.49716487      4.38741165    -14.14392127
C       9.84450126      4.03640327    -13.29003587
H       9.55297950      2.13479877      4.39442551
H       5.08490087      5.35524735     -4.68698805
H      -3.00408555     13.84794160     10.96389429
C       8.54663481     -7.64430700     -8.25773767
H       3.12133709     -0.16762853      5.50196652
H     -19.27118577     -7.16726916     -1.12682601
C      -1.26400047     -8.37246229      0.62488738
H       3.42765031     -2.27710654      6.87685034
C      -1.16836750     -7.12814258     13.27901554
H      -2.07500282     -8.84335917      1.31388414
H      -3.40368280     -8.07766997     13.53436823
H      -1.16508483     -5.92173145     13.19496654
C      -3.94926495      0.01933527     -7.52171282
H       6.17977136      7.79015133     -2.31674625
C       4.16362438      6.86142268     -1.67058377
H      -4.45343360      0.92591261     -8.04908054
H       4.09831454      7.53296573     -0.62986131
H       3.54258560      5.85007464     -1.32126686
H       3.16913511      7.43685034     -2.13287026
H       8.82112300     -7.47022092     -9.45586163
H       8.44409019     -8.84189324     -8.56038962
H      10.41569583     -8.25567094     -6.50645558
H       5.36443455      1.73705471      8.06467294
H       4.19300109     -0.51809677      8.42994918
H      -2.03573915     -9.35619917     13.92870132
H       6.85697524      1.45835932      5.82669823
H      -8.74526115     -4.13751912     22.51988065
H       4.78394046     13.79083220     17.27460112
H       3.36584738     13.38697869     20.35953537
H       5.76582050     -1.98451514     10.22469351
H      17.43837818      4.39965507      0.15020648
H      -4.76113507     12.91559780     10.66978309
H      18.12855176      4.54803080      0.48193601
H       3.74880689     -1.69736994      2.56990494
H       7.14621112     -4.67813746      5.00806565
H       6.90415971     -5.82961739     -8.41860698
H       7.25296974     -1.88523375      9.33486207
C       3.34579088     -1.09677935      3.56866222
C      -2.26250980     -8.14629542     13.99853122
C       6.08412088      0.73720658      7.91601908
C       5.26288654     -0.81218081      7.87813485
C       7.34812008      1.23100761      6.91155166
C       5.07526245     14.28603612     18.35951382
C       6.09625724     -1.56951920      9.13227609
C      -4.20622018     14.01157358     10.75361368
C       4.08829213     13.76564129     19.51594280
C       6.83506487      5.81661455     -1.63392378
C      11.15389049      1.06582156      5.04493173
C       9.79020048      1.66006855      5.47377487
C       9.96297540     -7.54581612     -7.37691710
C       5.67071237      6.66782252     -2.48599494
C       6.82220477     -3.71546390      5.71968305
H       7.91092326      6.15110688     -1.18505022
H       5.08762266     -8.27908520     -8.10803735
H       2.18224790     -1.40400279      3.27851919
H      -8.61696245     -3.46529563     22.89411992
H      -2.38564619     -7.98142837     15.21515033
H       9.24429866      2.70335102      7.48356094
H       6.45695213      1.20472543      9.00496910
H       6.24154859     13.99036592     18.60341163
H       5.01496159     15.50688879     18.24544177
H      -3.44509885     -0.88724369     -6.99434542
H       6.89160244      4.66064669     -1.27975320
H      -4.35808925     14.63018583      9.69987001
H      -0.45299823     -7.90156556     -0.06410960
H       3.56729145     -0.11797042      2.83372098
H       8.03071718     -3.61548765      5.99350247
H      10.85867209     -6.72995209     -7.39809748
H      -4.70157084     14.65256910     11.68090732
   94

C       7.15073760     -6.80727299     -7.68646442
C       5.70443656     -7.63055884     -7.24932571
H       7.41430072     -5.97534735     -6.79866987
C       3.81088304     -1.12216487      5.21437845
H     -18.89193917     -7.18328508     -1.80829109
H       4.69810771     -7.03154896     -6.84178810
C       4.60620244     -1.84456496      6.60325751
H       5.74699571     -8.45569411     -6.32412905
H      -7.81523983     -6.27941646    -16.91795028
H      -7.80752821     -7.04881047    -16.78999177
C       9.01348326      1.66306942      6.88367218
H       9.69145087      0.99263981      7.66652757
C       6.66552979     -2.55287325      4.58637444
H       6.59501852      5.57843977     -4.67642453
H       6.67745177     -1.72507527      3.77974999
H       0.16861988     -7.46602884     12.75435782
C       5.45154082     -3.40339354      6.62147301
H       4.72997991     -4.37964977      6.87181843
C       5.54914927      7.67820108     -5.12295631
H       5.77303013     -4.21927618      7.50003605
H       6.38963241      8.47880896     -5.47307703
H       4.53861664      8.19761461     -5.54284229
C       5.71888979      6.30895674     -4.18844425
H      10.50179900      4.38489471    -14.15448153
C       9.84912972      4.03388305    -13.30060195
H       9.59237332      2.17335812      4.36222943
H       5.07487088      5.37800080     -4.69580383
H      -3.00408712     13.84800974     10.96387918
C       8.54667963     -7.64405653     -8.25818087
H       3.15855057     -0.12836542      5.48225764
H     -19.27127351     -7.16725682     -1.12693321
C      -1.26389029     -8.37263556      0.62288084
H       3.46186924     -2.24055999      6.85634803
C      -0.86836074     -7.26921651     13.34582669
H      -2.07506079     -8.84367589      1.31157400
H      -4.13960435     -8.52129626     13.74789578
H      -0.88653211     -6.05804040     13.30484247
C      -3.94940146      0.01964082     -7.52209316
H       6.18040858      7.80966392     -2.33480686
C       4.16181415      6.87687008     -1.68924083
H      -4.45357845      0.92621865     -8.04945160
H       4.09450624      7.54439547     -0.64616630
H       3.54051144      5.86466002     -1.34246539
H       3.16826927      7.45195449     -2.15391881
H       8.82137148     -7.46949850     -9.45618540
H       8.44426418     -8.84150062     -8.56145524
H      10.41397055     -8.25510282     -6.50496136
H       5.38976619      1.77161069      8.01800644
H       4.22645978     -0.48605700      8.40928984
H      -1.37086389     -9.56349834     13.83839982
H       6.88691265      1.49112681      5.78756407
H      -8.82459869     -4.00316809     22.68911745
H       4.78394413     13.79094221     17.27456920
H       3.36594192     13.38695910     20.35958772
H       5.79687662     -1.95025157     10.19899277
H      17.43877903      4.39986748      0.14988910
H      -4.76113735     12.91566758     10.66976470
H      18.12892359      4.54821372      0.48169215
H       3.77928010     -1.68262188      2.55895984
H       7.16935948     -4.64920981      4.97857797
H       6.90378526     -5.82964906     -8.41911938
H       7.28409058     -1.85117999      9.30899651
C       3.37666428     -1.06855769      3.54921870
C      -3.08506155     -8.35372314     14.33970269
C       6.11266797      0.77263279      7.88013231
C       5.29465818     -0.77784747      7.85229627
C       7.37593896      1.26372389      6.87355809
C       5.07525404     14.28608872     18.35951121
C       6.12757632     -1.53537849      9.10654761
C      -4.20622152     14.01164255     10.75359842
C       4.08827915     13.76569949     19.51593823
C       6.83205478      5.83295479     -1.65113680
C      11.18647825      1.09475579      5.01657919
C       9.82323032      1.69345826      5.44071052
C       9.96272407     -7.54604539     -7.37684034
C       5.67000584      6.68768575     -2.50348239
C       6.85223190     -3.67409117      5.67565731
H       7.90874366      6.16271407     -1.20094707
H       5.08776531     -8.27925072     -8.10794969
H       2.21248548     -1.37691605      3.26328964
H      -8.69509306     -3.33069045     23.06248008
H      -3.23287229     -8.36363669     15.55297358
H       9.27099231      2.73446147      7.44857106
H       6.48185907      1.24421832      8.96840650
H       6.24149233     13.99035019     18.60355464
H       5.01500802     15.50693420     18.24533395
H      -3.44522531     -0.88693915     -6.99473764
H       6.88784839      4.67704128     -1.29636133
H      -4.35809148     14.63025481      9.69985498
H      -0.45278746     -7.90166310     -0.06593871
H       3.59839902     -0.08592530      2.82009337
H       8.05584340     -3.58330263      5.97039438
H      10.85951593     -6.73141102     -7.39894814
H      -4.70157222     14.65263628     11.68089319
   94

C       7.15071129     -6.80714496     -7.68685086
C       5.70472293     -7.63074885     -7.24928695
H       7.41429198     -5.97487389     -6.79938317
C       3.84553885     -1.08368146      5.19133751
H     -18.89200093     -7.18326280     -1.80839208
H       4.69844813     -7.03198858     -6.84125670
C       4.63942553     -1.80731189      6.57593164
H       5.74771995     -8.45600607     -6.32422182
H      -7.81524386     -6.27941775    -16.91796245
H      -7.80753164     -7.04881172    -16.79000370
C       9.04157807      1.69466270      6.84742869
H       9.71582414      1.02117146      7.63074798
C       6.73633314     -2.51693090      4.52548977
H       6.59330577      5.60548401     -4.69587455
H       6.76153590     -1.69166146      3.71422510
H       0.50793034     -7.51175472     12.81439056
C       5.48046565     -3.36536252      6.57551629
H       4.75155794     -4.34395201      6.79452667
C       5.54583792      7.69707206     -5.14897489
H       5.78867480     -4.17441401      7.46523246
H       6.38459308      8.49574615     -5.50729496
H       4.53823660      8.21601326     -5.57624591
C       5.71516211      6.33264906     -4.20676404
H      10.50643755      4.38237299    -14.16505558
C       9.85376265      4.03135895    -13.31118140
H       9.63194570      2.21200186      4.32980816
H       5.06488361      5.40092011     -4.70466591
H      -3.00408898     13.84801995     10.96387546
C       8.54670678     -7.64381057     -8.25859699
H       3.19582764     -0.08903672      5.46233445
H     -19.27134566     -7.16723284     -1.12704003
C      -1.26375949     -8.37280513      0.62157087
H       3.49635962     -2.20398552      6.83577211
C      -0.53618742     -7.38695037     13.41150402
H      -2.07497748     -8.84391315      1.31015705
H      -4.87951207     -8.89791985     13.97366638
H      -0.64395427     -6.18244804     13.41965771
C      -3.94952850      0.01993375     -7.52243379
H       6.18103236      7.82920557     -2.35288763
C       4.15999900      6.89233521     -1.70792265
H      -4.45371296      0.92650958     -8.04978833
H       4.09069642      7.55582788     -0.66251040
H       3.53844380      5.87926139     -1.36369269
H       3.16740089      7.46707978     -2.17497968
H       8.82160037     -7.46878136     -9.45648248
H       8.44441925     -8.84111230     -8.56249249
H      10.41222993     -8.25453488     -6.50344515
H       5.41528977      1.80635766      7.97098665
H       4.26027883     -0.45365134      8.38835907
H      -0.94447362     -9.52833648     13.93706452
H       6.91705127      1.52392002      5.74801513
H      -8.90204042     -3.86884349     22.85667994
H       4.78393758     13.79103597     17.27453494
H       3.36602227     13.38690779     20.35963060
H       5.82866584     -1.91539900     10.17295523
H      17.43921863      4.40009828      0.14954134
H      -4.76113581     12.91567303     10.66975949
H      18.12933143      4.54841259      0.48142469
H       3.81046942     -1.66792710      2.54828357
H       7.19204834     -4.61947464      4.94832095
H       6.90339120     -5.82968948     -8.41960121
H       7.31576580     -1.81682823      9.28251198
C       3.40798043     -1.04029758      3.52962052
C      -3.83072437     -8.91549218     14.58952963
C       6.14141029      0.80838358      7.84390864
C       5.32672244     -0.74317030      7.82613934
C       7.40394087      1.29666709      6.83519166
C       5.07523338     14.28612429     18.35950720
C       6.15944003     -1.50087388      9.08034431
C      -4.20622382     14.01164976     10.75359507
C       4.08825324     13.76573471     19.51592916
C       6.82904234      5.84932477     -1.66840504
C      11.21920908      1.12383220      4.98799617
C       9.85643450      1.72700131      5.40738874
C       9.96245759     -7.54628051     -7.37674079
C       5.66928582      6.70758019     -2.52099568
C       6.88230934     -3.63215237      5.63089647
H       7.90654748      6.17434616     -1.21691505
H       5.08789006     -8.27942188     -8.10781046
H       2.24324186     -1.34985384      3.24773375
H      -8.77166044     -3.19618068     23.22939978
H      -3.94891005     -8.79100113     15.79515221
H       9.29784826      2.76578788      7.41328284
H       6.50696528      1.28407048      8.93146451
H       6.24142436     13.99032005     18.60369691
H       5.01504055     15.50696268     18.24522654
H      -3.44534367     -0.88664410     -6.99508318
H       6.88409013      4.69346417     -1.31302984
H      -4.35809645     14.63026380      9.69985309
H      -0.45264263     -7.90180654     -0.06720998
H       3.63009244     -0.05391081      2.80632918
H       8.08061340     -3.55047222      5.94646135
H      10.86034705     -6.73288299     -7.39978026
H      -4.70157525     14.65264095     11.68089117
   94

C       7.15067435     -6.80701399     -7.68719765
C       5.70499970     -7.63093406     -7.24920162
H       7.41427431     -5.97439754     -6.80005742
C       3.87985128     -1.04568817      5.16867013
H     -18.89203432     -7.18323674     -1.80846849
H       4.69878050     -7.03242271     -6.84067636
C       4.67224257     -1.77045893      6.54907178
H       5.74843587     -8.45631168     -6.32426687
H      -7.81524586     -6.27941874    -16.91796722
H      -7.80753300     -7.04881264    -16.79000807
C       9.06943754      1.72600297      6.81123835
H       9.73998686      1.04948187      7.59499900
C       6.80695652     -2.48169441      4.46541665
H       6.59157702      5.63251992     -4.71524573
H       6.84515471     -1.65905207      3.64960687
H       0.84444860     -7.62860974     12.89279384
C       5.50892065     -3.32759620      6.52993014
H       4.77311123     -4.30769988      6.71809354
C       5.54252314      7.71590310     -5.17492659
H       5.80357170     -4.12994132      7.43039170
H       6.37955239      8.51254514     -5.54146090
H       4.53786914      8.23426073     -5.60961352
C       5.71142415      6.35633769     -4.22502996
H      10.51106936      4.37985042    -14.17561346
C       9.85838950      4.02883514    -13.32174367
H       9.67127152      2.25041434      4.29751440
H       5.05494724      5.42393876     -4.71349538
H      -3.00408819     13.84800814     10.96387264
C       8.54672121     -7.64356110     -8.25897991
H       3.23286266     -0.05012634      5.44267274
H     -19.27138793     -7.16720464     -1.12712143
C      -1.26363599     -8.37295841      0.62065469
H       3.53053832     -2.16794722      6.81562640
C      -0.19621745     -7.48312975     13.48612194
H      -2.07485203     -8.84408580      1.30922728
H      -5.57368167     -9.34151705     14.20682436
H      -0.32816950     -6.28393564     13.49879913
C      -3.94964343      0.02021774     -7.52273933
H       6.18165498      7.84868954     -2.37089868
C       4.15818624      6.90773809     -1.72654478
H      -4.45383514      0.92678910     -8.05009458
H       4.08689322      7.56718486     -0.67881035
H       3.53638879      5.89380039     -1.38486146
H       3.16654001      7.48214853     -2.19597131
H       8.82181499     -7.46806058     -9.45674649
H       8.44456093     -8.84072003     -8.56349654
H      10.41047728     -8.25395976     -6.50189883
H       5.44067589      1.84063843      7.92411578
H       4.29390632     -0.42143243      8.36767912
H      -0.75308620     -9.42356549     14.04483191
H       6.94698860      1.55621854      5.70855110
H      -8.97786539     -3.73541750     23.02213614
H       4.78393099     13.79112173     17.27449609
H       3.36610115     13.38684683     20.35966794
H       5.86014070     -1.88099386     10.14714083
H      17.43965235      4.40032212      0.14919796
H      -4.76113040     12.91565393     10.66975615
H      18.12973303      4.54860459      0.48116226
H       3.84221709     -1.65346698      2.53824521
H       7.21374374     -4.58940405      4.91797796
H       6.90298536     -5.82972730     -8.42004323
H       7.34714102     -1.78286938      9.25626752
C       3.43955005     -1.01227870      3.51027736
C      -4.53796780     -9.40685616     14.83051184
C       6.16997214      0.84376287      7.80783308
C       5.35854450     -0.70877272      7.80025635
C       7.43173691      1.32922738      6.79692993
C       5.07521202     14.28615177     18.35949884
C       6.19102110     -1.46667551      9.05442858
C      -4.20622382     14.01163329     10.75359306
C       4.08822636     13.76576128     19.51591541
C       6.82602230      5.86562616     -1.68563359
C      11.25171230      1.15280589      4.95948312
C       9.88938856      1.76032161      5.37413671
C       9.96217940     -7.54651362     -7.37660996
C       5.66856092      6.72742118     -2.53844732
C       6.91184726     -3.59018391      5.58615294
H       7.90432477      6.18590280     -1.23284597
H       5.08800341     -8.27958835     -8.10762322
H       2.27433561     -1.32304575      3.23215228
H      -8.84712383     -3.06267717     23.39458573
H      -4.58724877     -9.25309572     16.03141695
H       9.32443475      2.79687840      7.37802805
H       6.53192874      1.32356244      8.89462542
H       6.24135584     13.99028254     18.60383494
H       5.01507194     15.50698307     18.24511498
H      -3.44545045     -0.88635499     -6.99538776
H       6.88030972      4.70982172     -1.32964451
H      -4.35809963     14.63024960      9.69985285
H      -0.45253817     -7.90196120     -0.06814718
H       3.66221614     -0.02214103      2.79293131
H       8.10445014     -3.51747229      5.92241856
H      10.86116616     -6.73435708     -7.40058050
H      -4.70157622     14.65262179     11.68089049
   94

C       7.15062878     -6.80687782     -7.68751816
C       5.70526833     -7.63111194     -7.24908447
H       7.41424951     -5.97391591     -6.80070600
C       3.91385639     -1.00806930      5.14632707
H     -18.89203975     -7.18321132     -1.80852295
H       4.69910635     -7.03284902     -6.84006151
C       4.70468607     -1.73388722      6.52263612
H       5.74914514     -8.45660884     -6.32427939
H      -7.81524626     -6.27941992    -16.91796397
H      -7.80753276     -7.04881370    -16.79000416
C       9.09708247      1.75717454      6.77507491
H       9.76395272      1.07765258      7.55925932
C       6.87742418     -2.44700708      4.40607784
H       6.58983115      5.65956328     -4.73455207
H       6.92834297     -1.62704832      3.58584618
H       1.16644289     -7.76058644     12.97568956
C       5.53703199     -3.28992714      6.48468128
H       4.79471251     -4.27074234      6.64250245
C       5.53920230      7.73470752     -5.20082702
H       5.81790021     -4.08566482      7.39549686
H       6.37450743      8.52921931     -5.57558856
H       4.53751104      8.25236992     -5.64295772
C       5.70767355      6.38003713     -4.24325579
H      10.51569650      4.37732713    -14.18616150
C       9.86301216      4.02631182    -13.33229520
H       9.71039644      2.28866181      4.26531751
H       5.04505852      5.44706991     -4.72230620
H      -3.00408317     13.84797255     10.96387183
C       8.54672502     -7.64330607     -8.25934246
H       3.26966856     -0.01153922      5.42323932
H     -19.27140174     -7.16717672     -1.12718062
C      -1.26355633     -8.37310697      0.62005836
H       3.56444836     -2.13235897      6.79587474
C       0.13043046     -7.59636947     13.56751897
H      -2.07472636     -8.84422015      1.30869442
H      -6.26009906     -9.78414645     14.44413787
H      -0.02041314     -6.40123788     13.58492621
C      -3.94974872      0.02049297     -7.52301228
H       6.18227271      7.86813247     -2.38885452
C       4.15637345      6.92309453     -1.74512078
H      -4.45394718      0.92705774     -8.05037251
H       4.08309419      7.57848087     -0.69507888
H       3.53434410      5.90829243     -1.40598633
H       3.16568397      7.49717682     -2.21690653
H       8.82201727     -7.46733441     -9.45699040
H       8.44469149     -8.84032185     -8.56448005
H      10.40871678     -8.25337538     -6.50033767
H       5.46590455      1.87452566      7.87738557
H       4.32729264     -0.38935833      8.34726772
H      -0.55581674     -9.34805184     14.12627934
H       6.97674539      1.58814248      5.66917038
H      -9.05276068     -3.60273380     23.18628650
H       4.78392119     13.79118929     17.27445179
H       3.36617605     13.38676534     20.35969830
H       5.89116279     -1.84700528     10.12157493
H      17.44008790      4.40054658      0.14885274
H      -4.76112012     12.91561061     10.66975530
H      18.13013571      4.54879666      0.48089982
H       3.87448838     -1.63911581      2.52876208
H       7.23458485     -4.55879212      4.88741441
H       6.90256963     -5.82976031     -8.42045883
H       7.37813060     -1.74919979      9.23030908
C       3.47137415     -0.98439875      3.49113051
C      -5.23209688     -9.83578118     15.07003973
C       6.19834230      0.87884992      7.77189595
C       5.39009052     -0.67456479      7.77466725
C       7.45933170      1.36151765      6.75877777
C       5.07518690     14.28616154     18.35948497
C       6.22222589     -1.43271539      9.02884977
C      -4.20621964     14.01159300     10.75359329
C       4.08819574     13.76576913     19.51589574
C       6.82299376      5.88187734     -1.70283722
C      11.28402580      1.18174423      4.93101421
C       9.92213164      1.79349850      5.34093189
C       9.96189208     -7.54674176     -7.37646157
C       5.66782830      6.74722487     -2.55585165
C       6.94095677     -3.54801696      5.54134656
H       7.90207491      6.19740346     -1.24875609
H       5.08810685     -8.27974762     -8.10740271
H       2.30576104     -1.29640865      3.21652103
H      -8.92202372     -2.92998647     23.55872282
H      -5.21068153     -9.69375290     16.26654731
H       9.35078808      2.82781527      7.34277842
H       6.55672536      1.36277130      8.85788439
H       6.24128359     13.99022768     18.60396768
H       5.01509928     15.50698578     18.24499850
H      -3.44554838     -0.88607204     -6.99565438
H       6.87650872      4.72613185     -1.34622218
H      -4.35809892     14.63021191      9.69985508
H      -0.45250314     -7.90212892     -0.06880877
H       3.69472405      0.00949437      2.77983734
H       8.12748887     -3.48409083      5.89811380
H      10.86197598     -6.73583048     -7.40136311
H      -4.70157314     14.65257902     11.68089188
   94

C       7.15057602     -6.80673780     -7.68782052
C       5.70553025     -7.63128399     -7.24894396
H       7.41421927     -5.97343005     -6.80133746
C       3.94769818     -0.97064911      5.12411246
H     -18.89201321     -7.18318845     -1.80854911
H       4.69942691     -7.03326907     -6.83942095
C       4.73698204     -1.69741731      6.49638675
H       5.74984905     -8.45689922     -6.32426796
H      -7.81524554     -6.27942167    -16.91795249
H      -7.80753137     -7.04881528    -16.78999170
C       9.12462845      1.78828117      6.73886853
H       9.78783398      1.10578602      7.52346109
C       6.94785435     -2.41279169      4.34728680
H       6.58807117      5.68662477     -4.75380730
H       7.01120601     -1.59550952      3.52280875
H       1.49311352     -7.87542828     13.05118389
C       5.56506023     -3.25215744      6.43956710
H       4.81660805     -4.23292905      6.56748821
C       5.53587651      7.75349371     -5.22669009
H       5.83198442     -4.04139131      7.36032982
H       6.36945900      8.54577817     -5.60968774
H       4.53716240      8.27034955     -5.67628754
C       5.70391225      6.40375668     -4.26145472
H      10.52032013      4.37480367    -14.19670335
C       9.86763159      4.02378956    -13.34283980
H       9.74940896      2.32679855      4.23313636
H       5.03521830      5.47032185     -4.73111189
H      -3.00407678     13.84791506     10.96387395
C       8.54672021     -7.64304690     -8.25969134
H       3.30634965      0.02686701      5.40386846
H     -19.27138260     -7.16715094     -1.12721098
C      -1.26352172     -8.37326814      0.61970855
H       3.59832031     -2.09706020      6.77626690
C       0.45943746     -7.71194437     13.64386210
H      -2.07461245     -8.84434736      1.30846326
H      -6.96580108    -10.21920604     14.68096861
H       0.28081947     -6.52203784     13.67472160
C      -3.94984717      0.02076026     -7.52325734
H       6.18288737      7.88754721     -2.40676914
C       4.15456249      6.93841887     -1.76366538
H      -4.45405183      0.92731678     -8.05062604
H       4.07930132      7.58972973     -0.71133044
H       3.53231122      5.92275167     -1.42708349
H       3.16483380      7.51217871     -2.23779901
H       8.82220928     -7.46660447     -9.45722087
H       8.44481287     -8.83991926     -8.56544937
H      10.40695111     -8.25278329     -6.49876937
H       5.49107446      1.90819570      7.83068460
H       4.36061879     -0.35727273      8.32691658
H      -0.26869490     -9.30908082     14.18454355
H       7.00642742      1.61983535      5.62975735
H      -9.12694124     -3.47099930     23.34914408
H       4.78390753     13.79124345     17.27440429
H       3.36624600     13.38666661     20.35972349
H       5.92207591     -1.81311226     10.09607932
H      17.44053530      4.40077773      0.14849792
H      -4.76110768     12.91554435     10.66975794
H      18.13054898      4.54899439      0.48063080
H       3.90728396     -1.62477019      2.51965785
H       7.25479673     -4.52755472      4.85641841
H       6.90214559     -5.82978990     -8.42085630
H       7.40901822     -1.71561473      9.20439868
C       3.50348776     -0.95656562      3.47201578
C      -5.95808688    -10.25569207     15.32771162
C       6.22663602      0.91383693      7.73598068
C       5.42154634     -0.64038252      7.74917075
C       7.48683597      1.39369382      6.72061876
C       5.07515728     14.28615804     18.35946802
C       6.25333342     -1.39879656      9.00336545
C      -4.20621423     14.01153028     10.75359667
C       4.08816051     13.76576213     19.51587226
C       6.81996173      5.89809384     -1.72003240
C      11.31623330      1.21068777      4.90252070
C       9.95476322      1.82660707      5.30770018
C       9.96159792     -7.54696606     -7.37630279
C       5.66708980      6.76700408     -2.57322298
C       6.96987769     -3.50556211      5.49627125
H       7.89980334      6.20886407     -1.26466331
H       5.08820172     -8.27990149     -8.10715713
H       2.33754382     -1.26986301      3.20072496
H      -8.99654317     -2.79831195     23.72180666
H      -5.87216906    -10.12234251     16.51523313
H       9.37702280      2.85869977      7.30746780
H       6.58146048      1.40188583      8.82112990
H       6.24120696     13.99016020     18.60409751
H       5.01512174     15.50697525     18.24487948
H      -3.44564029     -0.88579505     -6.99588879
H       6.87269460      4.74240913     -1.36278358
H      -4.35809727     14.63015227      9.69986077
H      -0.45253218     -7.90231794     -0.06925431
H       3.72761392      0.04109304      2.76688375
H       8.14998437     -3.45022980      5.87330637
H      10.86277891     -6.73730449     -7.40213549
H      -4.70156891     14.65251384     11.68089638
   94

C       7.15051808     -6.80659327     -7.68810434
C       5.70578746     -7.63145011     -7.24878088
H       7.41418514     -5.97293955     -6.80195108
C       3.98139154     -0.93346215      5.10202855
H     -18.89195364     -7.18317191     -1.80853596
H       4.69974411     -7.03368265     -6.83875593
C       4.76915255     -1.66110186      6.47032240
H       5.75054940     -8.45718278     -6.32423344
H      -7.81524412     -6.27942408    -16.91793393
H      -7.80752929     -7.04881747    -16.78997185
C       9.15206860      1.81929221      6.70263715
H       9.81162584      1.13385181      7.48762098
C       7.01819288     -2.37912613      4.28911816
H       6.58630070      5.71370409     -4.77300951
H       7.09375533     -1.56447777      3.46059432
H       1.82509461     -7.97893737     13.12117117
C       5.59301264     -3.21435774      6.39466896
H       4.83876275     -4.19434481      6.49313285
C       5.53254770      7.77225975     -5.25251512
H       5.84588043     -3.99717817      7.32498268
H       6.36440867      8.56222082     -5.64375450
H       4.53682475      8.28819850     -5.70959870
C       5.70014275      6.42749505     -4.27962506
H      10.52494045      4.37227996    -14.20723893
C       9.87224806      4.02126827    -13.35337733
H       9.78828877      2.36479698      4.20098458
H       5.02542812      5.49369245     -4.73991173
H      -3.00406974     13.84784150     10.96387819
C       8.54670858     -7.64278337     -8.26002583
H       3.34292785      0.06506007      5.38457562
H     -19.27132763     -7.16713156     -1.12720048
C      -1.26350036     -8.37344058      0.61950118
H       3.63216940     -2.06209363      6.75678551
C       0.79260615     -7.82339667     13.71523860
H      -2.07450139     -8.84448434      1.30838934
H      -7.68208834    -10.65210104     14.91446970
H       0.58264203     -6.64022368     13.76357187
C      -3.94993894      0.02102213     -7.52348068
H       6.18350232      7.90693020     -2.42464015
C       4.15275589      6.95370953     -1.78217745
H      -4.45414971      0.92756899     -8.05086045
H       4.07551749      7.60092946     -0.72756368
H       3.53029233      5.93717661     -1.44815234
H       3.16399223      7.52715329     -2.25864738
H       8.82239312     -7.46587040     -9.45743709
H       8.44492696     -8.83951199     -8.56640394
H      10.40518086     -8.25218321     -6.49719176
H       5.51618810      1.94159818      7.78404837
H       4.39388536     -0.32522390      8.30662758
H       0.06994028     -9.28479245     14.23277474
H       7.03602515      1.65127409      5.59034512
H      -9.20076172     -3.34044116     23.51080688
H       4.78389121     13.79128723     17.27435406
H       3.36631236     13.38655506     20.35974469
H       5.95284336     -1.77940241     10.07067486
H      17.44099196      4.40101347      0.14813555
H      -4.76109415     12.91546129     10.66976322
H      18.13097037      4.54919590      0.48035693
H       3.94056907     -1.61040925      2.51090783
H       7.27438990     -4.49576051      4.82503828
H       6.90171544     -5.82981532     -8.42123513
H       7.43978214     -1.68216321      9.17859156
C       3.53588400     -0.92878802      3.45293313
C      -6.70799484    -10.67663682     15.59892858
C       6.25485537      0.94867303      7.70011668
C       5.45291958     -0.60628027      7.72378410
C       7.51424497      1.42571800      6.68248076
C       5.07512445     14.28614426     18.35944846
C       6.28432404     -1.36496916      8.97801571
C      -4.20620828     14.01145110     10.75360244
C       4.08812197     13.76574386     19.51584571
C       6.81692761      5.91427072     -1.73721693
C      11.34832029      1.23961256      4.87401184
C       9.98726748      1.85961901      5.27445458
C       9.96129818     -7.54718653     -7.37613205
C       5.66634815      6.78675559     -2.59055945
C       6.99861426     -3.46290085      5.45100118
H       7.89751075      6.22027965     -1.28056359
H       5.08829035     -8.28004975     -8.10688758
H       2.36966956     -1.24341260      3.18478091
H      -9.07096061     -2.66787028     23.88388898
H      -6.55894137    -10.55023498     16.77356589
H       9.40313041      2.88950225      7.27211270
H       6.60613754      1.44085012      8.78439297
H       6.24112724     13.99008299     18.60422483
H       5.01514077     15.50695448     18.24475817
H      -3.44572575     -0.88552179     -6.99609827
H       6.86886770      4.75864908     -1.37932477
H      -4.35809528     14.63007655      9.69986907
H      -0.45258037     -7.90251536     -0.06956371
H       3.76085442      0.07266282      2.75408744
H       8.17196395     -3.41595322      5.84802789
H      10.86357603     -6.73877888     -7.40289538
H      -4.70156419     14.65243213     11.68090331
   94

C       7.15045680     -6.80644322     -7.68836869
C       5.70604185     -7.63160971     -7.24859544
H       7.41414856     -5.97244361     -6.80254555
C       4.01494728     -0.89655064      5.08009451
H     -18.89186348     -7.18316623     -1.80847462
H       4.70005981     -7.03408905     -6.83806694
C       4.80121000     -1.62500114      6.44446090
H       5.75124787     -8.45745894     -6.32417604
H      -7.81524236     -6.27942717    -16.91790958
H      -7.80752688     -7.04882030    -16.78994596
C       9.17939041      1.85017631      6.66640294
H       9.83531699      1.16181842      7.45176043
C       7.08838023     -2.34607184      4.23165404
H       6.58452290      5.74080039     -4.79215572
H       7.17599910     -1.53398929      3.39930247
H       2.15846672     -8.07812977     13.18847864
C       5.62089414     -3.17660427      6.35008394
H       4.86114480     -4.15508203      6.41952690
C       5.52921751      7.79100300     -5.27830059
H       5.85963258     -3.95309021      7.28956602
H       6.35935758      8.57854593     -5.67778391
H       4.53649930      8.30591528     -5.74288590
C       5.69636711      6.45125036     -4.29776408
H      10.52955755      4.36975588    -14.21776777
C       9.87686170      4.01874788    -13.36390727
H       9.82701527      2.40263150      4.16888016
H       5.01568916      5.51717896     -4.74870380
H      -3.00406166     13.84775683     10.96388361
C       8.54669175     -7.64251485     -8.26034491
H       3.37942053      0.10299950      5.36539325
H     -19.27123762     -7.16712378     -1.12713928
C      -1.26346039     -8.37361581      0.61935756
H       3.66600286     -2.02751254      6.73743804
C       1.12699928     -7.93153578     13.78402006
H      -2.07437748     -8.84463470      1.30836558
H      -8.39877627    -11.08477268     15.14355454
H       0.88570322     -6.75626590     13.85076650
C      -3.95002355      0.02128099     -7.52368749
H       6.18412031      7.92627719     -2.44246407
C       4.15095578      6.96896391     -1.80065450
H      -4.45424080      0.92781691     -8.05108025
H       4.07174513      7.61207698     -0.74377586
H       3.52828931      5.95156468     -1.46919085
H       3.16316164      7.54209866     -2.27944898
H       8.82257061     -7.46513147     -9.45763797
H       8.44503544     -8.83909940     -8.56734295
H      10.40340653     -8.25157447     -6.49560250
H       5.54124028      1.97467125      7.73752298
H       4.42708183     -0.29327889      8.28642832
H       0.42726132     -9.26391806     14.27716091
H       7.06552350      1.68243624      5.55097685
H      -9.27469330     -3.21093254     23.67175135
H       4.78387335     13.79132160     17.27430107
H       3.36637652     13.38643311     20.35976247
H       5.98339976     -1.74600402     10.04540318
H      17.44145479      4.40125152      0.14776815
H      -4.76107947     12.91536695     10.66977004
H      18.13139691      4.54939909      0.48008040
H       3.97429795     -1.59601742      2.50250001
H       7.29337762     -4.46346670      4.79332766
H       6.90128124     -5.82983542     -8.42159427
H       7.47037783     -1.64891273      9.15296479
C       3.56854923     -0.90107832      3.43389844
C      -7.47147021    -11.09693864     15.87848699
C       6.28299495      0.98329541      7.66434378
C       5.48420775     -0.57232436      7.69854758
C       7.54154667      1.45755069      6.64440227
C       5.07508969     14.28612128     18.35942616
C       6.31515413     -1.33130366      8.95286934
C      -4.20620137     14.01136074     10.75360964
C       4.08808142     13.76571592     19.51581622
C       6.81389223      5.93040229     -1.75438731
C      11.38027028      1.26849600      4.84550060
C      10.01962633      1.89250770      5.24121293
C       9.96099398     -7.54740280     -7.37594755
C       5.66560564      6.80647543     -2.60785807
C       7.02716729     -3.42010579      5.40561974
H       7.89519725      6.23164457     -1.29645171
H       5.08837488     -8.28019163     -8.10659458
H       2.40211628     -1.21706545      3.16872552
H      -9.14557257     -2.53850218     24.04532572
H      -7.25149802    -10.97889715     17.03513008
H       9.42909875      2.92019218      7.23673352
H       6.63075169      1.47959606      8.74771537
H       6.24104562     13.98999687     18.60434947
H       5.01515775     15.50692450     18.24463430
H      -3.44580372     -0.88525001     -6.99628886
H       6.86502795      4.77484649     -1.39584033
H      -4.35809241     14.62998989      9.69987895
H      -0.45260648     -7.90270526     -0.06979864
H       3.79440405      0.10420571      2.74147716
H       8.19345458     -3.38131726      5.82231984
H      10.86436821     -6.74025304     -7.40364033
H      -4.70155854     14.65233917     11.68091172
   94

C       7.15039377     -6.80628679     -7.68861328
C       5.70629495     -7.63176223     -7.24838811
H       7.41411080     -5.97194157     -6.80312032
C       4.04839167     -0.85992580      5.05830494
H     -18.89174801     -7.18317563     -1.80835968
H       4.70037553     -7.03448764     -6.83735469
C       4.83319268     -1.58913904      6.41878882
H       5.75194592     -8.45772715     -6.32409628
H      -7.81524049     -6.27943091    -16.91788054
H      -7.80752441     -7.04882374    -16.78991517
C       9.20659813      1.88092338      6.63017585
H       9.85891195      1.18967514      7.41588911
C       7.15837940     -2.31365257      4.17493697
H       6.58274052      5.76791392     -4.81124466
H       7.25795841     -1.50404865      3.33899052
H       2.49126701     -8.17563827     13.25431230
C       5.64874609     -3.13892960      6.30585883
H       4.88377163     -4.11519551      6.34669440
C       5.52588722      7.80972175     -5.30404663
H       5.87331958     -3.90915418      7.25413581
H       6.35430659      8.59475338     -5.71177240
H       4.53618678      8.32349957     -5.77614507
C       5.69258706      6.47502182     -4.31587059
H      10.53417153      4.36723143    -14.22828967
C       9.88147265      4.01622838    -13.37442941
H       9.86558452      2.44029046      4.13682806
H       5.00600231      5.54077967     -4.75748762
H      -3.00405193     13.84766459     10.96388945
C       8.54667109     -7.64224081     -8.26064821
H       3.41585272      0.14066972      5.34633247
H     -19.27111671     -7.16713264     -1.12702134
C      -1.26337814     -8.37378504      0.61922855
H       3.69985620     -1.99333915      6.71820476
C       1.46095629     -8.03723046     13.85137621
H      -2.07422540     -8.84479536      1.30832848
H      -9.11046032    -11.51805960     15.36757452
H       1.18948273     -6.87075420     13.93637830
C      -3.95010050      0.02153875     -7.52388175
H       6.18474346      7.94558590     -2.46023926
C       4.14916393      6.98418111     -1.81909572
H      -4.45432493      0.92806253     -8.05128892
H       4.06798627      7.62317089     -0.75996592
H       3.52630370      5.96591497     -1.49019873
H       3.16234388      7.55701447     -2.30020268
H       8.82274328     -7.46438710     -9.45782311
H       8.44513972     -8.83868093     -8.56826611
H      10.40162878     -8.25095651     -6.49400034
H       5.56623727      2.00738689      7.69113404
H       4.46022340     -0.26147679      8.26632152
H       0.79150982     -9.24325034     14.31928253
H       7.09492251      1.71332684      5.51167476
H      -9.34908846     -3.08207541     23.83257006
H       4.78385478     13.79134701     17.27424525
H       3.36643957     13.38630222     20.35977722
H       6.01374150     -1.71298534     10.02027755
H      17.44192241      4.40149066      0.14739697
H      -4.76106322     12.91526528     10.66977753
H      18.13182724      4.54960287      0.47980235
H       4.00842087     -1.58157170      2.49440551
H       7.31181149     -4.43070254      4.76129927
H       6.90084467     -5.82984929     -8.42193335
H       7.50080802     -1.61589580      9.12754880
C       3.60146876     -0.87343610      3.41491009
C      -8.24742622    -11.51495006     16.16585783
C       6.31106402      1.01767785      7.62868087
C       5.51543291     -0.53854860      7.67347210
C       7.56874422      1.48918359      6.60640142
C       5.07505391     14.28608964     18.35940099
C       6.34582609     -1.29783553      8.92795291
C      -4.20619281     14.01126302     10.75361751
C       4.08803982     13.76567922     19.51578387
C       6.81085675      5.94648545     -1.77154215
C      11.41208094      1.29732577      4.81698941
C      10.05183870      1.92526341      5.20798134
C       9.96068633     -7.54761449     -7.37574836
C       5.66486412      6.82616147     -2.62511764
C       7.05557516     -3.37721916      5.36016719
H       7.89286348      6.24295597     -1.31232520
H       5.08845708     -8.28032647     -8.10627884
H       2.43486031     -1.19081934      3.15258602
H      -9.22055846     -2.40977449     24.20658533
H      -7.94034272    -11.40847133     17.29565213
H       9.45493309      2.95075964      7.20133926
H       6.65531108      1.51809227      8.71111857
H       6.24096301     13.98990223     18.60447128
H       5.01517368     15.50688587     18.24450764
H      -3.44587324     -0.88497791     -6.99646516
H       6.86117615      4.79099854     -1.41232789
H      -4.35808792     14.62989602      9.69988958
H      -0.45258182     -7.90287529     -0.06999927
H       3.82821803      0.13573264      2.72905917
H       8.21452125     -3.34635144      5.79618642
H      10.86515632     -6.74172641     -7.40436898
H      -4.70155128     14.65223879     11.68092084
   94

C       7.15036646     -6.80599302     -7.68810894
C       5.70666805     -7.63199350     -7.24760001
H       7.41400203     -5.97125988     -6.80295010
C       4.08449632     -0.81968071      5.04304242
H     -18.89185999     -7.18329685     -1.80818867
H       4.70080975     -7.03512677     -6.83584268
C       4.86638120     -1.54994451      6.39653528
H       5.75288483     -8.45823053     -6.32358972
H      -7.81523282     -6.27941550    -16.91792814
H      -7.80752163     -7.04880949    -16.78996947
C       9.23047881      1.90958589      6.58952917
H       9.87585637      1.21248492      7.37555114
C       7.26449257     -2.28450551      4.09402023
H       6.58200219      5.80272962     -4.82812071
H       7.38765877     -1.47756787      3.25346181
H       2.83409951     -8.29224691     13.31861254
C       5.67367711     -3.09617402      6.25033000
H       4.89945196     -4.06631386      6.23733755
C       5.52285317      7.82758628     -5.33498170
H       5.87147704     -3.85277584      7.21588796
H       6.34758905      8.60993567     -5.75493447
H       4.53912963      8.34172404     -5.81890951
C       5.68781764      6.50323443     -4.33105549
H      10.53873598      4.36474203    -14.23841508
C       9.88607237      4.01373365    -13.38452967
H       9.90939468      2.48111953      4.10346729
H       4.98953850      5.56916158     -4.75445879
H      -3.00408555     13.84794160     10.96389429
C       8.54666331     -7.64175557     -8.26034070
H       3.45934381      0.18379729      5.33687605
H     -19.27118577     -7.16726916     -1.12682601
C      -1.26532867     -8.37663124      0.61565823
H       3.73678287     -1.95795435      6.70758573
C       1.80558891     -8.16541615     13.91652165
H      -2.07633097     -8.84752802      1.30465513
H      -9.82222868    -11.96719384     15.58681129
H       1.47737999     -7.01882100     14.03589248
C      -3.95008077      0.02188454     -7.52418445
H       6.18888130      7.96416669     -2.47459248
C       4.14798222      6.99616394     -1.83525657
H      -4.45424840      0.92846253     -8.05155204
H       4.06300311      7.62807585     -0.77236762
H       3.52462314      5.97661329     -1.51042277
H       3.16320063      7.56806144     -2.32154107
H       8.82299195     -7.46313337     -9.45733726
H       8.44543023     -8.83795829     -8.56900561
H      10.39888243     -8.24979459     -6.49075896
H       5.58585210      2.03961968      7.63126140
H       4.49480647     -0.23025516      8.25474159
H       1.20918287     -9.12326420     14.32978414
H       7.12269502      1.74336009      5.46567507
H      -9.42675544     -2.95204824     23.99740376
H       4.78387451     13.79154262     17.27421690
H       3.36660044     13.38639644     20.35991739
H       6.04088872     -1.67938350     10.00116477
H      17.43837820      4.39965508      0.15020646
H      -4.76113507     12.91559780     10.66978309
H      18.12855176      4.54803080      0.48193601
H       4.04907202     -1.57897674      2.50518976
H       7.31591068     -4.39710217      4.72858570
H       6.90033920     -5.82966504     -8.42140149
H       7.52891367     -1.58267112      9.10914826
C       3.63891692     -0.84652343      3.40430288
C      -9.09079301    -11.93715460     16.49020722
C       6.33643694      1.05339118      7.58916356
C       5.54671495     -0.50378126      7.65326450
C       7.59255614      1.51977631      6.56263738
C       5.07507659     14.28618121     18.35941950
C       6.37460635     -1.26354621      8.90944010
C      -4.20622018     14.01157358     10.75361368
C       4.08810531     13.76579439     19.51585113
C       6.80682617      5.95873163     -1.78410575
C      11.44411760      1.32319971      4.78995737
C      10.08473820      1.95821336      5.17275936
C       9.96020269     -7.54771827     -7.37464303
C       5.66587231      6.84564625     -2.63847601
C       7.08087615     -3.32406176      5.30050392
H       7.89001577      6.24582471     -1.32201284
H       5.08869552     -8.28040628     -8.10550861
H       2.47220014     -1.16610091      3.14575752
H      -9.29845674     -2.27982476     24.37164303
H      -8.63067936    -11.85455575     17.55486564
H       9.47640485      2.97901749      7.16227828
H       6.67412316      1.56097781      8.67001913
H       6.24090124     13.98986681     18.60473867
H       5.01529453     15.50696154     18.24430293
H      -3.44591365     -0.88469376     -6.99681692
H       6.85526819      4.80361420     -1.42278333
H      -4.35808925     14.63018583      9.69987001
H      -0.45432640     -7.90573455     -0.07333875
H       3.86752165      0.17186049      2.73388314
H       8.22484814     -3.30716676      5.77286645
H      10.86623068     -6.74362805     -7.40456141
H      -4.70157084     14.65256910     11.68090732
