   94

C     -10.17178869     -1.73969803     -3.86750145
C      -8.68256611     -2.11921289     -3.09394257
H      -9.96478969     -1.07539683     -4.90387756
C     -11.49686499     -1.08203581     -2.98902496
H     -10.55231277     -2.69781363     -4.57073593
H      -7.98408193     -1.19574556     -2.64950128
C       1.94210590     -1.90985832     -1.64694339
H      -8.67059621     -2.87168334     -2.10886984
H      -5.81892965     -4.71391644    -13.98443373
H      -5.81121846     -5.48331043    -13.85647506
C       3.27207756     -1.72975832     -2.46483471
H       2.54920633     -1.12165701     -3.26770590
C       4.84780593     -1.13058773     -2.08216493
H       3.12030673     -2.91521880     -2.76421998
H       4.61614521      0.08441998     -2.21649945
H       5.33545486     -1.35944276     -3.20764858
C       6.12106259     -1.31886946     -0.85982360
H       6.90723431     -0.93480451     -1.72089623
C       5.64339690      0.26526148      1.14155985
H       5.94352665     -2.52251821     -0.59068836
H       5.54850288      1.27320779      0.43894384
H       6.01121651      1.38066636      1.52650065
C       4.08176707     -0.08045029      1.94305581
H       4.20634183      0.25789387      3.13018890
C       3.12568889      3.71836650    -10.75803011
H       4.07596833     -1.29556597      2.20053813
H       2.47968207      4.52649394    -11.21740874
H      -0.82172298     10.58296582     12.89096840
C      10.73503643     -4.86111300     -9.76333212
H     -11.37697967      0.03312670     -2.45990923
H     -11.97179597     -1.71128702     -2.03211043
C     -21.72803364     -1.47844820     -2.26339574
H     -12.58840432     -0.85686076     -3.53210494
C      -1.93438609     -4.60710498     11.27821123
H     -22.40625037     -2.36346673     -2.26686977
H      -0.59632214     -4.60109802      9.44915497
H      -2.96950298     -4.28194734     11.72701490
C       2.36164790      0.25130566      1.71185298
H       2.24187906      1.10488090      0.81351779
C       1.01210522      0.60962037      2.75264355
H       1.85327658     -0.69849014      1.10131690
H       0.93858571      1.71607725      3.30856053
H       0.74467262     -0.11038003      3.72918219
H      -0.18272728      0.63579600      2.39578686
H      10.30562424     -3.78036640     -9.47089743
H      11.25763177     -5.03029277    -10.82925819
H      10.64185328     -5.77267981     -8.98984073
H       9.70183577      2.61827574     13.84154253
H       7.63439753      2.64678426     11.41138297
H      -0.55687458     -6.32326276     10.70565039
H      11.79411557      0.44311644     13.16043467
H      -8.70101793     -4.16259184     22.46177845
H       7.31211994      6.23653917      8.69929364
H      -2.44513494     11.04329054     15.61108429
H       9.54956174      5.26659948     10.91606362
H       9.06464744     -1.25105573     -0.95233456
H      -2.55288314      9.84223451     12.85935293
H      11.05771002     -1.07778316      1.59224677
H      22.75026404      0.04130417    -13.13509705
H       7.54431169     -1.61276716      3.12858124
H      25.95114171     -1.25922382     -0.91414511
H       8.37582693      3.93062023      9.45284756
C      17.28562046     -4.02390414     16.90142619
C      -0.58018029     -5.10375218     10.56864542
C       9.64834525      2.24279909     12.67460643
C       8.61440699      3.33334813     11.72645519
C      11.09457704      1.36262106     12.83240332
C       8.04280490      5.93039425      9.62496045
C       8.62811736      4.57517576     10.47829406
C      -1.99453198     10.92071652     13.10727844
C      -2.36172026     11.71628712     14.57355641
C       8.74117518     -1.22899452      0.23760105
C      10.41159028     -0.81191716      0.56907199
C      11.68506179     -1.40748304     -0.17726775
C      25.65424053     -0.29178792     -1.55745185
C       7.01347652     -0.77050385      0.59831310
C       7.54221704     -0.80677766      2.21597844
H      25.20112135     -0.42093166     -2.66014445
H      -7.77283131     -2.71084575     -3.69347020
H      16.33763288     -3.74233315     17.45228546
H      -8.57271924     -3.49036836     22.83601772
H       0.54580314     -4.80308958     10.94979405
H      12.20028090      0.97475146     13.07604579
H       9.00079982      1.27750333     13.07114616
H       8.23611793      7.12892228      9.55811928
H      -1.59310226     12.59968216     14.97998734
H       7.84644729      3.91800804     12.50155714
H       8.85873345     -2.46650180      0.39549945
H      -2.22521251     11.50543598     12.03899189
H      10.81147119      0.35562069      0.48701471
H      22.64136139      0.81136653    -13.19463002
H       8.10484696     -0.01297838      2.96464690
H      25.81045843      0.80479173     -1.09806626
H      -3.43070086     12.33740188     14.66211975
   94

C     -10.20064016     -1.75721025     -3.89249459
C      -8.71141248     -2.13718204     -3.11925733
H      -9.99365317     -1.09311290     -4.92899715
C     -11.52525094     -1.09914101     -3.01366249
H     -10.58138805     -2.71541678     -4.59547119
H      -8.01323784     -1.21365913     -2.67449840
C       2.03110190     -1.95376744     -1.67122308
H      -8.69937863     -2.89006383     -2.13451164
H      -5.81325823     -4.71829028    -13.99805795
H      -5.80554327     -5.48768256    -13.87008912
C       3.35771358     -1.76688703     -2.49155775
H       2.63375475     -1.16490631     -3.29803191
C       4.92785542     -1.15754280     -2.10550870
H       3.21565477     -2.95305578     -2.79389490
H       4.69158826      0.05688865     -2.23759394
H       5.41872779     -1.37679498     -3.23201366
C       6.19744708     -1.34790295     -0.88055318
H       6.98333556     -0.96636921     -1.74238654
C       5.73088014      0.23910120      1.12031362
H       6.01724966     -2.55087609     -0.61031372
H       5.61529617      1.24553889      0.41913023
H       6.09594545      1.35689141      1.50148167
C       4.19272316     -0.13283794      1.93885097
H       4.29726399      0.21757565      3.12469356
C       3.12587657      3.71856284    -10.75909092
H       4.18198954     -1.34572125      2.20515261
H       2.47979149      4.52670217    -11.21833839
H      -0.82193074     10.58273503     12.89185760
C      10.77213032     -4.89597623     -9.85162973
H     -11.40500086      0.01589348     -2.48436157
H     -12.00034747     -1.72840417     -2.05683462
C     -21.75239570     -1.47886096     -2.26108885
H     -12.61668944     -0.87338086     -3.55669313
C      -1.93809482     -4.67803811     11.36168697
H     -22.43059993     -2.36388898     -2.26456084
H      -0.59941765     -4.68020160      9.52845273
H      -2.97106433     -4.35053541     11.81360848
C       2.48802159      0.11171428      1.72173386
H       1.70743101      1.59040895      0.99569164
C       0.59615509      0.95347004      2.88709274
H       1.90536171     -0.77146464      1.09785961
H       0.54463252      2.05684177      3.45065738
H       0.33195010      0.23321719      3.86655115
H      -0.59096945      0.96392841      2.50935550
H      10.34273035     -3.81524800     -9.55910343
H      11.29468182     -5.06515764    -10.91757846
H      10.67897702     -5.80754626     -9.07813635
H       9.70544784      2.63930697     13.84543983
H       7.63041872      2.64421209     11.40788870
H      -0.56020339     -6.39588932     10.78121815
H      11.76192639      0.43185617     13.14317752
H      -8.70113913     -4.16260610     22.46199083
H       7.30639122      6.21931571      8.71809419
H      -2.44443043     11.04374542     15.61168341
H       9.58097421      5.24663596     10.90600285
H       9.13985074     -1.27152665     -0.98039273
H      -2.55358273      9.84309156     12.85948022
H      11.13064833     -1.10169061      1.56849767
H      22.75038355      0.04134153    -13.13516290
H       7.62396488     -1.65621713      3.10287310
H      25.95127421     -1.25921542     -0.91416028
H       8.42504043      3.91959783      9.45084188
C      17.28576781     -4.02399905     16.90157258
C      -0.58482797     -5.17563790     10.65118725
C       9.63575771      2.24679855     12.68389596
C       8.60492359      3.33402202     11.73457532
C      11.08327710      1.37123391     12.82441121
C       8.04630013      5.92219900      9.63892556
C       8.64366926      4.56756969     10.48196327
C      -1.99461570     10.92117107     13.10775365
C      -2.36182688     11.71667139     14.57404698
C       8.81886971     -1.25710333      0.21025051
C      10.48641787     -0.83634517      0.54420981
C      11.75812782     -1.43219745     -0.20416019
C      25.65438080     -0.29177894     -1.55746990
C       7.09406813     -0.79952554      0.57495771
C       7.62008392     -0.84589428      2.19393633
H      25.20127362     -0.42092208     -2.66016761
H      -7.80147560     -2.72819587     -3.71906858
H      16.33779015     -3.74243915     17.45245479
H      -8.57282741     -3.49037635     22.83621439
H       0.53628078     -4.86808549     11.04135158
H      12.20792452      1.02874371     13.05158167
H       8.98886834      1.27507734     13.06838862
H       8.23747749      7.12138921      9.57991365
H      -1.59363718     12.60062985     14.98005599
H       7.84002403      3.92504665     12.50884618
H       8.93588111     -2.49538494      0.36357050
H      -2.22454468     11.50624304     12.03950083
H      10.87978966      0.33338878      0.46315968
H      22.64147256      0.81140289    -13.19469361
H       8.17923813     -0.05614200      2.94947737
H      25.81059082      0.80480075     -1.09808147
H      -3.43119753     12.33707522     14.66285118
   94

C     -10.22920098     -1.77480378     -3.91744186
C      -8.73993626     -2.15521730     -3.14455956
H     -10.02223666     -1.11090683     -4.95407303
C     -11.55343016     -1.11636102     -3.03834156
H     -10.61015812     -2.73310294     -4.62016928
H      -8.04206147     -1.23164208     -2.69948655
C       2.12239074     -1.99037326     -1.68865865
H      -8.72782498     -2.90850012     -2.16013181
H      -5.80753502     -4.72263501    -14.01159749
H      -5.79981888     -5.49202634    -13.88362297
C       3.44389913     -1.80272142     -2.51672055
H       2.71790631     -1.20542115     -3.32472214
C       5.01114179     -1.18681058     -2.13150650
H       3.30712530     -2.98944452     -2.81976493
H       4.77372122      0.02747540     -2.26468524
H       5.50401672     -1.40062302     -3.25847156
C       6.27618235     -1.37937961     -0.90272941
H       7.06256091     -1.00236695     -1.76541441
C       5.82175957      0.21556151      1.09650636
H       6.09138852     -2.58095809     -0.62958397
H       5.69332202      1.22021155      0.39469277
H       6.18445155      1.33522395      1.47494205
C       4.29576304     -0.16885088      1.92122440
H       4.37097404      0.19507929      3.10464267
C       3.12601277      3.71861555    -10.75957598
H       4.26830511     -1.37786592      2.19748955
H       2.47989284      4.52675673    -11.21877117
H      -0.82210181     10.58260077     12.89287090
C      10.80931966     -4.93092136     -9.94007297
H     -11.43286088     -0.00144706     -2.50886123
H     -12.02870571     -1.74563735     -2.08160788
C     -21.77675530     -1.47927767     -2.25878512
H     -12.64476346     -0.89003761     -3.58134592
C      -1.94121887     -4.74827055     11.44366067
H     -22.45494924     -2.36431350     -2.26225390
H      -0.60180220     -4.75816621      9.60618025
H      -2.97192181     -4.41894394     11.89930794
C       2.60978955      0.07633798      1.66358740
H       1.19082822      1.94584004      1.23143383
C       0.17404487      1.30001994      3.02440705
H       1.96166380     -0.79467248      1.10024854
H       0.13284029      2.38467115      3.62382605
H      -0.03647973      0.54153535      3.98668094
H      -1.01607855      1.27931743      2.65938973
H      10.37993628     -3.85020800     -9.64746287
H      11.33182404     -5.10009914    -11.00604658
H      10.71619957     -5.84249677     -9.16658017
H       9.70885188      2.66039460     13.84843538
H       7.62660556      2.64114372     11.40360642
H      -0.56293132     -6.46757114     10.85524400
H      11.72929777      0.42083613     13.12572871
H      -8.70124582     -4.16262476     22.46218696
H       7.30058874      6.20100054      8.73625597
H      -2.44371370     11.04427223     15.61239329
H       9.61130288      5.22628516     10.89570165
H       9.21661187     -1.29455519     -1.00653954
H      -2.55425118      9.84404808     12.85973329
H      11.20314597     -1.12615101      1.54717622
H      22.75050702      0.04137853    -13.13523246
H       7.69505699     -1.70115029      3.07777354
H      25.95141777     -1.25920682     -0.91417404
H       8.47283952      3.90836499      9.44916991
C      17.28584773     -4.02405286     16.90166281
C      -0.58891416     -5.24663217     10.73200461
C       9.62312866      2.25063193     12.69283044
C       8.59536328      3.33437647     11.74180240
C      11.07197481      1.37962716     12.81684722
C       8.04981608      5.91313892      9.65203953
C       8.65915106      4.55929591     10.48489897
C      -1.99466247     10.92172217     13.10834681
C      -2.36192021     11.71713542     14.57465494
C       8.89711357     -1.28696379      0.18456978
C      10.56135248     -0.86159911      0.52144262
C      11.83183613     -1.45727134     -0.22858016
C      25.65453221     -0.29176991     -1.55748684
C       7.17468231     -0.83123223      0.55149316
C       7.69440557     -0.88688539      2.17239123
H      25.20143935     -0.42091268     -2.66019061
H      -7.82976060     -2.74559514     -3.74462223
H      16.33787271     -3.74249517     17.45255078
H      -8.57292231     -3.49038947     22.83639654
H       0.52718712     -4.93225429     11.13125064
H      12.21389615      1.08362944     13.02578435
H       8.97687177      1.27253373     13.06491235
H       8.23852224      7.11299473      9.60111400
H      -1.59416068     12.60165629     14.98024330
H       7.83352182      3.93167073     12.51528790
H       9.01355758     -2.52586097      0.33420795
H      -2.22384052     11.50715267     12.04013281
H      10.94798984      0.31035260      0.44126965
H      22.64158696      0.81143883    -13.19476042
H       8.25024017     -0.10254315      2.93592263
H      25.81073159      0.80480990     -1.09809483
H      -3.43168380     12.33682189     14.66369298
   94

C     -10.25731749     -1.79238859     -3.94221897
C      -8.76797947     -2.17313018     -3.16967954
H     -10.05039642     -1.12869928     -4.97898983
C     -11.58128815     -1.13362963     -3.06297751
H     -10.63844644     -2.75079974     -4.64469557
H      -8.07038856     -1.24950935     -2.72429408
C       2.21372134     -2.02384726     -1.70389754
H      -8.75577554     -2.92680049     -2.18555673
H      -5.80177994     -4.72695254    -14.02506113
H      -5.79406428     -5.49634362    -13.89708507
C       3.52970885     -1.83784903     -2.54118276
H       2.80151119     -1.24533321     -3.35057912
C       5.09496856     -1.21653525     -2.15842339
H       3.39673068     -3.02528232     -2.84349092
H       4.85800368     -0.00225913     -2.29439664
H       5.58941459     -1.42688794     -3.28560051
C       6.35517554     -1.41123060     -0.92551227
H       7.14241384     -1.03998936     -1.78921300
C       5.91430567      0.19412616      1.07090965
H       6.16482978     -2.61103543     -0.64855885
H       5.77726007      1.19694792      0.36771347
H       6.27610130      1.31503776      1.44712013
C       4.39767428     -0.19745546      1.89956307
H       4.44280122      0.17734107      3.08074965
C       3.12609221      3.71858235    -10.75969594
H       4.34824721     -1.40274817      2.18296027
H       2.47995902      4.52672434    -11.21887075
H      -0.82221609     10.58252907     12.89396216
C      10.84650487     -4.96587215    -10.02850341
H     -11.46046383     -0.01882603     -2.53332540
H     -12.05676264     -1.76292579     -2.10635261
C     -21.80109157     -1.47969674     -2.25648521
H     -12.67250665     -0.90678234     -3.60599640
C      -1.94407732     -4.81767532     11.52440989
H     -22.47927854     -2.36473788     -2.25994969
H      -0.60384289     -4.83485494      9.68269074
H      -2.97243904     -4.48687866     11.98415432
C       2.73088021      0.05874347      1.60502864
H       0.71730385      2.21534474      1.48586197
C      -0.26137225      1.64749494      3.17116962
H       2.01804033     -0.78604101      1.09319639
H      -0.28520829      2.71804950      3.79444306
H      -0.41232454      0.85374384      4.11275091
H      -1.45186544      1.59895768      2.81534462
H      10.41713331     -3.88517404     -9.73581527
H      11.36896571     -5.13504439    -11.09450035
H      10.75341662     -5.87745179     -9.25501008
H       9.71206585      2.68159295     13.85062159
H       7.62294735      2.63767322     11.39872349
H      -0.56540038     -6.53823891     10.92799790
H      11.69610890      0.41002241     13.10806404
H      -8.70133899     -4.16264503     22.46236495
H       7.29453823      6.18169718      8.75390101
H      -2.44297106     11.04484460     15.61317123
H       9.64050273      5.20571849     10.88529228
H       9.29357408     -1.31848337     -1.03230531
H      -2.55486784      9.84507400     12.86007074
H      11.27512629     -1.15094846      1.52654941
H      22.75062755      0.04141331    -13.13530153
H       7.76288278     -1.74637758      3.05252961
H      25.95156137     -1.25919915     -0.91418718
H       8.51918064      3.89699588      9.44792548
C      17.28587099     -4.02406868     16.90170511
C      -0.59275587     -5.31665851     10.81142790
C       9.61052709      2.25438987     12.70148994
C       8.58573613      3.33450155     11.74828051
C      11.06083569      1.38799582     12.80984731
C       8.05320432      5.90334622      9.66440316
C       8.67442614      4.55052193     10.48728795
C      -1.99465068     10.92233975     13.10901509
C      -2.36198444     11.71765051     14.57533602
C       8.97530288     -1.31741122      0.15917575
C      10.63603347     -0.88720019      0.49922986
C      11.90539356     -1.48267644     -0.25228992
C      25.65468359     -0.29176193     -1.55750330
C       7.25519835     -0.86362578      0.52768262
C       7.76746305     -0.92829795      2.15069395
H      25.20160590     -0.42090450     -2.66021345
H      -7.85753010     -2.76286420     -3.76995624
H      16.33789278     -3.74250547     17.45258483
H      -8.57300469     -3.49040492     22.83656219
H       0.51821231     -4.99555914     11.21982146
H      12.21815893      1.13932974     12.99880065
H       8.96490839      1.26993454     13.06075138
H       8.23916278      7.10385160      9.62174269
H      -1.59465750     12.60273307     14.98050576
H       7.82695870      3.93796097     12.52105029
H       9.09095455     -2.55686688      0.30549973
H      -2.22307807     11.50813271     12.04084356
H      11.01599402      0.28690928      0.41990862
H      22.64169832      0.81147254    -13.19482664
H       8.32015609     -0.15005151      2.92264303
H      25.81087118      0.80481805     -1.09810739
H      -3.43214338     12.33661451     14.66460034
   94

C     -10.28490303     -1.80989985     -3.96671031
C      -8.79546182     -2.19076547     -3.19444088
H     -10.07805258     -1.14643650     -5.00364025
C     -11.60876448     -1.15089574     -3.08748385
H     -10.66614523     -2.76845796     -4.66892558
H      -8.09814475     -1.26710758     -2.74872634
C       2.30429323     -2.05543328     -1.71735027
H      -8.78314799     -2.94481033     -2.21060891
H      -5.79600011     -4.73124424    -14.03845452
H      -5.78828606     -5.50063571    -13.91048067
C       3.61446679     -1.87211080     -2.56445818
H       2.88397148     -1.28448618     -3.37520361
C       5.17804094     -1.24578225     -2.18487792
H       3.48475967     -3.06031611     -2.86547245
H       4.94179707     -0.03148897     -2.32379653
H       5.67371303     -1.45299670     -3.31233758
C       6.43366246     -1.44277838     -0.94819813
H       7.22164890     -1.07743101     -1.81302661
C       6.00648524      0.17295377      1.04516888
H       6.23769070     -2.64073272     -0.66734591
H       5.86069253      1.17398576      0.34080863
H       6.36766934      1.29504418      1.41913365
C       4.49964987     -0.22540149      1.87851061
H       4.51611079      0.15891123      3.05722167
C       3.12613194      3.71847029    -10.75952392
H       4.42682792     -1.42713164      2.16660917
H       2.48000582      4.52661068    -11.21871128
H      -0.82226129     10.58246199     12.89508874
C      10.88364334     -5.00079069    -10.11687148
H     -11.48776172     -0.03619100     -2.55766782
H     -12.08446154     -1.78022220     -2.13098693
C     -21.82539840     -1.48011777     -2.25418722
H     -12.69985358     -0.92357971     -3.63057386
C      -1.94690107     -4.88620423     11.60419493
H     -22.50358240     -2.36516116     -2.25764658
H      -0.60578665     -4.91034277      9.75834201
H      -2.97288462     -4.55410347     12.06817726
C       2.85124064      0.03566827      1.55747847
H       0.27428742      2.44185057      1.74749345
C      -0.70075848      1.99284759      3.32202092
H       2.07182818     -0.76048346      1.07926668
H      -0.69986082      3.05681855      3.95374803
H      -0.80189630      1.17446818      4.24545235
H      -1.88703414      1.92340580      2.96325328
H      10.45427175     -3.92011308     -9.82410242
H      11.40606781     -5.16995665    -11.18288854
H      10.79058458     -5.91237339     -9.34337618
H       9.71510219      2.70293937     13.85206389
H       7.61944455      2.63387199     11.39337340
H      -0.56786354     -6.60795108     10.99982623
H      11.66224050      0.39939802     13.09014294
H      -8.70141669     -4.16266272     22.46251632
H       7.28814172      6.16150854      8.77113021
H      -2.44219101     11.04542341     15.61397872
H       9.66857176      5.18506076     10.87487117
H       9.37004300     -1.34213215     -1.05817647
H      -2.55541707      9.84611461     12.86045181
H      11.34674227     -1.17570655      1.50577335
H      22.75074046      0.04144589    -13.13536820
H       7.83042951     -1.79111444      3.02708331
H      25.95170507     -1.25919129     -0.91420136
H       8.56409880      3.88554995      9.44715711
C      17.28584764     -4.02404878     16.90170928
C      -0.59657191     -5.38577232     10.88982742
C       9.59801478      2.25813578     12.70992761
C       8.57605951      3.33446118     11.75411812
C      11.04999914      1.39647656     12.80350716
C       8.05637662      5.89293231      9.67609813
C       8.68940843      4.54137793     10.48926955
C      -1.99456639     10.92296969     13.10972124
C      -2.36200635     11.71817351     14.57604883
C       9.05310808     -1.34755339      0.13366502
C      10.71037633     -0.91269618      0.47687301
C      11.97856015     -1.50807000     -0.27615252
C      25.65483460     -0.29175387     -1.55752076
C       7.33536603     -0.89558121      0.50377326
C       7.84015025     -0.96928720      2.12879580
H      25.20177246     -0.42089639     -2.66023744
H      -7.88470479     -2.77985086     -3.79489240
H      16.33786137     -3.74247324     17.45256881
H      -8.57307248     -3.49041858     22.83670292
H       0.50914926     -5.05808708     11.30741832
H      12.22069291      1.19577160     12.97077768
H       8.95305949      1.26732887     13.05592585
H       8.23935737      7.09405822      9.64183766
H      -1.59511534     12.60381805     14.98080271
H       7.82034931      3.94397497     12.52625183
H       9.16789007     -2.58756411      0.27669358
H      -2.22224252     11.50912858     12.04159491
H      11.08374098      0.26350587      0.39840272
H      22.64180205      0.81150406    -13.19489035
H       8.38975015     -0.19713150      2.90897319
H      25.81100926      0.80482627     -1.09812056
H      -3.43256182     12.33641268     14.66553342
   94

C     -10.31190051     -1.82727155     -3.99082412
C      -8.82233333     -2.20798277     -3.21869996
H     -10.10515132     -1.16406171     -5.02793882
C     -11.63582120     -1.16810603     -3.11178879
H     -10.69317464     -2.78602604     -4.69276054
H      -8.12530029     -1.28429043     -2.77261717
C       2.39471501     -2.08629485     -1.72982473
H      -8.80989275     -2.96239153     -2.23514543
H      -5.79020093     -4.73550875    -14.05177819
H      -5.78248957     -5.50490126    -13.92381051
C       3.69887189     -1.90600893     -2.58698333
H       2.96604407     -1.32323093     -3.39898097
C       5.26086823     -1.27484955     -2.21084751
H       3.57234100     -3.09493002     -2.88681076
H       5.02513024     -0.06054331     -2.35233895
H       5.75756129     -1.47863266     -3.33872178
C       6.51226732     -1.47423520     -0.97083740
H       7.30076461     -1.11445168     -1.83683463
C       6.09819789      0.15087791      1.01982815
H       6.31099396     -2.67041969     -0.68638350
H       5.94229195      1.15014976      0.31477696
H       6.45831450      1.27431109      1.39149421
C       4.60210047     -0.25589729      1.85873004
H       4.58977978      0.13895052      3.03394459
C       3.12613692      3.71829050    -10.75908611
H       4.50714150     -1.45381857      2.15136387
H       2.48003458      4.52642558    -11.21831635
H      -0.82222842     10.58236600     12.89623278
C      10.92076743     -5.03569326    -10.20522667
H     -11.51472905     -0.05348815     -2.58181484
H     -12.11176747     -1.79747794     -2.15544377
C     -21.84967382     -1.48054100     -2.25189059
H     -12.72676169     -0.94039021     -3.65502054
C      -1.94981317     -4.95396516     11.68330174
H     -22.52785917     -2.36558338     -2.25534405
H      -0.60776380     -4.98489261      9.83347096
H      -2.97340507     -4.62057896     12.15150277
C       2.97102270     -0.00023558      1.51574305
H      -0.16552648      2.66994809      2.01071691
C      -1.14007592      2.33685520      3.47326646
H       2.12281331     -0.73104381      1.06637475
H      -1.11200786      3.39674650      4.10774581
H      -1.19818986      1.49906403      4.37997805
H      -2.31962383      2.24929315      3.10471543
H      10.49138790     -3.95503961     -9.91237477
H      11.44316020     -5.20485240    -11.27126181
H      10.82773779     -5.94727929     -9.43172951
H       9.71796381      2.72444553     13.85278262
H       7.61609330      2.62978571     11.38762279
H      -0.57044241     -6.67689183     11.07108488
H      11.62756710      0.38894989     13.07190699
H      -8.70147852     -4.16267578     22.46263790
H       7.28134880      6.14052153      8.78798579
H      -2.44136387     11.04599068     15.61480308
H       9.69551736      5.16439061     10.86448037
H       9.44662963     -1.36548019     -1.08437209
H      -2.55588861      9.84714227     12.86086350
H      11.41869752     -1.20035114      1.48461772
H      22.75084883      0.04147713    -13.13543565
H       7.89935615     -1.83543571      3.00138347
H      25.95185840     -1.25918186     -0.91421753
H       8.60763749      3.87406325      9.44685366
C      17.28578262     -4.02399499     16.90168133
C      -0.60047054     -5.45415534     10.96757754
C       9.58563909      2.26190261     12.71815030
C       8.56634569      3.33428877     11.75936855
C      11.03957015      1.40513762     12.79786153
C       8.05926869      5.88197990      9.68716136
C       8.70403207      4.53195161     10.49091439
C      -1.99439812     10.92358366     13.11045424
C      -2.36197528     11.71868418     14.57677910
C       9.13117168     -1.37746907      0.10782447
C      10.78502563     -0.93807380      0.45415558
C      12.05203094     -1.53335722     -0.30036635
C      25.65499500     -0.29174437     -1.55754030
C       7.41579157     -0.92725030      0.47974745
C       7.91344296     -1.00993836      2.10660566
H      25.20194972     -0.42088696     -2.66026406
H      -7.91122787     -2.79640826     -3.81928211
H      16.33778376     -3.74240106     17.45250975
H      -8.57312512     -3.49042842     22.83681557
H       0.49990841     -5.12002613     11.39436686
H      12.22147512      1.25288393     12.94185150
H       8.94137935      1.26474993     13.05042230
H       8.23908252      7.08368774      9.66141818
H      -1.59552299     12.60489097     14.98111960
H       7.81370193      3.94974277     12.53095147
H       9.24517303     -2.61803379      0.24747580
H      -2.22132258     11.51011386     12.04237667
H      11.15175068      0.24019680      0.37655206
H      22.64190105      0.81153423    -13.19495454
H       8.45977451     -0.24356973      2.89469367
H      25.81115455      0.80483595     -1.09813508
H      -3.43292705     12.33619896     14.66648004
   94

C     -10.33829658     -1.84442809     -4.01449042
C      -8.84858907     -2.22465574     -3.24234729
H     -10.13167932     -1.18150624     -5.05181942
C     -11.66244596     -1.18518859     -3.13582314
H     -10.71950696     -2.80343815     -4.71612447
H      -8.15187338     -1.30092305     -2.79583721
C       2.48567525     -2.11774168     -1.74281026
H      -8.83600808     -2.97942211     -2.25905973
H      -5.78438958     -4.73974543    -14.06503483
H      -5.77668182     -5.50913967    -13.93707745
C       3.78385918     -1.94020507     -2.60976206
H       3.04869705     -1.36217765     -3.42291728
C       5.34424738     -1.30419566     -2.23687865
H       3.66068932     -3.12976138     -2.90876774
H       5.10870027     -0.08989158     -2.38055142
H       5.84191727     -1.50412785     -3.36525158
C       6.59173412     -1.50591128     -0.99380091
H       7.38051519     -1.15124930     -1.86095191
C       6.19045338      0.12768755      0.99463608
H       6.38559541     -2.70047387     -0.70618186
H       6.02280117      1.12515587      0.28941322
H       6.54862199      1.25270431      1.36403456
C       4.70679517     -0.29056557      1.84030839
H       4.66350910      0.11725791      3.01028553
C       3.12610887      3.71806166    -10.75842518
H       4.59230705     -1.48431582      2.13868635
H       2.48003973      4.52618847    -11.21771700
H      -0.82211219     10.58220040     12.89735867
C      10.95790853     -5.07059856    -10.29360877
H     -11.54135454     -0.07064722     -2.60569334
H     -12.13866922     -1.81462496     -2.17965708
C     -21.87391593     -1.48096620     -2.24959484
H     -12.75321592     -0.95714671     -3.67927318
C      -1.95287612     -5.02112123     11.76198757
H     -22.55210712     -2.36600417     -2.25304170
H      -0.60983280     -5.05879641      9.90834802
H      -2.97407556     -4.68636661     12.23429106
C       3.09241573     -0.05373143      1.47439453
H      -0.62366193      2.92686822      2.27152540
C      -1.58121029      2.68113595      3.62578913
H       2.17491381     -0.70485141      1.05603447
H      -1.52671628      3.73612336      4.26374359
H      -1.59802562      1.82513714      4.51498148
H      -2.75330608      2.57499360      3.24591942
H      10.52851864     -3.98996915    -10.00067659
H      11.48027128     -5.23975000    -11.35966127
H      10.86490945     -5.98218928     -9.52011120
H       9.72067923      2.74610088     13.85280603
H       7.61290786      2.62546935     11.38154046
H      -0.57319070     -6.74526641     11.14207586
H      11.59198479      0.37866915     13.05331733
H      -8.70152472     -4.16268246     22.46272784
H       7.27417856      6.11885495      8.80454071
H      -2.44047911     11.04652291     15.61561748
H       9.72139135      5.14377667     10.85418821
H       9.52400655     -1.38878510     -1.11103172
H      -2.55627723      9.84812517     12.86128026
H      11.49146184     -1.22490422      1.46311282
H      22.75095586      0.04150739    -13.13550647
H       7.97052579     -1.87958229      2.97539798
H      25.95202718     -1.25917030     -0.91423585
H       8.64987999      3.86259336      9.44702599
C      17.28568007     -4.02391026     16.90162544
C      -0.60450284     -5.52201122     11.04498772
C       9.57345985      2.26570507     12.72616984
C       8.55662833      3.33401662     11.76409948
C      11.02964625      1.41398684     12.79291710
C       8.06187416      5.87058863      9.69766631
C       8.71827852      4.52233242     10.49230981
C      -1.99413693     10.92414837     13.11118797
C      -2.36188055     11.71915650     14.57749818
C       9.21014830     -1.40746713      0.08149930
C      10.86048719     -0.96339317      0.43107706
C      12.12633120     -1.55856362     -0.32488786
C      25.65517085     -0.29173283     -1.55756218
C       7.49720808     -0.95906778      0.45540369
C       7.98819991     -1.05052649      2.08402153
H      25.20214440     -0.42087560     -2.66029383
H      -7.93708880     -2.81240250     -3.84301292
H      16.33766455     -3.74229291     17.45241313
H      -8.57316272     -3.49043274     22.83689832
H       0.49045494     -5.18157284     11.48093070
H      12.22049658      1.31060039     12.91217088
H       8.92991901      1.26222838     13.04424546
H       8.23837502      7.07283119      9.68055794
H      -1.59586716     12.60592477     14.98142569
H       7.80704827      3.95529301     12.53522363
H       9.32348238     -2.64857314      0.21771428
H      -2.22031052     11.51105712     12.04316373
H      11.22042281      0.21695136      0.35437117
H      22.64199845      0.81156342    -13.19502173
H       8.53082327     -0.28953751      2.87980987
H      25.81131251      0.80484771     -1.09815104
H      -3.43322601     12.33595158     14.66741517
   94

C     -10.36414419     -1.86129676     -4.03767233
C      -8.87429329     -2.24069955     -3.26532474
H     -10.15768591     -1.19870046     -5.07524548
C     -11.68866168     -1.20205631     -3.15952020
H     -10.74519736     -2.82062280     -4.73897626
H      -8.17794789     -1.31691296     -2.81831470
C       2.57738074     -2.15018229     -1.75688972
H      -8.86156402     -2.99582403     -2.28229919
H      -5.77857368     -4.74395589    -14.07823153
H      -5.77087007     -5.51335251    -13.95028833
C       3.86970957     -1.97495852     -2.63326652
H       3.13222151     -1.40164137     -3.44753410
C       5.42840073     -1.33397741     -2.26330064
H       3.75010635     -3.16510120     -2.93171047
H       5.19281837     -0.11968967     -2.40894013
H       5.92708771     -1.52976035     -3.39219058
C       6.67214891     -1.53791221     -1.01723230
H       7.46105460     -1.18798234     -1.88548405
C       6.28352160      0.10358461      0.96932914
H       6.46150692     -2.73098233     -0.72681334
H       6.10281086      1.09915174      0.26437767
H       6.63892847      1.23038311      1.33652138
C       4.81396693     -0.32896316      1.82288198
H       4.73715685      0.09414408      2.98560132
C       3.12605495      3.71779989    -10.75760185
H       4.68278826     -1.51828894      2.12847452
H       2.48002176      4.52591699    -11.21696182
H      -0.82192223     10.58189009     12.89838187
C      10.99507393     -5.10551069    -10.38202009
H     -11.56764195     -0.08758618     -2.62923000
H     -12.16518712     -1.83157770     -2.20355988
C     -21.89812230     -1.48139205     -2.24729835
H     -12.77923964     -0.97375387     -3.70325856
C      -1.95612067     -5.08785813     11.84048612
H     -22.57632395     -2.36642206     -2.25073823
H      -0.61201581     -5.13233956      9.98320704
H      -2.97493336     -4.75158290     12.31671798
C       3.21611474     -0.12363572      1.43151469
H      -1.10262133      3.21131591      2.52956104
C      -2.02591688      3.02590719      3.78093284
H       2.23184685     -0.67998262      1.04647989
H      -1.94574652      4.07507574      4.42337536
H      -2.00126482      2.15221035      4.65091095
H      -3.19009083      2.90030259      3.38913238
H      10.56567375     -4.02490446    -10.08901175
H      11.51740694     -5.27465378    -11.44808979
H      10.90210687     -6.01710712     -9.60852325
H       9.72331520      2.76787336     13.85218383
H       7.60993418      2.62098969     11.37521967
H      -0.57612756     -6.81328508     11.21306250
H      11.55542583      0.36855204     13.03437234
H      -8.70155576     -4.16267993     22.46278304
H       7.26674404      6.09666770      8.82091621
H      -2.43952814     11.04697118     15.61635387
H       9.74630851      5.12327886     10.84410241
H       9.60219511     -1.41214275     -1.13806177
H      -2.55659089      9.84899827     12.86162832
H      11.56491801     -1.24938142      1.44141503
H      22.75106174      0.04153636    -13.13558066
H       8.04365438     -1.92362564      2.94919446
H      25.95221039     -1.25915681     -0.91425589
H       8.69096566      3.85121712      9.44772609
C      17.28554518     -4.02379900     16.90154509
C      -0.60869082     -5.58954893     11.12232428
C       9.56156156      2.26954105     12.73401701
C       8.54697602      3.33368081     11.76841013
C      11.02033255      1.42297881     12.78865503
C       8.06426769      5.85888203      9.70774279
C       8.73219250      4.51261387     10.49357804
C      -1.99378806     10.92459746     13.11185130
C      -2.36171455     11.71953645     14.57813409
C       9.29002169     -1.43762605      0.05476937
C      10.93668066     -0.98866227      0.40777820
C      12.20137058     -1.58371245     -0.34956838
C      25.65536118     -0.29171945     -1.55758598
C       7.57962285     -0.99118968      0.43070698
C       8.06434929     -1.09113626      2.06108623
H      25.20235551     -0.42086250     -2.66032634
H      -7.96235543     -2.82774564     -3.86603213
H      16.33750972     -3.74215439     17.45228440
H      -8.57318553     -3.49042868     22.83694793
H       0.48077904     -5.24292331     11.56734067
H      12.21776735      1.36885830     12.88190515
H       8.91873819      1.25979380     13.03743652
H       8.23735505      7.06160412      9.69940046
H      -1.59613582     12.60686360     14.98164618
H       7.80045714      3.96065887     12.53917476
H       9.40276412     -2.67925488      0.18754027
H      -2.21921238     11.51189200     12.04388448
H      11.28967117      0.19375833      0.33199611
H      22.64209457      0.81159131    -13.19509198
H       8.60278055     -0.33516010      2.86444514
H      25.81148229      0.80486137     -1.09816808
H      -3.43344669     12.33562413     14.66827530
   94

C     -10.38956193     -1.87782694     -4.06037727
C      -8.89957652     -2.25610246     -3.28764678
H     -10.18328291     -1.21559225     -5.09822101
C     -11.71452768     -1.21862539     -3.18282915
H     -10.77038458     -2.83752087     -4.76132208
H      -8.20366717     -1.33224219     -2.84006086
C       2.66968181     -2.18337802     -1.77197291
H      -8.88669745     -3.01159189     -2.30488432
H      -5.77275960     -4.74814327    -14.09137782
H      -5.76506024     -5.51754282    -13.96345212
C       3.95624962     -2.01020933     -2.65749261
H       3.21647597     -1.44161129     -3.47288613
C       5.51314962     -1.36413513     -2.29015630
H       3.84035689     -3.20091041     -2.95550959
H       5.27739128     -0.14987446     -2.43766542
H       6.01293613     -1.55558535     -3.41953743
C       6.75319994     -1.57018790     -1.04106181
H       7.54214555     -1.22467874     -1.91033294
C       6.37683581      0.07873203      0.94388834
H       6.53832591     -2.76185832     -0.74810303
H       6.18226674      1.07228224      0.23952854
H       6.72899421      1.20743142      1.30889323
C       4.92219151     -0.36972801      1.80581516
H       4.81025873      0.07015116      2.95936245
C       3.12598720      3.71751445    -10.75667460
H       4.77747647     -1.55453795      2.12011095
H       2.47998879      4.52562137    -11.21610216
H      -0.82169568     10.58132942     12.89916997
C      11.03225879     -5.14042574    -10.47044648
H     -11.59361439     -0.10422900     -2.65236543
H     -12.19137404     -1.84825090     -2.22709699
C     -21.92229066     -1.48181630     -2.24499841
H     -12.80489597     -0.99010778     -3.72690724
C      -1.95954789     -5.15436860     11.91899720
H     -22.60050749     -2.36683478     -2.24843157
H      -0.61430734     -5.20577742     10.05823771
H      -2.97598100     -4.81638884     12.39896359
C       3.34062895     -0.20605102      1.38806176
H      -1.59570028      3.51172185      2.78602313
C      -2.47377823      3.37062127      3.93841669
H       2.29602868     -0.65201103      1.03700976
H      -2.36780859      4.41378379      4.58492887
H      -2.40743654      2.48016905      4.78753667
H      -3.62927733      3.22524195      3.53346727
H      10.60284883     -4.05984168    -10.17736521
H      11.55456198     -5.30956051    -11.53653332
H      10.93932439     -6.05202793     -9.69695044
H       9.72596299      2.78971174     13.85096845
H       7.60723586      2.61641086     11.36875886
H      -0.57923962     -6.88114686     11.28425245
H      11.51785556      0.35860586     13.01511163
H      -8.70157240     -4.16266455     22.46279951
H       7.25922605      6.07412315      8.83723391
H      -2.43850970     11.04726353     15.61690502
H       9.77041945      5.10293573     10.83433118
H       9.68085775     -1.43551056     -1.16526060
H      -2.55686348      9.84966616     12.86178311
H      11.63869746     -1.27378241      1.41968358
H      22.75116497      0.04156339    -13.13565697
H       8.11799343     -1.96751274      2.92286213
H      25.95240415     -1.25914185     -0.91427711
H       8.73105610      3.84000131      9.44901439
C      17.28538402     -4.02366642     16.90144379
C      -0.61302955     -5.65696613     11.19980022
C       9.55004336      2.27339251     12.74172333
C       8.53747772      3.33331141     11.77240496
C      11.01173798      1.43202677     12.78501159
C       8.06657540      5.84698161      9.71753662
C       8.74585859      4.50287291     10.49484033
C      -1.99338401     10.92483405     13.11232845
C      -2.36147911     11.71974476     14.57857372
C       9.37040031     -1.46785031      0.02782702
C      11.01324997     -1.01385880      0.38442050
C      12.27678883     -1.60880243     -0.37425666
C      25.65556197     -0.29170468     -1.55761109
C       7.66258286     -1.02351663      0.40576243
C       8.14129480     -1.13169897      2.03790849
H      25.20257869     -0.42084812     -2.66036084
H      -7.98716995     -2.84242703     -3.88836698
H      16.33732621     -3.74199203     17.45212923
H      -8.57319406     -3.49041252     22.83696021
H       0.47089441     -5.30425883     11.65378298
H      12.21330546      1.42759715     12.85124323
H       8.90789810      1.25747367     13.03005963
H       8.23619441      7.05012031      9.71810957
H      -1.59632391     12.60762514     14.98166463
H       7.79402166      3.96587092     12.54291663
H       9.48260579     -2.70998461      0.15717870
H      -2.21806065     11.51251987     12.04442096
H      11.35918384      0.17062351      0.30957634
H      22.64218806      0.81161730    -13.19516410
H       8.67515422     -0.38045797      2.84872020
H      25.81166029      0.80487645     -1.09818573
H      -3.43358403     12.33514895     14.66896266
   94

C     -10.41771130     -1.89344867     -4.08308120
C      -8.92774950     -2.27095956     -3.30996848
H     -10.21164210     -1.23172217     -5.12127614
C     -11.74197622     -1.23348588     -3.20510113
H     -10.79887146     -2.85344253     -4.78343639
H      -8.23210668     -1.34727112     -2.86158647
C       2.78292905     -2.22559046     -1.79270032
H      -8.91480473     -3.02718325     -2.32775381
H      -5.76756303     -4.75262803    -14.10543029
H      -5.75985184     -5.52202203    -13.97747162
C       4.05964350     -2.05418708     -2.69309853
H       3.31669815     -1.49336288     -3.51086389
C       5.61245789     -1.39866900     -2.32690312
H       3.95119575     -3.24553856     -2.99214415
H       5.37681701     -0.18432668     -2.47835781
H       6.11551935     -1.58113959     -3.45680320
C       6.84480687     -1.60881104     -1.07099001
H       7.63391271     -1.27104455     -1.94166501
C       6.49243117      0.05525052      0.90997201
H       6.62199611     -2.79792879     -0.77381847
H       6.26904163      1.04393483      0.20690128
H       6.83680043      1.18821472      1.27022851
C       5.06856061     -0.42977616      1.78818067
H       4.88982084      0.04018091      2.92148966
C       3.12568889      3.71836650    -10.75803011
H       4.90788149     -1.60679293      2.12109735
H       2.47968207      4.52649394    -11.21740874
H      -0.82303756     10.57625830     12.89440073
C      11.07224831     -5.17795351    -10.56489755
H     -11.62025369     -0.11940119     -2.67417010
H     -12.21916777     -1.86321599     -2.24960497
C     -21.94638825     -1.48206288     -2.24253776
H     -12.83211550     -1.00400817     -3.74919543
C      -1.96426515     -5.22513265     12.00915107
H     -22.62460498     -2.36708141     -2.24601179
H      -0.61897466     -5.29416969     10.14035556
H      -2.97969298     -4.88444476     12.48914425
C       3.51744910     -0.36356517      1.32393802
H      -2.23736449      3.85576887      3.15865420
C      -3.00613119      3.77825197      4.12054662
H       2.39733697     -0.60003112      1.03611823
H      -2.84371424      4.80956760      4.77116060
H      -2.85644299      2.85757538      4.92275580
H      -4.13983993      3.59128789      3.68191464
H      10.64283612     -4.09720691    -10.27246287
H      11.59484366     -5.34713329    -11.63082362
H      10.97906516     -6.08952032     -9.79140617
H       9.73841950      2.83065622     13.84589034
H       7.60575123      2.60943115     11.36044355
H      -0.58638143     -6.95742570     11.35878385
H      11.44165846      0.33584326     12.98921716
H      -8.70101793     -4.16259184     22.46177845
H       7.25101799      6.03724894      8.86804043
H      -2.43764841     11.04427169     15.61230457
H       9.81477410      5.06679693     10.81914078
H       9.76679612     -1.45799567     -1.19980217
H      -2.55863046      9.84599984     12.85599263
H      11.71484131     -1.29768775      1.39603798
H      22.75026404      0.04130417    -13.13509705
H       8.19959192     -2.02048872      2.89200788
H      25.95114173     -1.25922374     -0.91414507
H       8.80297145      3.82456445      9.45786660
C      17.28562260     -4.02390619     16.90142777
C      -0.62108591     -5.73240233     11.28704071
C       9.53540716      2.27995582     12.75474473
C       8.52329183      3.33427998     11.78306353
C      11.00235589      1.44516310     12.77775491
C       8.06775286      5.83048067      9.74408514
C       8.76916061      4.48929786     10.50260207
C      -1.99453290     10.92071849     13.10728210
C      -2.36171933     11.71628514     14.57355276
C       9.45994378     -1.50230094     -0.00632320
C      11.09527872     -1.03945337      0.35733558
C      12.35529702     -1.63731944     -0.40334740
C      25.65424051     -0.29178792     -1.55745191
C       7.75768402     -1.06170615      0.37434699
C       8.22646700     -1.18109410      2.01036338
H      25.20112133     -0.42093168     -2.66014451
H      -8.01529934     -2.85659933     -3.91125674
H      16.33763535     -3.74233552     17.45228738
H      -8.57271924     -3.49036836     22.83601772
H       0.45279353     -5.36925641     11.75692191
H      12.20443949      1.54030998     12.80095478
H       8.89312567      1.25248268     13.01091905
H       8.24193140      7.03290151      9.75391432
H      -1.59704905     12.60491109     14.97603992
H       7.78769271      3.97605074     12.55651214
H       9.56950368     -2.74534657      0.11837546
H      -2.21821821     11.50852447     12.03918957
H      11.42855894      0.14848559      0.28288609
H      22.64136139      0.81136653    -13.19463002
H       8.75099136     -0.43609911      2.83307527
H      25.81045846      0.80479167     -1.09806619
H      -3.43417302     12.33104550     14.66457716
