   94

C     -10.41771130     -1.89344867     -4.08308120
C      -8.92774950     -2.27095956     -3.30996848
H     -10.21164210     -1.23172217     -5.12127614
C     -11.74197622     -1.23348588     -3.20510113
H     -10.79887146     -2.85344253     -4.78343639
H      -8.23210668     -1.34727112     -2.86158647
C       2.78292905     -2.22559046     -1.79270032
H      -8.91480473     -3.02718325     -2.32775381
H      -5.76756303     -4.75262803    -14.10543029
H      -5.75985184     -5.52202203    -13.97747162
C       4.05964350     -2.05418708     -2.69309853
H       3.31669815     -1.49336288     -3.51086389
C       5.61245789     -1.39866900     -2.32690312
H       3.95119575     -3.24553856     -2.99214415
H       5.37681701     -0.18432668     -2.47835781
H       6.11551935     -1.58113959     -3.45680320
C       6.84480687     -1.60881104     -1.07099001
H       7.63391271     -1.27104455     -1.94166501
C       6.49243117      0.05525052      0.90997201
H       6.62199611     -2.79792879     -0.77381847
H       6.26904163      1.04393483      0.20690128
H       6.83680043      1.18821472      1.27022851
C       5.06856061     -0.42977616      1.78818067
H       4.88982084      0.04018091      2.92148966
C       3.12568889      3.71836650    -10.75803011
H       4.90788149     -1.60679293      2.12109735
H       2.47968207      4.52649394    -11.21740874
H      -0.82303756     10.57625830     12.89440073
C      11.07224831     -5.17795351    -10.56489755
H     -11.62025369     -0.11940119     -2.67417010
H     -12.21916777     -1.86321599     -2.24960497
C     -21.94638825     -1.48206288     -2.24253776
H     -12.83211550     -1.00400817     -3.74919543
C      -1.96426515     -5.22513265     12.00915107
H     -22.62460498     -2.36708141     -2.24601179
H      -0.61897466     -5.29416969     10.14035556
H      -2.97969298     -4.88444476     12.48914425
C       3.51744910     -0.36356517      1.32393802
H      -2.23736449      3.85576887      3.15865420
C      -3.00613119      3.77825197      4.12054662
H       2.39733697     -0.60003112      1.03611823
H      -2.84371424      4.80956760      4.77116060
H      -2.85644299      2.85757538      4.92275580
H      -4.13983993      3.59128789      3.68191464
H      10.64283612     -4.09720691    -10.27246287
H      11.59484366     -5.34713329    -11.63082362
H      10.97906516     -6.08952032     -9.79140617
H       9.73841950      2.83065622     13.84589034
H       7.60575123      2.60943115     11.36044355
H      -0.58638143     -6.95742570     11.35878385
H      11.44165846      0.33584326     12.98921716
H      -8.70101793     -4.16259184     22.46177845
H       7.25101799      6.03724894      8.86804043
H      -2.43764841     11.04427169     15.61230457
H       9.81477410      5.06679693     10.81914078
H       9.76679612     -1.45799567     -1.19980217
H      -2.55863046      9.84599984     12.85599263
H      11.71484131     -1.29768775      1.39603798
H      22.75026404      0.04130417    -13.13509705
H       8.19959192     -2.02048872      2.89200788
H      25.95114173     -1.25922374     -0.91414507
H       8.80297145      3.82456445      9.45786660
C      17.28562260     -4.02390619     16.90142777
C      -0.62108591     -5.73240233     11.28704071
C       9.53540716      2.27995582     12.75474473
C       8.52329183      3.33427998     11.78306353
C      11.00235589      1.44516310     12.77775491
C       8.06775286      5.83048067      9.74408514
C       8.76916061      4.48929786     10.50260207
C      -1.99453290     10.92071849     13.10728210
C      -2.36171933     11.71628514     14.57355276
C       9.45994378     -1.50230094     -0.00632320
C      11.09527872     -1.03945337      0.35733558
C      12.35529702     -1.63731944     -0.40334740
C      25.65424051     -0.29178792     -1.55745191
C       7.75768402     -1.06170615      0.37434699
C       8.22646700     -1.18109410      2.01036338
H      25.20112133     -0.42093168     -2.66014451
H      -8.01529934     -2.85659933     -3.91125674
H      16.33763535     -3.74233552     17.45228738
H      -8.57271924     -3.49036836     22.83601772
H       0.45279353     -5.36925641     11.75692191
H      12.20443949      1.54030998     12.80095478
H       8.89312567      1.25248268     13.01091905
H       8.24193140      7.03290151      9.75391432
H      -1.59704905     12.60491109     14.97603992
H       7.78769271      3.97605074     12.55651214
H       9.56950368     -2.74534657      0.11837546
H      -2.21821821     11.50852447     12.03918957
H      11.42855894      0.14848559      0.28288609
H      22.64136139      0.81136653    -13.19463002
H       8.75099136     -0.43609911      2.83307527
H      25.81045846      0.80479167     -1.09806619
H      -3.43417302     12.33104550     14.66457716
   94

C     -10.48114706     -1.93857885     -4.14611735
C      -8.99107109     -2.31579240     -3.37307048
H     -10.27521131     -1.27720179     -5.18456059
C     -11.80534255     -1.27831640     -3.26825131
H     -10.86238406     -2.89882497     -4.84609020
H      -8.29582640     -1.39207407     -2.92413486
C       2.81951985     -2.24221958     -1.79003301
H      -8.97799094     -3.07253171     -2.39124984
H      -5.75083492     -4.76323271    -14.14024067
H      -5.74312381     -5.53262721    -14.01228489
C       4.08918847     -2.07076104     -2.70030132
H       3.34281538     -1.51646509     -3.51928292
C       5.63919707     -1.40849381     -2.33576475
H       3.98472086     -3.26209846     -3.00101577
H       5.40265601     -0.19429050     -2.48729106
H       6.14219190     -1.58189748     -3.46722911
C       6.86861318     -1.62260298     -1.07799539
H       7.65907726     -1.29630001     -1.95122333
C       6.52175036      0.04659863      0.90233995
H       6.64291851     -2.81028141     -0.77798134
H       6.29686530      1.03501661      0.19935546
H       6.87496773      1.17775652      1.25999366
C       5.09819058     -0.43567343      1.78243176
H       4.92018603      0.03716722      2.91448521
C       3.12570784      3.71833397    -10.75803778
H       4.93505922     -1.61107099      2.12058177
H       2.47969658      4.52646352    -11.21740638
H      -0.82791705     10.70685603     12.69286724
C      11.07922281     -5.18488214    -10.58296822
H     -11.68339124     -0.16437068     -2.73708553
H     -12.28284128     -1.90810628     -2.31294570
C     -21.99975388     -1.48164693     -2.23541450
H     -12.89529301     -1.04828225     -3.81249128
C      -1.96141412     -5.23605016     12.01896881
H     -22.67795185     -2.36667976     -2.23888957
H      -0.61455523     -5.30971914     10.14813985
H      -2.97452637     -4.89332041     12.50232946
C       3.54770207     -0.36470127      1.31744319
H      -2.27545992      3.74989797      3.09480452
C      -3.04643071      3.67734849      4.05497754
H       2.42197996     -0.57963495      1.03501606
H      -2.88756309      4.71048880      4.70375033
H      -2.88950624      2.75434573      4.85324407
H      -4.18069844      3.49533315      3.61537197
H      10.64981429     -4.10413632    -10.29052537
H      11.60181007     -5.35405794    -11.64889887
H      10.98604856     -6.09645294     -9.80948048
H       9.73257616      2.83633933     13.85021659
H       7.59968895      2.61301192     11.35814849
H      -0.58234311     -6.96888949     11.36382252
H      11.42777959      0.33923936     12.96873071
H      -8.70114415     -4.16288832     22.46186419
H       7.24590340      6.01799315      8.88486375
H      -2.44398919     11.30817590     16.48039163
H       9.83883639      5.05097409     10.80940851
H       9.79140099     -1.45693422     -1.20973232
H      -2.56731825      9.98319762     12.65993921
H      11.73535194     -1.29845211      1.39099507
H      22.75030270      0.04131158    -13.13512562
H       8.21832010     -2.05389321      2.87773396
H      25.95121398     -1.25922390     -0.91415861
H       8.84557647      3.81677302      9.45686596
C      17.28568686     -4.02395997     16.90143494
C      -0.61862792     -5.74366503     11.29645059
C       9.52664837      2.28312468     12.76062356
C       8.51920730      3.33403525     11.78348171
C      10.99512777      1.45336758     12.76768236
C       8.07224343      5.81905903      9.75334360
C       8.78674146      4.48035870     10.50143983
C      -2.00093247     11.06149790     12.89810491
C      -2.05691494     11.89476704     15.47654294
C       9.48471224     -1.50909882     -0.01644425
C      11.11717852     -1.04152190      0.35128642
C      12.37854109     -1.63668184     -0.40919842
C      25.65431581     -0.29178792     -1.55746673
C       7.78201205     -1.07507214      0.36655337
C       8.24643261     -1.20754092      2.00294140
H      25.20120193     -0.42093151     -2.66016160
H      -8.07822605     -2.90060003     -3.97457315
H      16.33769613     -3.74239086     17.45228921
H      -8.57286225     -3.49068511     22.83614552
H       0.45108344     -5.37611712     11.77247254
H      12.19543881      1.57389982     12.77616008
H       8.88260126      1.25852093     13.02452287
H       8.23988601      7.02209535      9.77243540
H      -1.52096829     12.92022724     15.88229607
H       7.78120647      3.97867373     12.55230158
H       9.59825769     -2.75252883      0.10188214
H      -2.20051763     11.64746640     11.82265615
H      11.44491757      0.14805964      0.27945938
H      22.64139778      0.81137370    -13.19465766
H       8.76780162     -0.47003810      2.83435268
H      25.81052936      0.80479178     -1.09807961
H      -3.64737672     12.43607607     14.11143963
   94

C     -10.54470461     -1.98378630     -4.20926920
C      -9.05451318     -2.36070777     -3.43629332
H     -10.33890278     -1.32275918     -5.24796102
C     -11.86882647     -1.32322254     -3.33151193
H     -10.92602110     -2.94428376     -4.90885925
H      -8.35966370     -1.43696147     -2.98680585
C       2.85624547     -2.25874216     -1.78740007
H      -9.04129594     -3.11796309     -2.45486754
H      -5.73409229     -4.77384643    -14.17507857
H      -5.72638037     -5.54324170    -14.04712746
C       4.11881628     -2.08733242     -2.70748645
H       3.36905396     -1.53957429     -3.52765549
C       5.66599130     -1.41833338     -2.34459936
H       4.01829977     -3.27863896     -3.00986238
H       5.42857581     -0.20426574     -2.49620446
H       6.16892122     -1.58269202     -3.47754495
C       6.89245915     -1.63644507     -1.08499988
H       7.68422433     -1.32174362     -1.96073010
C       6.55110091      0.03789883      0.89473667
H       6.66385007     -2.82265983     -0.78211152
H       6.32473800      1.02607920      0.19187555
H       6.91314791      1.16718725      1.24975778
C       5.12784245     -0.44162101      1.77669108
H       4.95059583      0.03411839      2.90747739
C       3.12572521      3.71828491    -10.75804845
H       4.96233351     -1.61537083      2.12010742
H       2.47971069      4.52641617    -11.21740948
H      -0.82598490     10.86970126     12.55834866
C      11.08620721     -5.19182134    -10.60106362
H     -11.74664291     -0.20941645     -2.80011090
H     -12.34663123     -1.95307110     -2.37639558
C     -22.05315934     -1.48122483     -2.22827475
H     -12.95858921     -1.09262953     -3.87589375
C      -1.95856878     -5.24685953     12.02880927
H     -22.73134752     -2.36626515     -2.23175088
H      -0.61011723     -5.32516654     10.15598214
H      -2.96933403     -4.90205672     12.51553899
C       3.57795648     -0.36603301      1.31097626
H      -2.31350120      3.64330044      3.03040790
C      -3.08664684      3.57572775      3.98885555
H       2.44703235     -0.55897175      1.03379857
H      -2.93130641      4.61071220      4.63572528
H      -2.92252581      2.65049163      4.78320715
H      -4.22146877      3.39871931      3.54829285
H      10.65680205     -4.11107663    -10.30861177
H      11.60878624     -5.36099300    -11.66699897
H      10.99304210     -6.10339617     -9.82757950
H       9.72645525      2.84240842     13.85450230
H       7.59338398      2.61693864     11.35590728
H      -0.57829089     -6.98023766     11.36892907
H      11.41321695      0.34292591     12.94824107
H      -8.70123546     -4.16312252     22.46188227
H       7.24050797      5.99878384      8.90202611
H      -2.36985202     11.53163018     17.33055255
H       9.86207724      5.03559969     10.80015935
H       9.81589513     -1.45584819     -1.21961417
H      -2.54878426     10.09311231     12.44198614
H      11.75576876     -1.29921720      1.38599774
H      22.75034192      0.04131874    -13.13515404
H       8.23705319     -2.08716702      2.86331108
H      25.95128231     -1.25922218     -0.91416799
H       8.88711224      3.80951578      9.45667063
C      17.28569198     -4.02396378     16.90142630
C      -0.61616837     -5.75483067     11.30589615
C       9.51777851      2.28673491     12.76640784
C       8.51477026      3.33422252     11.78399820
C      10.98766829      1.46193610     12.75786386
C       8.07639249      5.80785366      9.76279217
C       8.80372982      4.47177639     10.50063961
C      -2.01913845     11.19550983     12.64599778
C      -2.15042139     12.24323130     16.36423466
C       9.50945766     -1.51587699     -0.02654611
C      11.13902057     -1.04358522      0.34526660
C      12.40172461     -1.63604841     -0.41500126
C      25.65438732     -0.29178609     -1.55747753
C       7.80634084     -1.08845350      0.35875525
C       8.26639994     -1.23395157      1.99539163
H      25.20127969     -0.42092964     -2.66017505
H      -8.14127694     -2.94468412     -4.03801367
H      16.33769488     -3.74238886     17.45226655
H      -8.57296718     -3.49093585     22.83619782
H       0.44933772     -5.38290641     11.78800948
H      12.18550901      1.60781986     12.75139115
H       8.87200122      1.26501380     13.03793784
H       8.23728150      7.01141857      9.79149217
H      -1.45837343     13.18687058     16.71237006
H       7.77429550      3.98156011     12.54823624
H       9.62700860     -2.75964022      0.08543076
H      -2.16078251     11.73667345     11.53857274
H      11.46121511      0.14760567      0.27605681
H      22.64143476      0.81138061    -13.19468516
H       8.78457980     -0.50398028      2.83538494
H      25.81059565      0.80479371     -1.09808873
H      -3.56637293     12.51041788     13.73417986
   94

C     -10.60823506     -2.02895304     -4.27237953
C      -9.11792793     -2.40558033     -3.49947430
H     -10.40256731     -1.36827642     -5.31132011
C     -11.93228019     -1.36808701     -3.39472707
H     -10.98963117     -2.98970185     -4.97158641
H      -8.42347291     -1.48180706     -3.04943513
C       2.89300998     -2.27507964     -1.78476979
H      -9.10457256     -3.16335194     -2.51844403
H      -5.71737217     -4.78444114    -14.20986044
H      -5.70965867     -5.55383752    -14.08191601
C       4.14843757     -2.10383692     -2.71461625
H       3.39533223     -1.56262106     -3.53594811
C       5.69275617     -1.42813323     -2.35337376
H       4.05183783     -3.29509595     -3.01864474
H       5.45449609     -0.21419773     -2.50507036
H       6.19562770     -1.58348088     -3.48771426
C       6.91626377     -1.65028409     -1.09197635
H       7.70926789     -1.34730769     -1.97015385
C       6.58039213      0.02920243      0.88718633
H       6.68470589     -2.83500871     -0.78617968
H       6.35256361      1.01717318      0.18448558
H       6.95124529      1.15656031      1.23954378
C       5.15742096     -0.44756477      1.77098070
H       4.98096443      0.03108192      2.90049261
C       3.12573372      3.71822941    -10.75803968
H       4.98961643     -1.61963962      2.11969483
H       2.47971715      4.52636209    -11.21739538
H      -0.82526115     11.00434557     12.32888889
C      11.09318182     -5.19875226    -10.61914037
H     -11.80986244     -0.25442131     -2.86308967
H     -12.41039036     -1.99799433     -2.43979977
C     -22.10648623     -1.48079869     -2.22113711
H     -13.02185579     -1.13693460     -3.93924864
C      -1.95573932     -5.25757957     12.03864050
H     -22.78467364     -2.36583965     -2.22461393
H      -0.60567692     -5.34051955     10.16384491
H      -2.96413698     -4.91069010     12.52873045
C       3.60810601     -0.36749763      1.30458033
H      -2.35132473      3.53679155      2.96617339
C      -3.12663553      3.47419653      3.92287485
H       2.47239759     -0.53798944      1.03254805
H      -2.97483849      4.51101834      4.56783153
H      -2.95535413      2.54677328      4.71328832
H      -4.26198451      3.30222060      3.48132572
H      10.66377937     -4.11800911    -10.32667872
H      11.61575282     -5.36791967    -11.68508036
H      11.00002583     -6.11033110     -9.84565984
H       9.72030271      2.84866340     13.85865844
H       7.58713919      2.62094936     11.35357750
H      -0.57424067     -6.99148540     11.37405772
H      11.39819942      0.34671793     12.92775539
H      -8.70128498     -4.16326746     22.46185523
H       7.23516512      5.97940402      8.91926056
H      -2.36609203     11.79506104     18.13753358
H       9.88479133      5.02041931     10.79118814
H       9.84019026     -1.45472654     -1.22943031
H      -2.55116664     10.20544332     12.19894923
H      11.77602232     -1.29997412      1.38104811
H      22.75037965      0.04132579    -13.13518162
H       8.25571879     -2.12023552      2.84876917
H      25.95134737     -1.25921981     -0.91417596
H       8.92783264      3.80252230      9.45707820
C      17.28566802     -4.02394360     16.90141062
C      -0.61371973     -5.76591371     11.31533754
C       9.50905167      2.29056364     12.77201600
C       8.51029960      3.33458280     11.78443680
C      10.98024056      1.47066679     12.74822295
C       8.08051618      5.79663923      9.77217577
C       8.82039593      4.46331515     10.50001243
C      -2.02304966     11.30924190     12.38585552
C      -2.20209411     12.56949084     17.21694981
C       9.53409673     -1.52260397     -0.03660903
C      11.16073217     -1.04563246      0.33928078
C      12.42476607     -1.63542464     -0.42075394
C      25.65445550     -0.29178366     -1.55748694
C       7.83059144     -1.10178905      0.35097372
C       8.28629273     -1.26026116      1.98773289
H      25.20135432     -0.42092721     -2.66018718
H      -8.20430343     -2.98872625     -4.10141431
H      16.33766339     -3.74235935     17.45223310
H      -8.57302450     -3.49109077     22.83619125
H       0.44754863     -5.38964755     11.80349099
H      12.17490297      1.64187209     12.72667977
H       8.86156784      1.27174600     13.05109408
H       8.23460528      7.00061878      9.81068441
H      -1.45063866     13.48309053     17.49327635
H       7.76730204      3.98446644     12.54415048
H       9.65566001     -2.76664992      0.06905490
H      -2.17277828     11.87294737     11.29321935
H      11.47739205      0.14713066      0.27267358
H      22.64147024      0.81138742    -13.19471181
H       8.80126442     -0.53785120      2.83617505
H      25.81065841      0.80479625     -1.09809640
H      -3.33962581     12.53179950     13.57087145
   94

C     -10.67176556     -2.07411078     -4.33548493
C      -9.18134250     -2.45044051     -3.56264905
H     -10.46623216     -1.41378499     -5.37467433
C     -11.99573313     -1.41294330     -3.45793539
H     -11.05324100     -3.03511092     -5.03430863
H      -8.48728121     -1.52664132     -3.11205796
C       2.92981997     -2.29123033     -1.78214029
H      -9.16784795     -3.20872853     -2.58201483
H      -5.70066676     -4.79502349    -14.24460355
H      -5.69295095     -5.56442125    -14.11666755
C       4.17806354     -2.12027594     -2.72168354
H       3.42166534     -1.58560698     -3.54415800
C       5.71950158     -1.43789325     -2.36207823
H       4.08534862     -3.31147132     -3.02735631
H       5.48042459     -0.22408719     -2.51388178
H       6.22232859     -1.58427064     -3.49772425
C       6.94003659     -1.66411345     -1.09891518
H       7.73421326     -1.37296904     -1.97948000
C       6.60962518      0.02051664      0.87970250
H       6.70549674     -2.84732155     -0.79017814
H       6.38034306      1.00830581      0.17719936
H       6.98925557      1.14588430      1.22936835
C       5.18692595     -0.45349257      1.76531634
H       5.01129493      0.02806665      2.89354885
C       3.12573637      3.71816534    -10.75801130
H       5.01691128     -1.62386683      2.11935515
H       2.47971920      4.52629877    -11.21736494
H      -0.83040216     11.14236420     12.10702717
C      11.10014966     -5.20567720    -10.63720476
H     -11.87307989     -0.29941858     -2.92606083
H     -12.47414807     -2.04290947     -2.50319693
C     -22.15976370     -1.48037421     -2.21400381
H     -13.08512208     -1.18123180     -4.00259518
C      -1.95292435     -5.26820724     12.04846697
H     -22.83795929     -2.36540902     -2.21747967
H      -0.60123306     -5.35576939     10.17173402
H      -2.95893344     -4.91921907     12.54190979
C       3.63814627     -0.36907630      1.29827596
H      -2.38886534      3.43026966      2.90208194
C      -3.16632514      3.37267341      3.85702411
H       2.49808865     -0.51669149      1.03130318
H      -3.01806240      4.41131569      4.50007230
H      -2.98792509      2.44310630      4.64347669
H      -4.30216501      3.20573417      3.41444158
H      10.67074939     -4.12493609    -10.34473215
H      11.62271270     -5.37484039    -11.70314938
H      11.00700282     -6.11726003     -9.86372773
H       9.71415565      2.85508112     13.86266735
H       7.58094730      2.62504422     11.35116602
H      -0.57019054     -7.00262854     11.37921181
H      11.38273571      0.35060782     12.90725980
H      -8.70129735     -4.16331115     22.46178913
H       7.22976114      5.95993543      8.93663784
H      -2.36867811     12.06397478     18.93617321
H       9.90696268      5.00544759     10.78246796
H       9.86428903     -1.45357731     -1.23917413
H      -2.56110391     10.32953871     11.97218277
H      11.79611780     -1.30072173      1.37614978
H      22.75041550      0.04133300    -13.13520763
H       8.27431982     -2.15308923      2.83412206
H      25.95140819     -1.25921624     -0.91418189
H       8.96770327      3.79582007      9.45805151
C      17.28562141     -4.02390471     16.90138711
C      -0.61128022     -5.77690968     11.32477919
C       9.50048735      2.29459308     12.77742849
C       8.50580884      3.33510315     11.78478652
C      10.97287752      1.47954497     12.73872727
C       8.08453708      5.78546636      9.78152002
C       8.83670190      4.45500709     10.49954997
C      -2.03110266     11.43300609     12.14545951
C      -2.18350129     12.84864365     18.03676559
C       9.55863297     -1.52927964     -0.04662513
C      11.18231801     -1.04766301      0.33333284
C      12.44767063     -1.63480846     -0.42645344
C      25.65451928     -0.29178003     -1.55749426
C       7.85476830     -1.11507010      0.34322038
C       8.30611552     -1.28645999      1.97997711
H      25.20142471     -0.42092362     -2.66019729
H      -8.26733221     -3.03275666     -4.16481025
H      16.33760840     -3.74230888     17.45218923
H      -8.57303990     -3.49113720     22.83613100
H       0.44571844     -5.39633607     11.81892242
H      12.16364877      1.67603563     12.70204423
H       8.85131749      1.27870151     13.06398091
H       8.23179785      6.98974056      9.83004711
H      -1.44419408     13.77788221     18.25952563
H       7.76025688      3.98738061     12.54005111
H       9.68421512     -2.77355815      0.05276646
H      -2.19036224     12.02150986     11.06946336
H      11.49345188      0.14663589      0.26931314
H      22.64150385      0.81139439    -13.19473688
H       8.81785985     -0.57163842      2.83673551
H      25.81071648      0.80479997     -1.09810186
H      -3.14964116     12.55471464     13.39573420
   94

C     -10.73530702     -2.11926967     -4.39859808
C      -9.24476769     -2.49530118     -3.62583190
H     -10.52990812     -1.45929496     -5.43803632
C     -12.05919625     -1.45780198     -3.52114930
H     -11.11686174     -3.08052098     -5.09703856
H      -8.55109904     -1.57147715     -3.17468935
C       2.96667804     -2.30720910     -1.77953593
H      -9.23113281     -3.25410562     -2.64559418
H      -5.68397571     -4.80559656    -14.27931411
H      -5.67625680     -5.57499594    -14.15138802
C       4.20770400     -2.13666331     -2.72870416
H       3.44806690     -1.60854497     -3.55230475
C       5.74623881     -1.44762968     -2.37072558
H       4.11884273     -3.32777949     -3.03601290
H       5.50637195     -0.23395099     -2.52265679
H       6.24904135     -1.58508399     -3.50758525
C       6.96379247     -1.67794582     -1.10583180
H       7.75907061     -1.39871804     -1.98871789
C       6.63880888      0.01182433      0.87227077
H       6.72623871     -2.85961110     -0.79412524
H       6.40808634      0.99945924      0.17000108
H       7.02718496      1.13514284      1.21921782
C       5.21636549     -0.45943046      1.75967752
H       5.04160153      0.02503894      2.88662984
C       3.12573553      3.71808960    -10.75797274
H       5.04423061     -1.62808025      2.11906489
H       2.47971915      4.52622312    -11.21732748
H      -0.83577909     11.28178896     11.89385796
C      11.10711323     -5.21259885    -10.65526115
H     -11.93630625     -0.34441867     -2.98903716
H     -12.53791522     -2.08782674     -2.56659920
C     -22.21299855     -1.47995233     -2.20687540
H     -13.14839915     -1.22553109     -4.06594538
C      -1.95012121     -5.27876500     12.05829320
H     -22.89121109     -2.36497432     -2.21034828
H      -0.59678326     -5.37093960     10.17965242
H      -2.95372188     -4.92767038     12.55508215
C       3.66808055     -0.37078996      1.29204779
H      -2.42613428      3.32356019      2.83794498
C      -3.20572953      3.27097060      3.79111070
H       2.52412570     -0.49513088      1.03006836
H      -3.06099061      4.31142862      4.43223294
H      -3.02025454      2.33931992      4.57360038
H      -4.34203471      3.10909624      3.34746853
H      10.67771469     -4.13186019    -10.36277664
H      11.62966836     -5.38175774    -11.72121041
H      11.01397556     -6.12418567     -9.88178759
H       9.70804205      2.86164892     13.86655444
H       7.57483651      2.62920758     11.34870074
H      -0.56613687     -7.01368845     11.38439522
H      11.36684113      0.35458612     12.88677256
H      -8.70126774     -4.16323934     22.46169284
H       7.22443286      5.94036935      8.95410781
H      -2.35953899     12.32702844     19.75728186
H       9.92865852      4.99064580     10.77400982
H       9.88820106     -1.45242382     -1.24885748
H      -2.56756051     10.45310232     11.74670949
H      11.81606538     -1.30147201      1.37129241
H      22.75045043      0.04134007    -13.13523273
H       8.29286780     -2.18573686      2.81936566
H      25.95146575     -1.25921169     -0.91418575
H       9.00680503      3.78935592      9.45958209
C      17.28555116     -4.02384573     16.90135914
C      -0.60884686     -5.78783970     11.33422515
C       9.49211134      2.29880335     12.78267370
C       8.50133151      3.33576436     11.78507169
C      10.96561681      1.48855419     12.72938570
C       8.08852922      5.77432552      9.79083170
C       8.85270513      4.44682225     10.49925745
C      -2.03948899     11.55893300     11.90327190
C      -2.14198723     13.12566186     18.88729676
C       9.58307727     -1.53592004     -0.05660519
C      11.20378813     -1.04969017      0.32741216
C      12.47044898     -1.63421227     -0.43210971
C      25.65457974     -0.29177546     -1.55749953
C       7.87888298     -1.12831203      0.33548460
C       8.32588045     -1.31255831      1.97211621
H      25.20149209     -0.42091914     -2.66020545
H      -8.33037400     -3.07678801     -4.22821594
H      16.33752917     -3.74223582     17.45213864
H      -8.57300761     -3.49106035     22.83602471
H       0.44385065     -5.40299179     11.83430764
H      12.15178146      1.71028606     12.67753837
H       8.84127008      1.28586442     13.07663243
H       8.22897791      6.97876577      9.84955990
H      -1.42003952     14.07074735     19.05414666
H       7.75319847      3.99029970     12.53595443
H       9.71268328     -2.78038126      0.03655968
H      -2.19629607     12.16026868     10.83540591
H      11.50940474      0.14610834      0.26596316
H      22.64153655      0.81140121    -13.19476104
H       8.83437957     -0.60534838      2.83705734
H      25.81077092      0.80480463     -1.09810516
H      -3.02481078     12.59216554     13.13991863
   94

C     -10.79885869     -2.16442715     -4.46171673
C      -9.30820266     -2.54015931     -3.68902054
H     -10.59359448     -1.50480385     -5.50140388
C     -12.12266874     -1.50266033     -3.58436656
H     -11.18049255     -3.12592956     -5.15977394
H      -8.61492582     -1.61631150     -3.23732662
C       3.00357453     -2.32301377     -1.77696471
H      -9.29442633     -3.29948036     -2.70917992
H      -5.66729957     -4.81616027    -14.31399208
H      -5.65957682     -5.58556149    -14.18607734
C       4.23735517     -2.15299795     -2.73567985
H       3.47453656     -1.63143266     -3.56039330
C       5.77296534     -1.45734330     -2.37931672
H       4.15231730     -3.34401982     -3.04461638
H       5.53233486     -0.24379055     -2.53140106
H       6.27576912     -1.58592893     -3.51729604
C       6.98753180     -1.69177807     -1.11272982
H       7.78383611     -1.42452895     -1.99786594
C       6.66793706      0.00312611      0.86488825
H       6.74693374     -2.87187433     -0.79802732
H       6.43578748      0.99063376      0.16288705
H       7.06502463      1.12433756      1.20909021
C       5.24573043     -0.46537922      1.75405714
H       5.07188190      0.02199137      2.87973255
C       3.12573051      3.71800287    -10.75792275
H       5.07156836     -1.63228235      2.11881311
H       2.47971621      4.52613587    -11.21728159
H      -0.83998077     11.42027466     11.68148395
C      11.11407250     -5.21951730    -10.67330995
H     -11.99954076     -0.38941893     -3.05201618
H     -12.60169114     -2.13274357     -2.63000449
C     -22.26619078     -1.47953272     -2.19975214
H     -13.21168613     -1.26982971     -4.12929708
C      -1.94732867     -5.28927604     12.06811286
H     -22.94442905     -2.36453521     -2.20321995
H      -0.59232639     -5.38604878     10.18759320
H      -2.94850414     -4.93607452     12.56823991
C       3.69789403     -0.37262746      1.28589681
H      -2.46311803      3.21671461      2.77378837
C      -3.24483845      3.16913667      3.72515766
H       2.55050874     -0.47333484      1.02886872
H      -3.10361744      4.21140508      4.36433861
H      -3.05233173      2.23545934      4.50368021
H      -4.38158291      3.01235549      3.28042924
H      10.68467521     -4.13878151    -10.38081263
H      11.63661977     -5.38867180    -11.73926386
H      11.02094401     -6.13110813     -9.89983984
H       9.70200939      2.86833383     13.87030550
H       7.56885054      2.63339858     11.34616771
H      -0.56207721     -7.02468507     11.38959976
H      11.35055130      0.35863052     12.86629741
H      -8.70119829     -4.16305676     22.46158700
H       7.21923969      5.92069111      8.97161947
H      -2.34751636     12.58551436     20.58980199
H       9.94993107      4.97597326     10.76577747
H       9.91192272     -1.45128006     -1.25848432
H      -2.57142429     10.57455040     11.51915522
H      11.83586418     -1.30223034      1.36647037
H      22.75048449      0.04134693    -13.13525710
H       8.31135962     -2.21817236      2.80450337
H      25.95152060     -1.25920640     -0.91418789
H       9.04519681      3.78307948      9.46161989
C      17.28546085     -4.02376909     16.90132994
C      -0.60641748     -5.79872346     11.34366832
C       9.48396647      2.30315531     12.78774016
C       8.49691826      3.33652313     11.78527048
C      10.95851233      1.49765975     12.72016806
C       8.09252756      5.76319453      9.80008132
C       8.86844770      4.43872658     10.49910070
C      -2.04594777     11.68323221     11.65684230
C      -2.09269796     13.40741239     19.76321265
C       9.60742661     -1.54252970     -0.06655179
C      11.22514099     -1.05171977      0.32151343
C      12.49309923     -1.63364257     -0.43772831
C      25.65463745     -0.29177018     -1.55750308
C       7.90293347     -1.14151173      0.32776491
C       8.34558507     -1.33855118      1.96415004
H      25.20155694     -0.42091399     -2.66021199
H      -8.39342784     -3.12081709     -4.29162907
H      16.33742972     -3.74214292     17.45208543
H      -8.57292955     -3.49086599     22.83589477
H       0.44194817     -5.40963471     11.84964006
H      12.13935403      1.74458541     12.65319548
H       8.83146444      1.29319893     13.08904525
H       8.22622681      6.96766607      9.86915730
H      -1.38873325     14.36535608     19.86570755
H       7.74618364      3.99318941     12.53183827
H       9.74105845     -2.78712443      0.02043735
H      -2.19612396     12.29324203     10.59400074
H      11.52525050      0.14554215      0.26261625
H      22.64156841      0.81140784    -13.19478447
H       8.85082425     -0.63897283      2.83713877
H      25.81082237      0.80481000     -1.09810667
H      -2.92855292     12.63643125     12.84227181
   94

C     -10.86241876     -2.20958065     -4.52483814
C      -9.37164552     -2.58501156     -3.75221192
H     -10.65728945     -1.55030910     -5.56477429
C     -12.18614881     -1.54751566     -3.64758452
H     -11.24413145     -3.17133414     -5.22251201
H      -8.67875985     -1.66114103     -3.29996639
C       3.04049932     -2.33864166     -1.77443225
H      -9.35772667     -3.34484958     -2.77276912
H      -5.65063896     -4.82671433    -14.34863691
H      -5.64291164     -5.59611762    -14.22073493
C       4.26701244     -2.16927748     -2.74261049
H       3.50107273     -1.65426650     -3.56842642
C       5.79967735     -1.46703286     -2.38785058
H       4.18576913     -3.36019037     -3.05316712
H       5.55830833     -0.25360536     -2.54011805
H       6.30251353     -1.58681140     -3.52685376
C       7.01125328     -1.70560431     -1.11961025
H       7.80850463     -1.45037198     -2.00692033
C       6.69700174     -0.00557399      0.85755469
H       6.76758293     -2.88410585     -0.80188886
H       6.46343843      0.98183297      0.15585633
H       7.10276365      1.11347364      1.19898637
C       5.27500980     -0.47133515      1.74845145
H       5.10213159      0.01892109      2.87285740
C       3.12572058      3.71790614    -10.75785896
H       5.09891617     -1.63647129      2.11859147
H       2.47970964      4.52603800    -11.21722481
H      -0.84349672     11.55795249     11.46880773
C      11.12102714     -5.22643224    -10.69135091
H     -12.06278170     -0.43441679     -3.11499506
H     -12.66547417     -2.17765741     -2.69341031
C     -22.31934004     -1.47911538     -2.19263468
H     -13.27498119     -1.31412507     -4.19264777
C      -1.94454616     -5.29975521     12.07791912
H     -22.99761278     -2.36409172     -2.19609517
H      -0.58786234     -5.40110788     10.19554920
H      -2.94328243     -4.94445176     12.58137450
C       3.72757049     -0.37457006      1.27982716
H      -2.49979881      3.10978692      2.70964262
C      -3.28363618      3.06722540      3.65919399
H       2.57723517     -0.45133609      1.02773263
H      -3.14592983      4.11129767      4.29642156
H      -3.08414085      2.13157445      4.43374250
H      -4.42079204      2.91556095      3.21334975
H      10.69163062     -4.14569974    -10.39883980
H      11.64356662     -5.39558224    -11.75730948
H      11.02790786     -6.13802710     -9.91788423
H       9.69609769      2.87510419     13.87389575
H       7.56301594      2.63758526     11.34354804
H      -0.55801065     -7.03563114     11.39481704
H      11.33389541      0.36272479     12.84583336
H      -8.70109595     -4.16277973     22.46149035
H       7.21420200      5.90090166      8.98913508
H      -2.33836971     12.83952550     21.42146289
H       9.97081022      4.96140356     10.75773307
H       9.93544984     -1.45015835     -1.26805635
H      -2.57442879     10.69537543     11.29157071
H      11.85551196     -1.30300023      1.36168012
H      22.75051759      0.04135359    -13.13528076
H       8.32979008     -2.25038680      2.78954090
H      25.95157299     -1.25920054     -0.91418863
H       9.08291487      3.77695874      9.46411362
C      17.28535524     -4.02367841     16.90130143
C      -0.60399102     -5.80957343     11.35310121
C       9.47608471      2.30761429     12.79260495
C       8.49260352      3.33734346     11.78535689
C      10.95160635      1.50683029     12.71102849
C       8.09653547      5.75206338      9.80924656
C       8.88394995      4.43070001     10.49904482
C      -2.05060685     11.80628296     11.40930561
C      -2.03735596     13.69245079     20.65582473
C       9.63167640     -1.54911107     -0.07646519
C      11.24637374     -1.05375575      0.31563347
C      12.51561820     -1.63310411     -0.44331266
C      25.65469266     -0.29176433     -1.55750525
C       7.92691613     -1.15466298      0.32006221
C       8.36522498     -1.36443065      1.95608084
H      25.20161945     -0.42090833     -2.66021719
H      -8.45649173     -3.16484042     -4.35504658
H      16.33731515     -3.74203439     17.45203246
H      -8.57281354     -3.49057242     22.83576382
H       0.44001289     -5.41627791     11.86491267
H      12.12641055      1.77890017     12.62903976
H       8.82192986      1.30067306     13.10120452
H       8.22358735      6.95642799      9.88878483
H      -1.35661152     14.66218647     20.67758995
H       7.73925278      3.99601982     12.52767853
H       9.76933284     -2.79379096      0.00440448
H      -2.19401103     12.42467772     10.35132518
H      11.54098757      0.14493338      0.25926719
H      22.64159933      0.81141427    -13.19480719
H       8.86719212     -0.67250042      2.83698072
H      25.81087114      0.80481592     -1.09810671
H      -2.84095650     12.68229653     12.53040976
   94

C     -10.92598609     -2.25472892     -4.58796088
C      -9.43509508     -2.62985632     -3.81540453
H     -10.72099194     -1.59580948     -5.62814611
C     -12.24963545     -1.59236675     -3.71080188
H     -11.30777725     -3.21673352     -5.28525135
H      -8.74260008     -1.70596409     -3.36260692
C       3.07744385     -2.35409357     -1.77194545
H      -9.42103265     -3.39021173     -2.83636032
H      -5.63399451     -4.83725880    -14.38324852
H      -5.62626192     -5.60666436    -14.25536063
C       4.29667255     -2.18550148     -2.74949738
H       3.52767476     -1.67704487     -3.57640802
C       5.82637213     -1.47669860     -2.39632722
H       4.21919687     -3.37629105     -3.06166721
H       5.58428834     -0.26339639     -2.54881243
H       6.32927701     -1.58773845     -3.53625711
C       7.03495667     -1.71941965     -1.12647476
H       7.83307270     -1.47621689     -2.01587821
C       6.72599664     -0.01427296      0.85026897
H       6.78818932     -2.89630161     -0.80571573
H       6.49103283      0.97305934      0.14890695
H       7.14039287      1.10255537      1.18890614
C       5.30419464     -0.47729623      1.74285592
H       5.13234797      0.01582323      2.86600413
C       3.12570542      3.71779999    -10.75778013
H       5.12626711     -1.64064707      2.11839028
H       2.47969909      4.52593009    -11.21715588
H      -0.84658701     11.69512617     11.25608216
C      11.12797701     -5.23334350    -10.70938390
H     -12.12602813     -0.47941101     -3.17797243
H     -12.72926337     -2.22256712     -2.75681545
C     -22.37244638     -1.47870058     -2.18552387
H     -13.33828326     -1.35841599     -4.25599626
C      -1.94177332     -5.31021160     12.08770692
H     -23.05076224     -2.36364420     -2.18897458
H      -0.58339148     -5.41612391     10.20351486
H      -2.93805850     -4.95281474     12.59447925
C       3.75709651     -0.37659811      1.27384139
H      -2.53616232      3.00280297      2.64551169
C      -3.32211031      2.96526009      3.59322200
H       2.60430303     -0.42918047      1.02668540
H      -3.18791726      4.01113020      4.22848420
H      -3.11566948      2.02768792      4.36379058
H      -4.45964888      2.81873296      3.14623176
H      10.69858078     -4.15261472    -10.41685801
H      11.65050877     -5.40248890    -11.77534713
H      11.03486695     -6.14494240     -9.93592065
H       9.69033509      2.88193532     13.87730298
H       7.55734322      2.64174836     11.34082931
H      -0.55393706     -7.04653483     11.40004071
H      11.31689382      0.36686176     12.82538141
H      -8.70096976     -4.16243083     22.46141609
H       7.20933309      5.88101030      9.00662359
H      -2.33541597     13.08875670     22.24454411
H       9.99131385      4.94692031     10.74984896
H       9.95878060     -1.44907159     -1.27757530
H      -2.57727621     10.81627153     11.06510643
H      11.87500759     -1.30378527      1.35691872
H      22.75054966      0.04136008    -13.13530370
H       8.34815504     -2.28237224      2.77448405
H      25.95162314     -1.25919420     -0.91418822
H       9.11998538      3.77097236      9.46702174
C      17.28523871     -4.02357721     16.90127463
C      -0.60156706     -5.82039756     11.36251816
C       9.46848452      2.31215426     12.79724754
C       8.48840500      3.33820126     11.78531351
C      10.94492637      1.51604195     12.70191735
C       8.10054497      5.74093069      9.81831788
C       8.89922165      4.42273160     10.49906336
C      -2.05368431     11.92842141     11.16199316
C      -1.97262900     13.98088680     21.56887628
C       9.65582356     -1.55566725     -0.08634573
C      11.26748474     -1.05580222      0.30976961
C      12.53800415     -1.63260164     -0.44886550
C      25.65474554     -0.29175804     -1.55750625
C       7.95082859     -1.16776097      0.31237703
C       8.38479697     -1.39018972      1.94791086
H      25.20167974     -0.42090224     -2.66022128
H      -8.51956438     -3.20885627     -4.41846692
H      16.33719009     -3.74191434     17.45198143
H      -8.57267012     -3.49020465     22.83564989
H       0.43804608     -5.42292975     11.88012014
H      12.11298337      1.81320399     12.60509363
H       8.81268292      1.30826316     13.11309691
H       8.22108623      6.94504875      9.90840272
H      -1.32731684     14.96051665     21.47992607
H       7.73242894      3.99877270     12.52345917
H       9.79750014     -2.80038495     -0.01153422
H      -2.19144688     12.55615613     10.10971978
H      11.55661532      0.14427805      0.25591129
H      22.64162925      0.81142053    -13.19482919
H       8.88348208     -0.70592057      2.83658449
H      25.81091745      0.80482229     -1.09810554
H      -2.75596564     12.72797119     12.21338969
   94

C     -10.99270541     -2.30008660     -4.65219305
C      -9.50181610     -2.67504129     -3.87962941
H     -10.78783504     -1.64168756     -5.69272207
C     -12.31591139     -1.63717284     -3.77483339
H     -11.37467209     -3.26244715     -5.34889225
H      -8.80984790     -1.75111913     -3.42612302
C       3.12477885     -2.36945085     -1.76347282
H      -9.48761279     -3.43612841     -2.90115405
H      -5.61764091     -4.84784364    -14.41808138
H      -5.60992972     -5.61723763    -14.29012270
C       4.33094064     -2.20391077     -2.75769900
H       3.55764435     -1.70690249     -3.58736985
C       5.85556518     -1.48457924     -2.40638366
H       4.25952377     -3.39418670     -3.07356518
H       5.61346692     -0.27131902     -2.56029265
H       6.35929845     -1.57973079     -3.54753859
C       7.05793805     -1.73547318     -1.13298215
H       7.85763157     -1.51572921     -2.02608678
C       6.75755220     -0.02044921      0.84226968
H       6.80481401     -2.90905042     -0.80629208
H       6.51737852      0.96602694      0.14147432
H       7.18682767      1.09287084      1.17457550
C       5.33725751     -0.48200659      1.73836448
H       5.16692657      0.01575342      2.85938353
C       3.12568889      3.71836650    -10.75803011
H       5.15952446     -1.64241909      2.12456753
H       2.47968207      4.52649394    -11.21740874
H      -0.86847612     11.85846979     11.07133504
C      11.13497355     -5.24039909    -10.72778114
H     -12.19185904     -0.52442945     -3.24167484
H     -12.79593477     -2.26744939     -2.82108959
C     -22.42595913     -1.47822930     -2.17844534
H     -13.40427902     -1.40228646     -4.32016759
C      -1.93779008     -5.32072363     12.10065812
H     -23.10417586     -2.36324783     -2.18191936
H      -0.57847042     -5.43667768     10.21108151
H      -2.93245654     -4.96201605     12.60960734
C       3.78985992     -0.37766777      1.27014136
H      -2.57259602      2.88753766      2.58030495
C      -3.36247235      2.86028566      3.52449948
H       2.63282739     -0.39299126      1.03709550
H      -3.23416474      3.90953544      4.15588777
H      -3.14281338      1.91881884      4.28699622
H      -4.50099461      2.72506345      3.07560612
H      10.70556136     -4.15965249    -10.43534646
H      11.65756889     -5.40957887    -11.79370722
H      11.04179040     -6.15196590     -9.95428976
H       9.68304168      2.89143587     13.88139045
H       7.54720167      2.65023071     11.33692368
H      -0.54976136     -7.05913241     11.40172981
H      11.28601815      0.37266688     12.79593684
H      -8.70101793     -4.16259184     22.46177845
H       7.20404097      5.84580838      9.03770748
H      -2.34780038     13.34541530     23.06331745
H      10.02984419      4.91847807     10.73407380
H       9.98031375     -1.44260314     -1.28929173
H      -2.59913393     10.94627990     10.85420583
H      11.89122284     -1.30069731      1.35250219
H      22.75026404      0.04130417    -13.13509705
H       8.36442675     -2.32301416      2.75608307
H      25.95114173     -1.25922372     -0.91414507
H       9.18755177      3.76151142      9.47423261
C      17.28562262     -4.02390620     16.90142778
C      -0.59972799     -5.83283395     11.37286053
C       9.45827902      2.31870456     12.80265321
C       8.48238453      3.33930945     11.78547071
C      10.93580868      1.53043894     12.68004755
C       8.10464385      5.72168363      9.84109138
C       8.92663173      4.40881225     10.50034165
C      -2.07164786     12.05740453     10.90420055
C      -1.88445237     14.28807137     22.56370612
C       9.67914334     -1.56015384     -0.09847557
C      11.28671620     -1.05556667      0.30321636
C      12.55746127     -1.63275545     -0.45460686
C      25.65424051     -0.29178792     -1.55745192
C       7.97435851     -1.18092107      0.30395191
C       8.40176745     -1.42269924      1.93877485
H      25.20112132     -0.42093169     -2.66014452
H      -8.58587805     -3.25290788     -4.48313555
H      16.33763551     -3.74233566     17.45228753
H      -8.57271924     -3.49036836     22.83601772
H       0.43200542     -5.42816889     11.90075879
H      12.08918187      1.87807023     12.56416705
H       8.79889797      1.32060577     13.13142717
H       8.22341457      6.92488687      9.94195242
H      -1.31532370     15.26251586     22.28183055
H       7.72280951      4.00282054     12.51773354
H       9.82571762     -2.80508536     -0.03213959
H      -2.20219485     12.70906980      9.86809545
H      11.56799143      0.14633000      0.25160959
H      22.64136139      0.81136653    -13.19463002
H       8.89494963     -0.74907910      2.83859654
H      25.81045847      0.80479166     -1.09806617
H      -2.60635955     12.70455572     11.80604972
