   94
energy=      0.00000000
C       9.69106282     -6.51123676     -7.42111130
C      -0.13780948    -10.10099914     -9.64589185
H       9.74270251     -5.60979833     -6.57892416
C       2.07191407     -2.96032744      6.01736852
H     -18.89185999     -7.18329685     -1.80818867
H      -0.65501307     -9.35275901     -8.92485160
C       3.24800132     -3.37815178      7.17299538
H       8.89300799     -7.25712921     -6.82505781
H      -8.49954402     -6.32987055    -17.79465557
H      -8.49183283     -7.09926454    -17.66669690
C       8.69677213      3.44729220     -1.13269219
H      16.06815498      6.49024517     13.51608381
C       5.95181706     -4.67661239      4.84996348
H       8.69762335     12.50209589      3.26615678
H       6.36217585     -4.21732436      3.84672727
H       2.67436077     -9.94942219     15.78731110
C       3.97211799     -4.94978758      6.98007381
H       3.15071367     -5.79105723      6.57611995
C       7.88281436     13.06510723      5.68936579
H       3.95451646     -5.57558842      8.05623611
H       8.80217183     14.36267732      6.99540968
H       6.90404457     13.68542569      5.28954197
C       8.59118059     12.16771623      4.44858463
H      11.99394603      1.26948786     -2.17002802
C      10.84039524      1.62240414     -2.08407224
H       8.40091855      5.52765448     -1.07566276
H       7.99924495     11.10066665      4.24766583
H      -1.89889569     10.00514777     11.47760470
C      11.05223511     -7.26928384     -8.12267413
H       1.07500299     -2.40460868      6.46580376
H     -19.27118577     -7.16726916     -1.12682601
C      -4.44228487    -10.52006238      1.53588220
H       2.48332924     -3.55398456      8.13831206
C       1.64829807     -9.76575282     16.38009012
H      -5.25328707    -10.99095879      2.22487946
H     -10.70560917    -12.23110870     15.67909769
H       1.24358724     -8.64931173     16.54650682
C      -5.11400989      0.78841046     -7.74778308
H       4.06368366      7.98524866     -2.47339682
C       1.82016801      7.30420214     -2.23170906
H      -5.61817727      1.69498861     -8.27515064
H       1.31039211      7.97300883     -1.32455371
H       0.98143038      6.40421369     -2.30749382
H       1.32250319      7.93519455     -3.17479062
H      11.30767032     -6.96902222     -9.29927970
H      10.89641408     -8.43375252     -8.52492438
H      12.81943496     -7.82394944     -6.28044033
H       5.31919901     -0.40099837      5.74346833
H       3.53969923     -1.06614709      8.16340943
H       1.02694620    -10.69852455     16.80645246
H      10.38186064      1.13495891     -3.07681836
H      -9.42675544     -2.95204824     23.99740376
H       7.08030546     13.30175511      9.65261224
H       8.25276244     12.10355502      7.52790401
H       5.22239661     -2.27378493     10.13113989
H      23.68739798      6.18932909     -2.70616817
H      -3.93269374      8.92602337     11.13716834
H      24.37757154      6.33770482     -2.37443862
H       2.40878637     -3.80658759      3.61175573
H       5.67985041     -6.54145594      5.89685005
H       9.06223764     -5.73695874     -8.15049352
H       6.52704029     -2.14600964      8.93808192
C       1.78534317     -3.06579315      4.36748831
C     -10.10363326    -12.17420345     16.67336729
C       4.84932705     -1.11977169      6.54976130
C       4.18220263     -2.02572014      7.71276763
C       9.95666856      2.45532253     -1.00632046
C       8.03560682     13.73831720      8.99095479
C       5.31759384     -2.15156931      8.93027343
C      -2.91579674      9.46558950     11.30738613
C       8.21639531     13.32435063      7.32763541
C       4.73248604      5.88257234     -2.02597707
C       6.15045855      5.26815221     -1.50332706
C       7.62645244      4.64512732     -1.24393203
C      12.45253969     -7.16467094     -7.22580162
C       3.48138777      6.97483090     -2.16308242
C       5.45953706     -5.36747039      6.22451622
H       9.80940167     11.97527024      4.52978847
H      -0.20452130    -10.87114406    -10.51173722
H       0.68358008     -3.51141293      4.02931438
H      -9.29845674     -2.27982476     24.37164303
H      -9.50165738    -12.11729820     17.66763690
H      15.89232057      7.24369828     13.41713639
H      10.35349398      2.24395014      0.11000409
H       9.00332892     13.49635852      9.73934042
H       7.83353065     14.89134902      9.40033948
H      -4.60984251     -0.11816769     -7.22041552
H       4.63534101      5.12263996     -2.93467624
H      -7.32753058     20.54354438      9.86115128
H      -3.63128267    -10.04916597      0.84688493
H       1.95959232     -2.01723379      3.73887805
H       6.50346369     -5.29629554      6.88139265
H      13.38877002     -6.40006282     -7.29176709
H      -7.46074211     20.55216357     10.62964357
   94
energy=      0.00000000
C      10.79198250     -8.15506349     -8.93860654
C      -0.33777411    -10.13579701     -9.67917199
H      10.88737719     -7.28724128     -8.06172891
C       1.55161052     -3.46904406      7.54006586
H     -18.89185999     -7.18329685     -1.80818867
H      -0.58692702     -9.34835116     -8.85940682
C       2.73659576     -3.87836333      8.68936813
H       9.96285655     -8.87243839     -8.36114447
H      -8.53156068     -6.31648995    -17.82625171
H      -8.52384950     -7.08588394    -17.69829304
C       7.80106888      0.44809631     -2.53895754
H      16.07331129      6.48611777     13.52058838
C       5.43742794     -5.16884788      6.35822861
H       8.57606606     12.70371994      3.34225933
H       5.84578314     -4.70784126      5.35482147
H       2.55081598    -10.80423904     17.10531456
C       3.46080059     -5.44927657      8.49291120
H       2.64018228     -6.29134115      8.08871341
C       7.85905860     13.06728781      5.75074891
H       3.44426399     -6.07840052      9.56718059
H       9.20376546     14.16525404      7.03202969
H       6.81106905     13.63614970      5.46696559
C       8.53902254     12.20646430      4.47065261
H      11.68323644      1.68067034     -3.25321019
C      10.54121479      1.43684369     -3.55664573
H       5.66565367      0.99362715     -2.24738312
H       8.02231232     11.10097219      4.27172179
H      -1.89889633     10.00514901     11.47760457
C      12.16669916     -8.91922912     -9.61189998
H       0.54020816     -2.94746772      7.99703496
H     -19.27118577     -7.16726916     -1.12682601
C       3.90052193     -2.04338392     -1.81504748
H       1.98174625     -4.05022699      9.66307517
C       1.52475328    -10.62056967     17.69809358
H       2.92099401     -2.52122172     -1.38109392
H     -10.92357461    -12.26802621     15.67207362
H       1.12004245     -9.50412858     17.86451028
C      -5.29669487      0.64474710     -7.87005184
H       2.63515212     11.51245730     -2.67689392
C       0.17669961     10.75590127     -2.62560810
H      -5.80086224      1.55132525     -8.39741940
H      -0.23963749     11.32389630     -1.61396086
H      -0.49734933      9.72555263     -2.61455436
H      -0.28974711     11.34225590     -3.60423217
H      12.42795900     -8.61337137    -10.78605952
H      12.00418253    -10.09130083     -9.98868829
H      13.96260872     -9.52518384     -7.79724584
H       4.85283068     -0.94291357      7.23671995
H       3.03096483     -1.55304269      9.64497726
H       0.90340140    -11.55334139     18.12445591
H      10.77116898      1.46505891     -4.73285063
H      -9.42675544     -2.95204824     23.99740376
H       6.97928648     13.30795919      9.51405214
H       8.55642082     12.09418934      7.56198512
H       4.69450748     -2.76564327     11.64522159
H      23.68739798      6.18932909     -2.70616817
H      -3.93269438      8.92602461     11.13716822
H      24.37757154      6.33770482     -2.37443862
H       1.90940203     -4.27704574      5.12566606
H       5.17245522     -7.03200583      7.40420116
H      10.05872399     -7.47709987     -9.67085527
H       6.00744673     -2.61842446     10.46664856
C       1.27493009     -3.55182259      5.88727019
C     -10.32159872    -12.21112096     16.66634322
C       4.35960316     -1.64048851      8.04766986
C       3.67329980     -2.52315492      9.21720248
C       9.17793137      1.25854112     -2.68666443
C       7.98081291     13.77098525      8.94811890
C       4.79824736     -2.63874857     10.44566099
C      -2.91579546      9.46558701     11.30738638
C       8.36984080     13.29844352      7.34206235
C       2.68124852      9.30330048     -2.82118311
C       5.17060408     -1.12064549     -2.04077209
C       6.29088922     -0.01330401     -2.27825589
C      13.57626039     -8.84782107     -8.72328279
C       1.82164722     10.62021798     -2.68403939
C       4.94855004     -5.85950057      7.73422423
H       9.74378479     11.92902544      4.48258129
H      -0.11932844    -10.92439480    -10.50655224
H       0.18069270     -4.00242746      5.53211818
H      -9.29845674     -2.27982476     24.37164303
H      -9.71962283    -12.15421571     17.66061282
H      15.89747689      7.23957088     13.42164095
H       9.22889938      2.08637094     -1.82370369
H       8.84968081     13.57410880      9.81937601
H       7.71203785     14.94194648      9.25170244
H      -4.79252749     -0.26183104     -7.34268428
H       3.27385548      8.32868962     -3.06722060
H      -7.32753058     20.54354438      9.86115128
H       3.09600056     -2.88500892     -1.94532513
H       1.44103158     -2.49074911      5.27784804
H       5.99178034     -5.78147966      8.39145451
H      14.51350553     -8.08411112     -8.78608555
H      -7.46074211     20.55216357     10.62964357
