   94

C     -10.14112725     -1.72432019     -3.86110039
C      -8.65797805     -2.11689877     -3.08247531
H      -9.92888325     -1.04470370     -4.88647674
C     -11.47007038     -1.08216288     -2.97703402
H     -10.51645489     -2.66800847     -4.58603896
H      -7.94208535     -1.19376644     -2.66558464
C      -0.29171244     -1.79323605     -1.61241509
H      -8.65511751     -2.84636028     -2.08036859
H      -5.81946279     -4.71348561    -13.98310691
H      -5.81175160     -5.48287960    -13.85514824
C       0.86880197     -1.52964315     -2.64140802
H       0.07793881     -1.12013497     -3.49459535
C       2.27852791     -0.65306159     -2.22180261
H       0.95337136     -2.70649706     -3.00312785
H       2.25684484      0.44418884     -2.80685316
H       3.15605158     -0.93694309     -3.06058301
C       2.88791982     -0.54201186     -0.59908679
H       4.13278735     -0.61295167     -0.57702771
C       2.36887693      0.61643245      0.59578732
H       3.00507998     -1.69860159     -0.16167859
H       1.86835093      1.62131915      0.06814541
H       3.25621984      1.47217570      0.78063487
C       1.55295864      0.23299675      2.08964347
H       2.24857754      0.65317028      3.03230016
C       3.10166688      3.65598425    -10.58674142
H       1.89352459     -0.86256206      2.57168263
H       2.45566006      4.46411171    -11.04612010
H      -0.57356573     10.44907635     12.78792567
C      10.73503643     -4.86111299     -9.76333211
H     -11.36163531      0.04050322     -2.46121784
H     -11.92811838     -1.70769401     -2.00965991
C     -21.69531033     -1.47767095     -2.26611284
H     -12.57209778     -0.88674442     -3.51012537
C      -8.02600470      0.03015766     10.36014037
H     -22.37352706     -2.36268949     -2.26958687
H      -8.08601815      0.90413575      9.59414696
H      -7.96599089     -0.84381954     11.12613476
C      -0.15000304      0.43213235      2.38739387
H      -0.71356562      1.14661078      1.53907134
C      -0.86412763      0.88331686      3.89340460
H      -0.76451071     -0.55200625      1.93242861
H      -0.54875868      1.96225815      4.41919397
H      -0.76077268      0.13454100      4.87775725
H      -2.08719685      1.04534114      4.02880248
H      10.30562423     -3.78036640     -9.47089741
H      11.25763177     -5.03029276    -10.82925818
H      10.64185328     -5.77267981     -8.98984073
H       6.26365909      1.90312622     12.78314802
H       6.81267586      2.69546131     10.43578003
H       6.69302944     -9.52030894      8.97139342
H      17.27169964     -3.83365255     14.63543880
H      -8.70101793     -4.16259184     22.46177845
H       7.87444850      6.31239910      6.95640676
H      -2.24648033     10.86628126     15.52064147
H       8.38866696      5.32572388      9.83340351
H      14.46359985     -2.84275692      1.22626397
H      -2.27757617      9.64902979     12.79534823
H      16.89954531     -0.78975258      2.63834665
H      22.75064232      0.04121189    -13.13360711
H      11.12460817     -1.94270848      3.52284221
H      25.92933639     -1.26201420     -0.90793516
H       7.03521181      4.14367930      8.34569691
C      15.57455033     -2.34382005     15.51323801
C       6.74490290     -8.46291490      8.48827765
C       6.34965551      2.74371545     11.93184873
C       6.74017396      3.86717247     10.70927926
C      16.87431494     -2.70905394     14.71131158
C       7.73115804      5.78840774      8.02290093
C       7.41256268      4.75942039      9.33580168
C      -1.75287458     10.74833266     13.02426738
C      -2.12007883     11.54392491     14.49059148
C      14.77626743     -2.07713483      2.14059715
C      15.99904581     -0.95650050      1.81586973
C      16.89386964     -1.20863733      0.54224871
C      25.63274550     -0.29385267     -1.55035065
C      13.33511438     -1.54033493      2.61712761
C      11.90275773     -1.12724638      3.12521235
H      25.17965949     -0.42274908     -2.65303277
H      -7.76341423     -2.74753745     -3.66452472
H      14.62299503     -2.05439560     16.12073741
H      -8.57271924     -3.49036836     22.83601772
H       6.78222487     -7.41236553      7.98915151
H      17.51193625     -1.86589721     14.15400764
H       5.84111246      1.96989756     12.69420374
H       8.15148356      6.58000466      7.23238570
H      -1.32970757     12.39673710     14.91978495
H       6.19182725      4.78797673     11.32322250
H      15.01958065     -2.92284617      3.00445857
H      -2.02328864     11.31450227     11.95538407
H      15.71934844      0.21856284      1.58580097
H      22.64173966      0.81127425    -13.19314009
H      11.52956899      0.00672802      3.14278716
H      25.78847956      0.80332126     -1.09217555
H      -3.16823799     12.20114268     14.56549491
   94

C     -10.14463156     -1.72511956     -3.86333415
C      -8.66115435     -2.11750875     -3.08525604
H      -9.93257485     -1.04575440     -4.88891405
C     -11.47344060     -1.08262264     -2.97932590
H     -10.52018926     -2.66916065     -4.58769884
H      -7.94555736     -1.19443538     -2.66775152
C      -0.28161197     -1.77413131     -1.65313393
H      -8.65790020     -2.84751073     -2.08354953
H      -5.81948232     -4.71357736    -13.98350834
H      -5.81176822     -5.48297023    -13.85554291
C       0.87932351     -1.51085976     -2.68173862
H       0.08844053     -1.10205241     -3.53523136
C       2.28872121     -0.63361046     -2.26253213
H       0.96446660     -2.68791480     -3.04266992
H       2.26656216      0.46370442     -2.84741512
H       3.16644432     -0.91642057     -3.10144209
C       2.89867669     -0.52275204     -0.64011437
H       4.14341353     -0.59545849     -0.61743339
C       2.38092415      0.63728057      0.55352007
H       3.01460219     -1.67937951     -0.20251156
H       1.88062043      1.64233623      0.02601928
H       3.26864944      1.49272355      0.73777718
C       1.56525026      0.25426571      2.04730803
H       2.26110533      0.67505662      2.98949988
C       3.10445966      3.66317882    -10.60644887
H       1.90553511     -0.84106764      2.52995094
H       2.45836942      4.47130590    -11.06570950
H      -0.57542219     10.45218118     12.78984711
C      10.73525473     -4.86118286     -9.76364299
H     -11.36472366      0.03986063     -2.46318235
H     -11.93184509     -1.70829344     -2.01221080
C     -21.69886802     -1.47775273     -2.26586136
H     -12.57526290     -0.88649473     -3.51259646
C      -7.39304131     -0.47144431     10.45528086
H     -22.37708207     -2.36277333     -2.26933278
H      -7.34233612      0.40610562      9.61633739
H      -7.44010084     -1.31286057     11.25776356
C      -0.13778224      0.45280664      2.34317856
H      -0.70236538      1.16597352      1.49447382
C      -0.84854648      0.90656716      3.84957032
H      -0.75273119     -0.53170119      1.88970526
H      -0.53263065      1.98587471      4.37416886
H      -0.74462011      0.15795669      4.83390210
H      -2.07140442      1.06906425      3.98494600
H      10.30587797     -3.78041418     -9.47124122
H      11.25783951     -5.03038256    -10.82957030
H      10.64206086     -5.77273958     -8.99014223
H       6.31597048      1.92607203     12.79480151
H       6.82365537      2.70517389     10.40857339
H       6.02465918     -9.21090981      9.18738145
H      17.27175857     -3.83339006     14.63585928
H      -8.70140034     -4.16326099     22.46452467
H       7.84978428      6.29769889      6.94962350
H      -2.24773117     10.86957320     15.52232742
H       8.40313995      5.31388943      9.84374803
H      14.46508243     -2.84424233      1.22341480
H      -2.27991576      9.65318082     12.79634911
H      16.89968391     -0.78883111      2.63725715
H      22.75063556      0.04122206    -13.13379222
H      11.12610451     -1.94070310      3.51907701
H      25.93177515     -1.26173450     -0.90863906
H       7.04021828      4.13712972      8.35348262
C      15.57587112     -2.34293225     15.51422590
C       5.80550510     -8.13266269      8.80753991
C       6.35707468      2.76208815     11.93536520
C       6.74259653      3.87321004     10.70424088
C      16.87515949     -2.70851196     14.71169966
C       7.73301009      5.79818450      8.03162858
C       7.42331974      4.76077993      9.33713617
C      -1.75464977     10.75211034     13.02573274
C      -2.12224230     11.54724829     14.49218645
C      14.77850588     -2.07947917      2.13819434
C      16.00025376     -0.95760317      1.81403143
C      16.89542895     -1.21068169      0.54087292
C      25.63517085     -0.29363067     -1.55113081
C      13.33784151     -1.54254899      2.61581527
C      11.90586958     -1.12645276      3.12222607
H      25.18208594     -0.42254680     -2.65381544
H      -7.76642338     -2.74727302     -3.66801215
H      14.62383269     -2.05421944     16.12129931
H      -8.57305445     -3.49091654     22.83853083
H       6.16053944     -7.18735908      8.23002077
H      17.51269701     -1.86564587     14.15384498
H       5.81086140      2.00194534     12.68610372
H       8.17209208      6.60873423      7.27020254
H      -1.33243096     12.40074218     14.92104613
H       6.18979120      4.79638942     11.31186998
H      15.02258606     -2.92634280      3.00070838
H      -2.02431173     11.31867792     11.95687190
H      15.72016612      0.21722585      1.58320720
H      22.64173435      0.81128452    -13.19332656
H      11.53443654      0.00810371      3.13853475
H      25.79094678      0.80349583     -1.09285985
H      -3.17094838     12.20356248     14.56733400
   94

C     -10.14814321     -1.72580043     -3.86518445
C      -8.66434718     -2.11796480     -3.08761707
H      -9.93628276     -1.04669657     -4.89097639
C     -11.47677646     -1.08296490     -2.98116878
H     -10.52392894     -2.67019803     -4.58897098
H      -7.94905660     -1.19494307     -2.66949574
C      -0.27112959     -1.75522817     -1.69424379
H      -8.66069865     -2.84848028     -2.08629065
H      -5.81950319     -4.71366469    -13.98387711
H      -5.81178526     -5.48305639    -13.85590481
C       0.89025258     -1.49232210     -2.72244165
H       0.09932927     -1.08420836     -3.57622196
C       2.29944344     -0.61454138     -2.30372224
H       0.97588598     -2.66960919     -3.08250184
H       2.27683820      0.48279172     -2.88854238
H       3.17731297     -0.89638233     -3.14277478
C       2.91026457     -0.50391375     -0.68171675
H       4.15485167     -0.57857004     -0.65836539
C       2.39414328      0.65822373      0.51027384
H       3.02478699     -1.66052833     -0.24374071
H       1.89437035      1.66352485     -0.01724790
H       3.28241015      1.51317300      0.69400119
C       1.57843524      0.27591898      2.00386704
H       2.27452735      0.69725938      2.94562349
C       3.10726213      3.67037195    -10.62617406
H       1.91805599     -0.81920444      2.48732643
H       2.46108254      4.47849872    -11.08530801
H      -0.57780600     10.45475379     12.79156317
C      10.73547532     -4.86127619     -9.76389942
H     -11.36776974      0.03933132     -2.46468788
H     -11.93552031     -1.70876012     -2.01429312
C     -21.70238403     -1.47782670     -2.26557231
H     -12.57839476     -0.88613367     -3.51461492
C      -6.72790753     -0.99478194     10.55036273
H     -22.38059881     -2.36284675     -2.26904693
H      -6.59419324     -0.10893440      9.65594723
H      -6.96086758     -1.75792198     11.39765637
C      -0.12472463      0.47465883      2.29664726
H      -0.69019603      1.18609467      1.44711990
C      -0.83223098      0.93318981      3.80259417
H      -0.74037359     -0.51036560      1.84536389
H      -0.51550928      2.01292498      4.32566316
H      -0.72768302      0.18500332      4.78703857
H      -2.05484389      1.09655337      3.93754448
H      10.30613855     -3.78048407     -9.47152883
H      11.25804367     -5.03049355    -10.82983122
H      10.64227213     -5.77282080     -8.99038666
H       6.36986032      1.95054457     12.80569696
H       6.83555482      2.71500847     10.38135588
H       5.34689507     -8.83754353      9.38652896
H      17.27156084     -3.83334221     14.63604915
H      -8.70208052     -4.16368758     22.46717829
H       7.82490616      6.28247864      6.94356223
H      -2.24930819     10.87250431     15.52383534
H       8.41752666      5.30198817      9.85386570
H      14.46620847     -2.84598316      1.22085205
H      -2.28284970      9.65686610     12.79718013
H      16.89940682     -0.78809339      2.63634375
H      22.75062610      0.04123115    -13.13397262
H      11.12721183     -1.94040337      3.51659886
H      25.93420096     -1.26145515     -0.90933861
H       7.04547857      4.13034512      8.36114308
C      15.57684249     -2.34233922     15.51488034
C       4.88508047     -7.79775144      9.10461150
C       6.36491008      2.78013208     11.93870771
C       6.74548128      3.87892477     10.69896352
C      16.87573127     -2.70819134     14.71185297
C       7.73558407      5.80751444      8.03983302
C       7.43433937      4.76199183      9.33815989
C      -1.75693886     10.75538775     13.02701766
C      -2.12473526     11.55018776     14.49358851
C      14.78031770     -2.08209249      2.13611821
C      16.00100648     -0.95895328      1.81242816
C      16.89656413     -1.21286979      0.53971849
C      25.63757923     -0.29340929     -1.55190504
C      13.34002204     -1.54548553      2.61504253
C      11.90828822     -1.12723796      3.12016333
H      25.18449482     -0.42234523     -2.65459185
H      -7.76945356     -2.74685643     -3.67107983
H      14.62428426     -2.05439812     16.12149434
H      -8.57364570     -3.49120963     22.84091411
H       5.52651479     -7.02057241      8.50870362
H      17.51322246     -1.86558415     14.15354041
H       5.78204416      2.03504696     12.67771955
H       8.19250293      6.63685395      7.30881716
H      -1.33543533     12.40434160     14.92207016
H       6.18835925      4.80455427     11.30023376
H      15.02537138     -2.93015278      2.99718721
H      -2.02583427     11.32236636     11.95818231
H      15.72042709      0.21562019      1.58087638
H      22.64172618      0.81129371    -13.19350807
H      11.53844538      0.00785250      3.13518309
H      25.79339563      0.80366965     -1.09353760
H      -3.17395694     12.20564378     14.56901157
   94

C     -10.15156845     -1.72641376     -3.86660485
C      -8.66749543     -2.11830453     -3.08944000
H      -9.93989289     -1.04758588     -4.89261642
C     -11.48002452     -1.08324137     -2.98257637
H     -10.52756107     -2.67117583     -4.58981331
H      -7.95253221     -1.19532309     -2.67068812
C      -0.26049488     -1.73650761     -1.73534426
H      -8.66346223     -2.84929307     -2.08846224
H      -5.81952209     -4.71374625    -13.98420167
H      -5.81179957     -5.48313677    -13.85622246
C       0.90138564     -1.47401020     -2.76309118
H       0.11045125     -1.06658095     -3.61718458
C       2.31044555     -0.59581215     -2.34483761
H       0.98746554     -2.65154817     -3.12222580
H       2.28745262      0.50150152     -2.92968353
H       3.18845964     -0.87676299     -3.18400372
C       2.92214979     -0.48545994     -0.72323821
H       4.16657134     -0.56220797     -0.69912422
C       2.40775496      0.67910356      0.46683222
H       3.03511810     -1.64200649     -0.28470888
H       1.90888693      1.68472531     -0.06094257
H       3.29673152      1.53335916      0.65012473
C       1.59141827      0.29798664      1.96005039
H       2.28764759      0.71983071      2.90146597
C       3.11006084      3.67754996    -10.64587354
H       1.93004703     -0.79692967      2.44454224
H       2.46379174      4.48567652    -11.10488044
H      -0.58064114     10.45662826     12.79307359
C      10.73568469     -4.86138167     -9.76410805
H     -11.37073545      0.03886935     -2.46575852
H     -11.93910604     -1.70914449     -2.01592764
C     -21.70586762     -1.47789890     -2.26526145
H     -12.58142891     -0.88572149     -3.51622002
C      -5.99369343     -1.57676089     10.65326262
H     -22.38408572     -2.36291642     -2.26874199
H      -5.84173212     -0.65362213      9.72306995
H      -6.54834857     -2.13135444     11.51611083
C      -0.11194330      0.49783534      2.24888297
H      -0.67799203      1.20703974      1.39789955
C      -0.81739929      0.96337172      3.75314068
H      -0.72840078     -0.48787511      1.80030242
H      -0.49971620      2.04362590      4.27436601
H      -0.71170887      0.21605881      4.73794597
H      -2.03976046      1.12753878      3.88797755
H      10.30638933     -3.78056599     -9.47176678
H      11.25823427     -5.03061468    -10.83004587
H      10.64247223     -5.77291303     -8.99058183
H       6.42527960      1.97581746     12.81537964
H       6.84823474      2.72462740     10.35395823
H       4.61382780     -8.47946452      9.61327842
H      17.27113460     -3.83344079     14.63609112
H      -8.70294851     -4.16382660     22.46935916
H       7.79968665      6.26667910      6.93829904
H      -2.25113792     10.87498813     15.52514796
H       8.43165614      5.28983702      9.86379935
H      14.46707287     -2.84783725      1.21846330
H      -2.28627844      9.65989928     12.79785290
H      16.89884875     -0.78745492      2.63553893
H      22.75061345      0.04123943    -13.13414905
H      11.12800618     -1.94100021      3.51483861
H      25.93661581     -1.26117667     -0.91003451
H       7.05084864      4.12318083      8.36867122
C      15.57748303     -2.34197078     15.51527846
C       4.06181813     -7.46886409      9.37011364
C       6.37323745      2.79733254     11.94180727
C       6.74877237      3.88394196     10.69342900
C      16.87605164     -2.70802553     14.71185058
C       7.73875901      5.81624296      8.04752497
C       7.44544893      4.76288132      9.33889432
C      -1.75966801     10.75799471     13.02812083
C      -2.12747909     11.55263610     14.49476688
C      14.78182607     -2.08482768      2.13424009
C      16.00145552     -0.96043115      1.81096875
C      16.89741560     -1.21513394      0.53870311
C      25.63997433     -0.29318891     -1.55267466
C      13.34183057     -1.54879756      2.61458582
C      11.91025118     -1.12886919      3.11862813
H      25.18689005     -0.42214469     -2.65536345
H      -7.77242842     -2.74632589     -3.67358566
H      14.62434631     -2.05487717     16.12137341
H      -8.57439194     -3.49123022     22.84284008
H       4.84923333     -6.81956299      8.78830765
H      17.51352677     -1.86565261     14.15315293
H       5.75456900      2.06862751     12.66884426
H       8.21257041      6.66426137      7.34836936
H      -1.33863978     12.40743402     14.92281264
H       6.18745131      4.81202261     11.28839163
H      15.02797171     -2.93411110      2.99380431
H      -2.02778043     11.32538531     11.95930659
H      15.72033419      0.21387596      1.57870502
H      22.64171470      0.81130209    -13.19368544
H      11.54189655      0.00672424      3.13236563
H      25.79583051      0.80384239     -1.09421045
H      -3.17717645     12.20729545     14.57048888
   94

C     -10.15483305     -1.72702439     -3.86764311
C      -8.67054622     -2.11859843     -3.09073223
H      -9.94330797     -1.04848874     -4.89387839
C     -11.48315555     -1.08351447     -2.98366532
H     -10.53099602     -2.67216087     -4.59027910
H      -7.95593525     -1.19564655     -2.67132717
C      -0.25017189     -1.71784582     -1.77552431
H      -8.66615209     -2.85001912     -2.09007058
H      -5.81953014     -4.71381880    -13.98446646
H      -5.81180277     -5.48320821    -13.85648080
C       0.91229165     -1.45579839     -2.80273980
H       0.12146236     -1.04903505     -3.65724399
C       2.32118289     -0.57723768     -2.38467864
H       0.99886314     -2.63357158     -3.16098216
H       2.29788149      0.52006007     -2.96955452
H       3.19943687     -0.85728526     -3.22386606
C       2.93326056     -0.46724606     -0.76325692
H       4.17751735     -0.54604189     -0.73823158
C       2.42011421      0.69950490      0.42500152
H       3.04467636     -1.62369599     -0.32410671
H       1.92234882      1.70545698     -0.10321324
H       3.30984916      1.55301331      0.60794318
C       1.60245903      0.32005925      1.91771797
H       2.29861331      0.74245776      2.85892716
C       3.11283119      3.68467373    -10.66542529
H       1.94017800     -0.77461476      2.40329173
H       2.46648541      4.49279939    -11.12432467
H      -0.58373595     10.45781554     12.79443408
C      10.73585192     -4.86147654     -9.76425497
H     -11.37360897      0.03841938     -2.46652372
H     -11.94259518     -1.70950881     -2.01724209
C     -21.70933333     -1.47797384     -2.26494729
H     -12.58432577     -0.88532635     -3.51755292
C      -5.29057985     -2.17668191     10.78925866
H     -22.38755547     -2.36298825     -2.26843296
H      -5.03899160     -1.25082744      9.80233597
H      -6.12789229     -2.43380962     11.56590869
C      -0.10114931      0.52145161      2.20299448
H      -0.66737394      1.22825548      1.35013161
C      -0.80679802      0.99433718      3.70458758
H      -0.71817736     -0.46497426      1.75679496
H      -0.48841405      2.07518672      4.22400145
H      -0.69925463      0.24835203      4.69003735
H      -2.02897798      1.15842593      3.84043252
H      10.30659305     -3.78064059     -9.47193729
H      11.25838508     -5.03072307    -10.83019817
H      10.64262962     -5.77299517     -8.99071571
H       6.48173266      2.00099262     12.82335015
H       6.86126447      2.73361685     10.32620076
H       3.86939695     -8.11977326      9.84257997
H      17.27055612     -3.83360729     14.63607306
H      -8.70379815     -4.16366378     22.47052619
H       7.77391832      6.25013412      6.93393211
H      -2.25309624     10.87704737     15.52629748
H       8.44520730      5.27715368      9.87363291
H      14.46774925     -2.84969002      1.21615361
H      -2.28997970      9.66227249     12.79842114
H      16.89811210     -0.78684386      2.63478126
H      22.75059440      0.04124767    -13.13432059
H      11.12852322     -1.94195447      3.51338799
H      25.93902035     -1.26089720     -0.91072880
H       7.05601000      4.11542907      8.37608925
C      15.57787279     -2.34173527     15.51551968
C       3.26387383     -7.12920798      9.62399734
C       6.38180384      2.81307266     11.94457506
C       6.75223804      3.88780099     10.68764901
C      16.87618995     -2.70793761     14.71177660
C       7.74230998      5.82413454      8.05475180
C       7.45631998      4.76319288      9.33939669
C      -1.76264819     10.75994063     13.02908898
C      -2.13034127     11.55461005     14.49575067
C      14.78311480     -2.08756306      2.13245415
C      16.00171328     -0.96194133      1.80957700
C      16.89808878     -1.21741213      0.53775643
C      25.64235690     -0.29296765     -1.55344176
C      13.34337956     -1.55223518      2.61427541
C      11.91190171     -1.13085572      3.11732984
H      25.18927201     -0.42194328     -2.65613219
H      -7.77527983     -2.74575261     -3.67551454
H      14.62409420     -2.05555989     16.12102709
H      -8.57511737     -3.49100460     22.84385115
H       4.16869216     -6.61793308      9.06828811
H      17.51366605     -1.86578295     14.15273750
H       5.72793073      2.10198806     12.65911301
H       8.23206921      6.69073158      7.38903582
H      -1.34192264     12.41004356     14.92330808
H       6.18682554      4.81827752     11.27644626
H      15.03042303     -2.93808264      2.99047756
H      -2.02996126     11.32773380     11.96028605
H      15.72003079      0.21209524      1.57661175
H      22.64169657      0.81131040    -13.19385765
H      11.54496376      0.00521800      3.12980803
H      25.79825208      0.80401591     -1.09488038
H      -3.18047635     12.20853389     14.57177864
   94

C     -10.15792022     -1.72768760     -3.86844819
C      -8.67347450     -2.11892562     -3.09166889
H      -9.94650389     -1.04945702     -4.89490760
C     -11.48617572     -1.08383582     -2.98462076
H     -10.53421870     -2.67320623     -4.59051964
H      -7.95923190     -1.19599873     -2.67159022
C      -0.24048092     -1.69917235     -1.81400477
H      -8.66874887     -2.85075230     -2.09130192
H      -5.81951774     -4.71388109    -13.98466362
H      -5.81178593     -5.48326951    -13.85667223
C       0.92264145     -1.43757514     -2.84060578
H       0.13207675     -1.03141649     -3.69563360
C       2.33122846     -0.55864748     -2.42228397
H       1.00981382     -2.61552512     -3.19811251
H       2.30767306      0.53872050     -3.00702400
H       3.20986237     -0.83763196     -3.26140916
C       2.94287616     -0.44924150     -0.80068556
H       4.18698920     -0.52982666     -0.77464826
C       2.43012074      0.71884572      0.38636173
H       3.05295214     -1.60564763     -0.36110985
H       1.93323559      1.72506093     -0.14221770
H       3.32045210      1.57180143      0.56896723
C       1.61095282      0.34103504      1.87863412
H       2.30684730      0.76408848      2.81972604
C       3.11555738      3.69171433    -10.68473759
H       1.94834437     -0.75335711      2.36502946
H       2.46915950      4.49983753    -11.14356741
H      -0.58685815     10.45855426     12.79575070
C      10.73595327     -4.86154257     -9.76432887
H     -11.37640305      0.03793359     -2.46717639
H     -11.94600683     -1.70990710     -2.01842993
C     -21.71279653     -1.47805369     -2.26464046
H     -12.58708971     -0.88499816     -3.51880376
C      -4.66922578     -2.72164834     10.92608006
H     -22.39102180     -2.36306571     -2.26812842
H      -4.19646667     -1.87774895      9.87209548
H      -5.65359677     -2.71778808     11.56492527
C      -0.09287401      0.54345333      2.16213305
H      -0.65904391      1.24834825      1.30762565
C      -0.80057991      1.02108241      3.66128178
H      -0.70998002     -0.44346077      1.71704986
H      -0.48198692      2.10243352      4.17947095
H      -0.69132370      0.27643976      4.64747102
H      -2.02269203      1.18417057      3.79909015
H      10.30672083     -3.78069245     -9.47202587
H      11.25847582     -5.03080012    -10.83027530
H      10.64272081     -5.77305075     -8.99077892
H       6.53811098      2.02520169     12.82922961
H       6.87394683      2.74157830     10.29797468
H       3.13241459     -7.76086756     10.06880508
H      17.26990394     -3.83377595     14.63606290
H      -8.70441781     -4.16327772     22.47051962
H       7.74740035      6.23263320      6.93063376
H      -2.25505699     10.87883124     15.52737274
H       8.45778354      5.26357565      9.88354887
H      14.46830101     -2.85148195      1.21385843
H      -2.29370243      9.66421984     12.79896900
H      16.89726894     -0.78621350      2.63403046
H      22.75056627      0.04125643    -13.13448642
H      11.12884887     -1.94294729      3.51197985
H      25.94141688     -1.26061499     -0.91142336
H       7.06056338      4.10687879      8.38348533
C      15.57811102     -2.34154496     15.51569780
C       2.49449461     -6.78237205      9.86514375
C       6.38984473      2.82671275     11.94692107
C       6.75549409      3.89004650     10.68172593
C      16.87622487     -2.70786140     14.71169810
C       7.74600875      5.83092501      8.06164675
C       7.46653237      4.76264384      9.33981166
C      -1.76564906     10.76146642     13.03001308
C      -2.13319028     11.55627769     14.49664200
C      14.78426064     -2.09023737      2.13068849
C      16.00186016     -0.96342458      1.80820185
C      16.89865761     -1.21966420      0.53683007
C      25.64472914     -0.29274377     -1.55420821
C      13.34477028     -1.55564813      2.61399736
C      11.91336772     -1.13288714      3.11607434
H      25.19164261     -0.42173926     -2.65689985
H      -7.77797927     -2.74521744     -3.67703664
H      14.62363665     -2.05633794     16.12055496
H      -8.57564151     -3.49062234     22.84381832
H       3.49402264     -6.42098257      9.34769512
H      17.51370592     -1.86591749     14.15233283
H       5.70106162      2.13435416     12.64799933
H       8.25077895      6.71597973      7.43108234
H      -1.34517390     12.41234330     14.92368514
H       6.18607705      4.82282702     11.26454840
H      15.03276593     -2.94199723      2.98715197
H      -2.03214704     11.32965318     11.96121288
H      15.71961347      0.21034069      1.57454196
H      22.64166900      0.81131922    -13.19402377
H      11.54779096      0.00364749      3.12732322
H      25.80066238      0.80419197     -1.09554920
H      -3.18373972     12.20950515     14.57296744
   94

C     -10.16083412     -1.72842439     -3.86913418
C      -8.67626219     -2.11932386     -3.09241336
H      -9.94949255     -1.05050653     -4.89581634
C     -11.48908935     -1.08422290     -2.98555822
H     -10.53724597     -2.67432849     -4.59064873
H      -7.96239150     -1.19642650     -2.67164240
C      -0.23139534     -1.68053568     -1.85058057
H      -8.67123134     -2.85155034     -2.09233484
H      -5.81948099     -4.71393414    -13.98479286
H      -5.81174548     -5.48332167    -13.85679637
C       0.93239109     -1.41932125     -2.87654512
H       0.14221453     -1.01365514     -3.73214921
C       2.34052491     -0.54000129     -2.45753082
H       1.02027384     -2.59736044     -3.23357199
H       2.31670276      0.55759960     -3.04181121
H       3.21962283     -0.81764446     -3.29661146
C       2.95105608     -0.43158833     -0.83544106
H       4.19505854     -0.51360140     -0.80844910
C       2.43789672      0.73661665      0.35139302
H       3.06014728     -1.58809269     -0.39589399
H       1.94127890      1.74299841     -0.17715639
H       3.32850630      1.58940056      0.53357421
C       1.61784115      0.35957861      1.84350105
H       2.31346449      0.78330951      2.78447143
C       3.11824146      3.69867956    -10.70382535
H       1.95569713     -0.73453962      2.33022285
H       2.47181872      4.50679841    -11.16262789
H      -0.58986972     10.45911146     12.79709915
C      10.73598896     -4.86157619     -9.76433923
H     -11.37911644      0.03739230     -2.46782863
H     -11.94934763     -1.71036200     -2.01961144
C     -21.71627039     -1.47813865     -2.26434486
H     -12.58972888     -0.88474647     -3.52007883
C      -4.09526008     -3.19524294     11.02979813
H     -22.39449754     -2.36314922     -2.26783204
H      -3.42877545     -2.45323884      9.93073277
H      -5.13748326     -3.00140217     11.53742245
C      -0.08609637      0.56169700      2.12780607
H      -0.65233382      1.26572110      1.27257039
C      -0.79597812      1.03912435      3.62628041
H      -0.70280587     -0.42527556      1.68218034
H      -0.47748641      2.12073739      4.14405993
H      -0.68644817      0.29518074      4.61300997
H      -2.01809008      1.20140336      3.76585894
H      10.30677187     -3.78071850     -9.47204160
H      11.25850741     -5.03084226    -10.83028636
H      10.64274652     -5.77307719     -8.99078207
H       6.59290130      2.04790777     12.83288565
H       6.88547913      2.74823306     10.26925909
H       2.44123381     -7.41913509     10.28567191
H      17.26924155     -3.83390121     14.63610249
H      -8.70464671     -4.16283757     22.46959590
H       7.71998530      6.21399592      6.92861712
H      -2.25694698     10.88050945     15.52845128
H       8.46899449      5.24874876      9.89378608
H      14.46880718     -2.85319937      1.21153253
H      -2.29730936      9.66601929     12.79955210
H      16.89639031     -0.78553997      2.63325971
H      22.75052953      0.04126617    -13.13464779
H      11.12910813     -1.94381278      3.51046171
H      25.94381468     -1.26032846     -0.91212111
H       7.06410607      4.09737654      8.39099178
C      15.57828900     -2.34132976     15.51588463
C       1.77742254     -6.45067742     10.09391034
C       6.39617760      2.83773648     11.94874556
C       6.75807486      3.89034369     10.67582095
C      16.87622481     -2.70774950     14.71165856
C       7.74967573      5.83639747      8.06839407
C       7.47566052      4.76100247      9.34033671
C      -1.76853213     10.76284534     13.03095924
C      -2.13595678     11.55782834     14.49753111
C      14.78535554     -2.09283790      2.12889311
C      16.00197541     -0.96485418      1.80680762
C      16.89919668     -1.22187202      0.53588954
C      25.64710040     -0.29251569     -1.55497695
C      13.34611416     -1.55896659      2.61367997
C      11.91478414     -1.13479120      3.11474782
H      25.19401126     -0.42153104     -2.65766941
H      -7.78051339     -2.74475848     -3.67832415
H      14.62308115     -2.05711530     16.12004239
H      -8.57582991     -3.49023743     22.84297991
H       2.84477315     -6.23873497      9.62382059
H      17.51370495     -1.86601600     14.15196005
H       5.67253324      2.16499284     12.63486305
H       8.26853069      6.73973728      7.47482554
H      -1.34833995     12.41452447     14.92405589
H       6.18471030      4.82533023     11.25284641
H      15.03506785     -2.94583650      2.98378866
H      -2.03420201     11.33141892     11.96215573
H      15.71916679      0.20863992      1.57245669
H      22.64163240      0.81132899    -13.19418502
H      11.55053048      0.00218898      3.12479824
H      25.80307048      0.80437216     -1.09621974
H      -3.18691229     12.21037403     14.57414030
   94

C     -10.16357439     -1.72923622     -3.86974570
C      -8.67889298     -2.11980310     -3.09304495
H      -9.95228337     -1.05163558     -4.89664919
C     -11.49188466     -1.08467431     -2.98650696
H     -10.54008888     -2.67552584     -4.59070962
H      -7.96538928     -1.19694484     -2.67156688
C      -0.22265065     -1.66219892     -1.88561481
H      -8.67357753     -2.85243291     -2.09325622
H      -5.81942125     -4.71398109    -13.98485762
H      -5.81168280     -5.48336773    -13.85685606
C       0.94174116     -1.40120683     -2.91097011
H       0.15199246     -0.99589487     -3.76711397
C       2.34933753     -0.52149023     -2.49101041
H       1.03039176     -2.57925199     -3.26777626
H       2.32518520      0.57652768     -3.07446456
H       3.22888997     -0.79749563     -3.33016239
C       2.95849970     -0.41461156     -0.86829321
H       4.20241732     -0.49776388     -0.84051412
C       2.44465007      0.75266587      0.31929897
H       3.06691637     -1.57138536     -0.42928781
H       1.94763428      1.75916667     -0.20868638
H       3.33521389      1.60564621      0.50097630
C       1.62491177      0.37491908      1.81157140
H       2.32042786      0.79919930      2.75235949
C       3.12089044      3.70557747    -10.72271929
H       1.96369625     -0.71899857      2.29819354
H       2.47446551      4.51369064    -11.18152924
H      -0.59272549     10.45965083     12.79850517
C      10.73597355     -4.86158502     -9.76430504
H     -11.38172867      0.03679340     -2.46850393
H     -11.95260131     -1.71087496     -2.02081572
C     -21.71975252     -1.47822839     -2.26406242
H     -12.59223574     -0.88456362     -3.52139689
C      -3.57964659     -3.58335907     11.09637630
H     -22.39798075     -2.36323814     -2.26754619
H      -2.83793406     -2.86473728      9.95511982
H      -4.63534857     -3.30065599     11.53332746
C      -0.07901733      0.57553929      2.09832897
H      -0.64584398      1.27962853      1.24348150
C      -0.78939875      1.04880986      3.59820107
H      -0.69518543     -0.41115039      1.65123462
H      -0.47106124      2.13043380      4.11618756
H      -0.68037414      0.30445621      4.58480089
H      -2.01148305      1.21104619      3.73885336
H      10.30676301     -3.78072500     -9.47200554
H      11.25849324     -5.03085687    -10.83025085
H      10.64272165     -5.77308227     -8.99074440
H       6.64459918      2.06895987     12.83444130
H       6.89518642      2.75344116     10.24012415
H       1.85630735     -7.12919847     10.48700505
H      17.26861250     -3.83395175     14.63621242
H      -8.70444335     -4.16252334     22.46825370
H       7.69159846      6.19404368      6.92805944
H      -2.25873707     10.88218614     15.52956711
H       8.47848692      5.23240111      9.90458102
H      14.46932061     -2.85484533      1.20916443
H      -2.30076444      9.66784106     12.80018402
H      16.89552109     -0.78481514      2.63246287
H      22.75048638      0.04127702    -13.13480618
H      11.12938689     -1.94449688      3.50879391
H      25.94621642     -1.26003717     -0.91282220
H       7.06628697      4.08682735      8.39875987
C      15.57847219     -2.34103979     15.51612251
C       1.15450351     -6.17900025     10.31775076
C       6.39951541      2.84577792     11.94996725
C       6.75954594      3.88849855     10.67012876
C      16.87623729     -2.70756921     14.71167872
C       7.75317158      5.84039847      8.07516559
C       7.48331617      4.75812433      9.34117878
C      -1.77125244     10.76424066     13.03194934
C      -2.13861576     11.55937690     14.49845879
C      14.78645921     -2.09536727      2.12705322
C      16.00210771     -0.96622133      1.80538422
C      16.89975105     -1.22402818      0.53492366
C      25.64947358     -0.29228291     -1.55574823
C      13.34748056     -1.56216924      2.61330081
C      11.91623445     -1.13650753      3.11332137
H      25.19638115     -0.42131819     -2.65844122
H      -7.78287370     -2.74438736     -3.67946718
H      14.62251174     -2.05781468     16.11954804
H      -8.57565062     -3.48999972     22.84178365
H       2.26082887     -6.09474188      9.89226902
H      17.51370405     -1.86605032     14.15162545
H       5.64094693      2.19322756     12.61905562
H       8.28522347      6.76173653      7.52054123
H      -1.35140107     12.41670086     14.92447159
H       6.18226689      4.82560578     11.24149524
H      15.03737438     -2.94959945      2.98037991
H      -2.03608292     11.33319656     11.96313845
H      15.71874183      0.20700247      1.57034552
H      22.64158899      0.81133985    -13.19434284
H      11.55328385      0.00090786      3.12220521
H      25.80547907      0.80455696     -1.09689216
H      -3.18997669     12.21124228     14.57533880
   94

C     -10.16617225     -1.73010984     -3.87028705
C      -8.68139266     -2.12034966     -3.09358053
H      -9.95491780     -1.05282995     -4.89741188
C     -11.49457107     -1.08517782     -2.98743950
H     -10.54278612     -2.67678363     -4.59070445
H      -7.96824907     -1.19753907     -2.67138674
C      -0.21396773     -1.64423992     -1.91990702
H      -8.67580285     -2.85338341     -2.09408114
H      -5.81934620     -4.71402653    -13.98487504
H      -5.81160519     -5.48341218    -13.85686772
C       0.95096895     -1.38332366     -2.94468753
H       0.16162922     -0.97826702     -3.80130299
C       2.35802166     -0.50323074     -2.52372965
H       1.04039160     -2.56132780     -3.30142869
H       2.33348272      0.59532075     -3.10612535
H       3.23797398     -0.77742028     -3.36306894
C       2.96589929     -0.39827712     -0.90039950
H       4.20974028     -0.48247315     -0.87197994
C       2.45146659      0.76759554      0.28846703
H       3.07376724     -1.55543176     -0.46225205
H       1.95371321      1.77423459     -0.23859768
H       3.34183426      1.62093204      0.46962456
C       1.63286393      0.38809686      1.78106718
H       2.32846603      0.81274773      2.72161617
C       3.12352140      3.71243365    -10.74150412
H       1.97265486     -0.70570652      2.26736598
H       2.47710651      4.52054067    -11.20033973
H      -0.59546728     10.46017747     12.79995303
C      10.73592892     -4.86158443     -9.76424051
H     -11.38424034      0.03614598     -2.46916965
H     -11.95576488     -1.71143419     -2.02200951
C     -21.72323228     -1.47832205     -2.26378601
H     -12.59462419     -0.88443496     -3.52271937
C      -3.11554671     -3.89578989     11.12917590
H     -22.40146168     -2.36333093     -2.26726497
H      -2.33770698     -3.16683236      9.94608864
H      -4.17402135     -3.59119413     11.54745771
C      -0.07099989      0.58674930      2.07070338
H      -0.63887866      1.29122422      1.21682986
C      -0.78035171      1.05455367      3.57304174
H      -0.68669829     -0.39956727      1.62208497
H      -0.46213547      2.13612664      4.09134674
H      -0.67153115      0.30919260      4.55905275
H      -2.00235003      1.21702656      3.71469347
H      10.30672069     -3.78072453     -9.47193602
H      11.25845261     -5.03085989    -10.83018408
H      10.64266756     -5.77307976     -8.99067844
H       6.69323417      2.08911140     12.83436658
H       6.90330721      2.75757121     10.21082064
H       1.35497611     -6.89002003     10.67275394
H      17.26798402     -3.83394432     14.63636680
H      -8.70386406     -4.16238593     22.46675265
H       7.66236059      6.17284634      6.92893757
H      -2.26044927     10.88385558     15.53070732
H       8.48637144      5.21471999      9.91595109
H      14.46980880     -2.85645670      1.20679944
H      -2.30410911      9.66967408     12.80084242
H      16.89463063     -0.78407149      2.63166894
H      22.75043882      0.04128800    -13.13496135
H      11.12964903     -1.94508989      3.50707952
H      25.94861603     -1.25974398     -0.91352255
H       7.06720026      4.07542289      8.40687285
C      15.57863967     -2.34068846     15.51639135
C       0.59814871     -5.96675010     10.57842191
C       6.39985028      2.85122994     11.95078268
C       6.75999484      3.88486853     10.66478723
C      16.87623698     -2.70733500     14.71173407
C       7.75657137      5.84312949      8.08195868
C       7.48957072      4.75425379      9.34240253
C      -1.77385537     10.76564231     13.03296903
C      -2.14119085     11.56092012     14.49941356
C      14.78753948     -2.09786103      2.12521331
C      16.00222369     -0.96756161      1.80396378
C      16.90029008     -1.22616250      0.53396365
C      25.65184353     -0.29204828     -1.55651829
C      13.34883088     -1.56531466      2.61291456
C      11.91767698     -1.13813127      3.11187512
H      25.19874759     -0.42110351     -2.65921171
H      -7.78509595     -2.74408993     -3.68049729
H      14.62191802     -2.05843987     16.11906311
H      -8.57515278     -3.48994255     22.84045500
H       1.71178230     -5.97956043     10.15420716
H      17.51368246     -1.86603537     14.15130946
H       5.60639019      2.21943355     12.60065914
H       8.30095868      6.78199622      7.56824568
H      -1.35438270     12.41887084     14.92492210
H       6.17881768      4.82404248     11.23056879
H      15.03965078     -2.95332261      2.97697074
H      -2.03783415     11.33498115     11.96414903
H      15.71830717      0.20539324      1.56823919
H      22.64154096      0.81135082    -13.19449723
H      11.55602917     -0.00028390      3.11961204
H      25.80788357      0.80474357     -1.09756302
H      -3.19295779     12.21210412     14.57655591
   94

C     -10.16898339     -1.73112646     -3.87029054
C      -8.68424883     -2.12106696     -3.09332211
H      -9.95753201     -1.05422548     -4.89762372
C     -11.49756207     -1.08564961     -2.98810590
H     -10.54572616     -2.67834502     -4.58993823
H      -7.97160075     -1.19847059     -2.66983207
C      -0.20565126     -1.62616744     -1.95424777
H      -8.67845857     -2.85470925     -2.09425345
H      -5.81897388     -4.71388083    -13.98432405
H      -5.81126269     -5.48327482    -13.85636538
C       0.96012910     -1.36543617     -2.97816402
H       0.17141245     -0.96082509     -3.83550410
C       2.36618570     -0.48441901     -2.55601960
H       1.05096817     -2.54337129     -3.33474526
H       2.34092593      0.61495955     -3.13673163
H       3.24678782     -0.75547760     -3.39571200
C       2.97169540     -0.38237231     -0.93164491
H       4.21541661     -0.46820563     -0.90218692
C       2.45555829      0.78100589      0.25918708
H       3.07898221     -1.54015821     -0.49501378
H       1.95608737      1.78772808     -0.26612259
H       3.34538427      1.63524353      0.43914581
C       1.63892002      0.39861071      1.75241030
H       2.33494180      0.82395421      2.69231970
C       3.12568889      3.71836649    -10.75803010
H       1.98098869     -0.69500745      2.23773567
H       2.47968207      4.52649394    -11.21740874
H      -0.59851731     10.45982004     12.80179867
C      10.73503643     -4.86111299     -9.76333211
H     -11.38701202      0.03545186     -2.46941631
H     -11.95957998     -1.71198441     -2.02311128
C     -21.72680942     -1.47841931     -2.26349800
H     -12.59707481     -0.88389435     -3.52413203
C      -2.07771750     -4.65900006     11.20921517
H     -22.40502616     -2.36343784     -2.26697203
H      -0.92347721     -4.22726896     10.03609740
H      -3.10297247     -4.08479466     11.35230372
C      -0.06469414      0.59282068      2.04886635
H      -0.63478068      1.29851000      1.19741951
C      -0.77106714      1.04779061      3.55719891
H      -0.67958645     -0.39245861      1.59674949
H      -0.45353086      2.12930777      4.07634828
H      -0.66194859      0.30007759      4.54179699
H      -1.99289780      1.21022373      3.70133945
H      10.30562423     -3.78036640     -9.47089741
H      11.25763177     -5.03029276    -10.82925818
H      10.64185328     -5.77267981     -8.98984073
H       6.78344690      2.12071672     12.82788094
H       6.92090354      2.76712841     10.15585528
H       0.13895905     -6.09017153     10.87194342
H      17.26679876     -3.83395819     14.63681273
H      -8.70101793     -4.16259184     22.46177845
H       7.60315951      6.11766060      6.92801070
H      -2.26208718     10.88513886     15.53210259
H       8.49259843      5.18425865      9.93956665
H      14.47042598     -2.85827083      1.20419588
H      -2.30795510      9.67102398     12.80172401
H      16.89313666     -0.78186478      2.63117472
H      22.75027564      0.04130136    -13.13505153
H      11.13052923     -1.94537367      3.50563589
H      25.95111099     -1.25937091     -0.91423970
H       7.06012832      4.05320042      8.42826662
C      15.57843068     -2.34052344     15.51664515
C      -0.62943323     -5.16871787     10.72273560
C       6.39530822      2.85504975     11.95479367
C       6.76158207      3.87581547     10.66047783
C      16.87598639     -2.70699806     14.71183990
C       7.75905327      5.84525587      8.09163624
C       7.49239047      4.75031536      9.34777311
C      -1.77672143     10.76644072     13.03425014
C      -2.14392062     11.56202985     14.50056481
C      14.78916889     -2.10088650      2.12325536
C      16.00217654     -0.96864575      1.80264941
C      16.90015819     -1.22871334      0.53290069
C      25.65427614     -0.29179212     -1.55737352
C      13.35093600     -1.56883278      2.61267688
C      11.91993471     -1.13983017      3.11035538
H      25.20115812     -0.42088735     -2.66006185
H      -7.78759295     -2.74356163     -3.68103757
H      14.62079912     -2.05938634     16.11838530
H      -8.57271924     -3.49036836     22.83601772
H       0.50317923     -5.49029687     10.48616914
H      17.51348124     -1.86595331     14.15105036
H       5.53111334      2.26438889     12.55533108
H       8.33162662      6.81082553      7.65963572
H      -1.35759974     12.42077477     14.92538485
H       6.17272872      4.81754915     11.21785669
H      15.04315782     -2.95824680      2.97257511
H      -2.03958619     11.33626318     11.96540951
H      15.71758980      0.20402511      1.56632232
H      22.64137299      0.81136372    -13.19458450
H      11.56038972     -0.00130300      3.11653900
H      25.81039357      0.80490434     -1.09822365
H      -3.19617904     12.21238953     14.57802638
