   94
energy=      0.00000000
C      -5.40434226     -0.56803251     -1.02614829
C      -3.90383872     -0.62111195     -0.23713775
H      -5.43948530      0.06645429     -2.10046317
C      -6.55839892     -0.26746082      0.20737653
H      -5.56901128     -1.48335277     -1.85997562
H      -3.66917582      0.61200981     -0.14056080
C      -2.36961273     -1.04199715      0.20162738
H      -4.02190318     -1.82818331      0.01914460
H      -6.00107002     -3.73394695    -11.08085471
H      -5.99335883     -4.50334095    -10.95289605
C      -1.21686524     -1.01321115     -1.01079572
H      -1.71668528     -0.14493161     -1.72348332
C       0.35482993     -0.61563940     -1.53793150
H      -1.35626882     -2.22159125     -1.23760645
H       0.36507250      0.10489963     -2.55776631
H       0.70230119     -1.47084969     -2.37462977
C       1.55968358     -0.11306782     -0.42171857
H       2.47771320      0.50984449     -1.01418846
C       1.14053659      0.66931253      1.08180360
H       2.36718565     -1.06994457     -0.37544077
H       0.76568816      1.78526358      0.65999334
H       2.29438488      0.53430436      1.51780594
C       0.27190368      0.57323329      2.60984137
H       1.19851572      1.03301177      3.28637501
C       3.24234319      3.50504662    -10.56323360
H       0.18687208     -0.66746167      2.69257110
H       2.59633639      4.31317411    -11.02261235
H      10.33279905     -4.53428062     -8.94662119
C      11.42198583     -4.23072006     -8.45913364
H      -6.39297313      0.84659670      0.73434967
H      -6.48985095     -1.05495918      1.17134857
C      -8.19606081     -0.26492357      0.01295288
H      -8.90489665      0.68178711     -0.23037702
C      -1.03468994      1.15805035      3.65538064
H      -8.95911825     -1.19321632      0.13583728
H      -0.87150106      2.38996905      3.74590469
H      -0.70611078      0.78439342      4.80033153
C      -2.77733274      1.05202904      3.81017019
H      -3.15145054      1.83123215      2.91025483
C      -4.12855780      1.20829968      4.88692964
H      -2.94088429     -0.16858564      3.73121200
H      -4.20755104      2.22352148      5.59140651
H      -4.34930113      0.35643020      5.76509635
H      -5.32039593      1.21395818      4.52118200
H      11.36912993     -3.08402903     -8.01368230
H      12.29161373     -4.29221520     -9.32866604
H      11.69440061     -5.01235538     -7.54756502
H       8.25801322     -1.13802236      9.51390964
H       5.11031657     -0.94887998     11.18679631
H       8.54346094     -1.48958867      6.54481960
H      11.27298603     -1.34579634      7.68375506
H       5.50434939     -1.23212978      8.28345537
H      12.58454348     -0.19622900      2.57438774
H      -0.57035686      6.69003769     15.00317771
H      15.31540966      0.00790440      3.68230388
H      15.56199170     -0.52463601      0.73829888
H      -0.30902841      5.38441903     12.31337892
H      18.21532509     -0.29567492      1.97781111
H      18.23423992     -0.76427247     -0.99340848
H      -8.97677746     -0.44350135     18.73299670
H      21.02087251     -0.65523075      0.10892714
H      -9.67560273     -1.06425409     15.36149228
C       7.83568874     -0.31355347      8.68068524
C       8.80344783     -0.51194699      7.26600540
C       6.11699107     -0.30189306      8.83340773
C       5.47408131     -0.13086615     10.37021514
C      10.46722140     -0.47079342      7.45141002
C      13.38476083      0.71408790      2.55975577
C      15.05356742      0.72851607      2.70386229
C      -0.28634065      6.56960110     12.55077486
C      -0.42710785      7.37990230     13.99133105
C      16.01712342      0.49998309      1.28354750
C      17.75078777      0.46845360      1.10851653
C      18.64887364      0.23327556     -0.36733733
C      20.36989083      0.20895629     -0.49871060
C      -9.49568076     -0.52128943     16.37675227
C      -9.10752159      0.18432175     17.72453296
H      20.95070930      0.03777180     -1.58176360
H      -2.41293704     -1.50887561      1.34099202
H       8.24481429      0.71962372      9.24398386
H       5.27892404      0.84976106     11.05559731
H       8.52952709      0.21377524      6.29547441
H      11.25193595      0.45282769      7.46175210
H       5.49331226      0.47900200      8.09504602
H      12.58625282      1.60225781      2.35312748
H       0.54749879      8.06941860     14.30270120
H      15.32520080      1.71247253      3.41314389
H      15.56380769      1.30539415      0.44676779
H      -0.13408368      6.99416395     11.42878829
H      18.21920066      1.46141092      1.70001410
H      18.23771876      0.99082366     -1.27068118
H      -8.89510411      1.35948531     17.77255509
H      21.02497037      1.21500156     -0.18479919
H      -1.39361839      8.14511180     14.04456288
   94
energy=      0.00000000
C      -5.60205313     -0.58170644     -0.92776175
C      -4.01476811     -0.87491763     -0.31046499
H      -5.63284580      0.16042537     -1.93036333
C      -6.84992569     -0.20677877      0.21375924
H      -5.90007071     -1.42410687     -1.79661024
H      -3.70701214      0.29674854     -0.05190016
C      -2.37646297     -1.28429167     -0.36437176
H      -4.25290112     -1.96877006      0.21946251
H      -6.00107242     -3.73394911    -11.08085477
H      -5.99336123     -4.50334310    -10.95289611
C      -1.15747024     -1.17905296     -1.51451366
H      -1.74989127     -0.57023234     -2.41507047
C       0.46532810     -0.58159357     -1.52288496
H      -1.21248255     -2.37018728     -1.86767960
H       0.54561140      0.30187559     -2.40170152
H       1.07720371     -1.35796639     -2.29125798
C       1.46707437     -0.10777294     -0.17686040
H       2.51510332      0.33687324     -0.69780658
C       1.10444354      0.86252284      1.24147850
H       2.10043082     -1.12756398      0.16372304
H       0.56426334      1.88924425      0.79958913
H       2.17124965      1.45986635      1.49158917
C       0.41302175      0.54114597      2.82780092
H       1.39152640      0.46116697      3.59409800
C       3.24231175      3.50508117    -10.56324283
H       0.30292332     -0.69077844      2.91635859
H       2.59630495      4.31320867    -11.02262158
H      10.33254329     -4.53341522     -8.94656194
C      11.42199937     -4.23073302     -8.45912992
H      -6.71363004      0.89246587      0.77711017
H      -6.83037723     -0.82712560      1.29049212
C      -8.47598115     -0.27072178     -0.14726349
H      -9.23834319      0.60596563     -0.48781946
C      -0.87642678      1.25729591      3.79841617
H      -9.25275920     -1.19954518     -0.12602635
H      -0.68680460      2.48906377      3.82567858
H      -0.58427494      1.15160534      5.00477436
C      -2.61145806      1.04908117      3.83425376
H      -3.00236900      1.69966278      2.84929683
C      -3.88793443      1.30045126      4.98233522
H      -2.82043620     -0.14377279      3.56723959
H      -3.93767782      2.34106256      5.65387573
H      -4.07499637      0.49887344      5.91251562
H      -5.09081975      1.34489144      4.66739150
H      11.36822844     -3.08404599     -8.01377772
H      12.29196970     -4.29298493     -9.32826590
H      11.69525605     -5.01248593     -7.54791414
H       6.21888403     -2.27531351     12.58713040
H       2.88192701     -2.08309799     14.11317919
H       6.48849991     -2.83327211      9.65753241
H       9.26353347     -2.53934833     10.48183967
H       3.47957191     -2.48906033     11.29310075
H      10.28595689      2.17143365      1.40395949
H      -1.40739228      7.68071233     15.37804904
H      11.55324112      2.18516206      5.08858929
H      12.59849090     -1.13434630      2.59618292
H      -1.13684307      6.36941302     12.68369164
H      15.08684185     -0.55505776      2.59929721
H      15.40278741     -0.61500571      0.08536600
H       8.59758590      0.27323274      5.02610137
H      18.27868249     -0.25595573      0.64051311
H      10.56563627     -0.62464607      3.21146027
C       5.77823179     -1.52293391     11.69694468
C       6.73564088     -1.78928356     10.28388644
C       4.05455556     -1.51892401     11.81356808
C       3.31352529     -1.29657465     13.29875845
C       8.40532033     -1.69131610     10.37001985
C      10.82512875      2.60653995      2.40033159
C      11.10657473      2.03615366      3.94040808
C      -1.11564734      7.55454824     12.92132528
C      -1.25835296      8.36359619     14.36235589
C      12.85553581     -0.00608066      3.03024408
C      14.38875955      0.31277640      2.06768156
C      15.64868257      0.39897407      0.76079824
C      17.35841419      0.49742284      0.27757279
C      11.17801750      0.35365858      3.65607109
C       9.66485603      0.21850235      4.47969028
H      17.79725021      0.40873525     -0.89198497
H      -1.96389143     -1.85611445      0.63930657
H       6.18151905     -0.47326878     12.23227627
H       3.05876257     -0.29445017     13.93122983
H       6.42348546     -1.12713461      9.28068113
H       9.15817547     -0.74147723     10.37252510
H       3.45621487     -0.75645563     11.03601744
H      11.22956294      3.59105337      1.84467974
H      -0.27667930      9.04855674     14.66167583
H      10.80475800      3.04400251      4.59051087
H      13.36232799      0.00902396      4.15982595
H      -0.96001671      7.98095921     11.80041450
H      14.31444567      1.54001239      2.12893387
H      15.37263036      1.42130070      0.11228345
H       8.59669964      0.30384372      5.02131947
H      18.13981327      1.45786327      0.41465844
H      -2.22763113      9.12464433     14.42390066
