   94
energy=      0.00000000
C      -8.69226271     -4.50961437     -4.44459102
C      -7.54520888     -5.02588788     -3.44473452
H      -9.44211765     -4.08280167     -5.23999218
C     -18.91955235     -0.16244778     -3.18197887
H     -18.22674294     -0.86148126     -3.92207910
H      -7.02961867     -4.06177074     -2.88662240
C       8.88821860     -2.40208236      8.32649518
H      -7.93148442     -5.77640312     -2.55298528
H      -7.27585245     -5.66043188    -16.87510334
H      -7.26814126     -6.42982587    -16.74714467
C       1.80740076    -11.79285361     -5.09264461
H       1.37670235    -10.75860327     -5.40730372
C       8.52982651     -2.97720476      6.90178105
H       2.23809898    -12.82710409     -4.77798574
H       9.23961616     -2.24172176      6.21586342
H       7.49300209     -2.34045797      6.70869433
C       8.57987659     -4.66997157      6.74759667
H       7.65060329     -5.08788983      6.04142559
C       5.55250652      0.42464458     -4.00916061
H       8.20941310     -5.27084873      7.76778970
H       5.54656972      0.87219424     -5.15771628
H       5.88809943      1.44004589     -3.39323684
C       4.13783163     -0.35953393     -3.50250579
H       3.88550766     -0.35697884     -2.29389103
C       6.77725769      9.35277083    -15.75254447
H       4.05740353     -1.58477593     -3.63120107
H       6.13125099     10.16089785    -16.21192283
H      -0.78406109     12.43966165     11.34235302
C      12.37234461     -6.91729667    -13.67192055
H     -18.33528361      0.85678928     -2.81362485
H     -19.19648550     -0.82101752     -2.17920272
C      -3.10033549      3.75614053    -11.30010124
H     -19.92163337      0.17830309     -3.81098744
C      -2.53438143     -5.57793971     12.53342591
H      -4.26558618      3.69117039    -11.02455721
H      -1.16041057     -5.71854583     10.63518906
H      -3.51063146     -5.20316815     13.06581861
C       2.77003574      0.16166429     -4.18694317
H      -2.50866017      3.02657893      3.09390949
C      -3.30944052      3.02459996      4.02925324
H       1.80625600      0.57654139     -4.71767812
H      -3.20931895      4.07882917      4.65750278
H      -3.06548412      2.07679287      4.77642660
H      -4.45429885      2.91619888      3.58917411
H      11.94284700     -5.83658463    -13.37948360
H      12.89496904     -7.08642857    -14.73783996
H      12.27921779     -7.82887681    -12.89843808
H       9.02108563      5.92646584     16.64375673
H       7.24510009      4.46399534     14.31804154
H      -1.13387713     -7.31716791     11.80917127
H      11.05924299      3.30198840     16.10723689
H      -8.70101793     -4.16259184     22.46177845
H       6.82753171      5.96984282     11.08116157
H      -2.36291169     13.39637997     23.39419157
H       9.96768292      5.70673460     12.59960419
H       8.60539201     -1.17388317     -5.62116277
H      -2.54110779     11.50732051     11.04825392
H      17.13543744      0.25457624     -4.19733325
H      -2.43751038      2.75777266    -11.34295144
H      10.15313213     -6.43649671      5.58414979
H      28.39631622     -1.45123591     -0.08528841
H       9.10519225      4.23844594     12.22480982
C      17.30322965     -4.04092092     16.91429424
C      -1.19749470     -6.09117441     11.80433548
C       9.03620799      4.97049113     15.84983682
C       8.20999404      5.25170158     14.35741960
C      10.60693222      4.41630626     15.96466056
C       7.92271017      6.15623781     11.56730578
C       8.79577634      5.32869034     12.73564037
C      -1.98619607     12.60329839     11.13207811
C      -1.84356060     14.36071001     23.00109204
C       8.13874807     -1.29543576     -4.52702571
C      17.14962446      0.75854767     -5.27608416
C      17.83340322     -0.00762152     -6.42323090
C      28.09941500     -0.48380011     -0.72859526
C       6.94351863     -0.38023637     -4.07075894
C       9.97198212     -5.44228619      6.25030910
H      27.64629582     -0.61294388     -1.83128786
H      -6.70842078     -5.65455414     -4.08586991
H      16.35524265     -3.75935048     17.46515407
H      -8.57271924     -3.49036836     22.83601772
H      -0.19426440     -5.66161483     12.36659717
H      11.66558182      5.00500318     15.96634514
H       8.42178937      4.24832898     16.65413569
H       8.14551302      7.16763761     10.93874195
H      -1.32420950     15.32504006     22.60799255
H       7.54792866      6.28902682     14.54138633
H       8.52394140     -2.20158017     -3.85341284
H      -2.13806236     13.22191675     10.07833764
H      16.71518028      1.84525182     -5.49659672
H      -2.59738489      4.81950699    -11.53291921
H      11.14392658     -5.21456383      6.44146595
H      28.25563296      0.61277947     -0.26920952
H      -2.48155304     13.24429464     12.05936787
   94
energy=      0.00000000
C      -8.29483602     -4.47244972     -4.55421583
C      -7.15229183     -4.99118165     -3.55038750
H      -9.06692772     -4.05715085     -5.33427151
C     -19.80749881      4.21366694     -4.09628323
H     -18.79806001     -7.13190451     -1.83558041
H      -6.63228895     -4.03274977     -2.98651911
C       8.90062919     -2.40769255      8.33031936
H      -7.55756992     -5.73915849     -2.66508885
H      -7.28024544     -5.67081656    -16.88091733
H      -7.27253425     -6.44021056    -16.75295866
C       2.00513204    -11.93925160     -5.11909096
H       1.57443367    -10.90500124     -5.43375002
C       8.53383042     -2.98303235      6.90783493
H       2.43583030    -12.97350205     -4.80443204
H       9.24075373     -2.24945549      6.21688750
H       7.49707874     -2.34490174      6.71931353
C       8.58123895     -4.67595378      6.75523988
H       7.65142099     -5.09503868      6.05045561
C       5.50864336      0.42123394     -4.00491291
H       8.20812968     -5.27757554      7.77405891
H       5.50122028      0.89657871     -5.14218740
H       5.85101183      1.43065012     -3.38239387
C       4.09758993     -0.36567977     -3.49259397
H       3.85231838     -0.36891368     -2.28237147
C       6.77725769      9.35277083    -15.75254447
H       4.01849830     -1.59049792     -3.62391093
H       6.13125099     10.16089785    -16.21192283
H      -0.78183334     12.45572025     11.35120484
C      12.37234461     -6.91729667    -13.67192055
H     -19.07803811      4.98722064     -3.63706500
H     -19.17738820     -7.11587672     -1.15421341
C      -3.14104127      3.78182810    -11.33343365
H     -20.78773204      4.25621201     -4.71167932
C      -2.53539465     -5.57810408     12.53393440
H      -4.30628669      3.71685851    -11.05789087
H      -1.16142184     -5.71871246     10.63569692
H      -3.51164230     -5.20333046     13.06633001
C       2.72564293      0.15200190     -4.17102285
H      -2.48682414      3.05476448      3.12646281
C      -3.28760492      3.05278649      4.06180620
H       1.75937075      0.56330364     -4.69989095
H      -3.18748445      4.10701588      4.69005561
H      -3.04364760      2.10497915      4.80897895
H      -4.43246349      2.94438643      3.62172744
H      11.94284700     -5.83658463    -13.37948360
H      12.89496904     -7.08642857    -14.73783996
H      12.27921780     -7.82887681    -12.89843808
H       9.02540157      5.93108190     16.64452885
H       7.23742917      4.46823777     14.32400386
H      -1.13488862     -7.31733218     11.80967746
H      11.05693324      3.29981831     16.08596777
H      -8.70101793     -4.16259184     22.46177845
H       6.84057158      5.95846139     11.06844719
H      -2.36284384     13.39721889     23.39988333
H       9.96573337      5.71532730     12.61046316
H       8.59347222     -1.19036326     -5.59912517
H      -2.53888075     11.52337845     11.05710273
H      17.19268683      0.27630238     -4.25468992
H      -2.47833210      2.78337846    -11.37624814
H      10.15970292     -6.43269824      5.58413546
H      28.49034079     -1.46169831     -0.04504877
H       9.10859509      4.24007753     12.23655173
C      17.30322965     -4.04092092     16.91429424
C      -1.19850789     -6.09133876     11.80484401
C       9.03566475      4.97393058     15.85199279
C       8.20380035      5.25421416     14.36257509
C      10.60593483      4.41630221     15.95687286
C       7.92803493      6.15450181     11.56771528
C       8.79540635      5.33129724     12.74298070
C      -1.98396824     12.61935580     11.14092852
C      -1.84349275     14.36154893     23.00678381
C       8.09437222     -1.31815397     -4.52030831
C      17.21947543      0.78728280     -5.33003020
C      17.89092496      0.01649022     -6.48135625
C      28.19343957     -0.49426250     -0.68835562
C       6.88375767     -0.40900760     -4.09197135
C       9.97543838     -5.44514018      6.25913977
H      27.74032038     -0.62340627     -1.79104822
H      -6.30989391     -5.62205652     -4.18211730
H      16.35524265     -3.75935048     17.46515407
H      -8.57271924     -3.49036836     22.83601772
H      -0.19528073     -5.66177656     12.36710929
H      11.66558875      5.00331710     15.95891783
H       8.42479021      4.25453163     16.66144446
H       8.14996673      7.16970778     10.94494141
H      -1.32414165     15.32587898     22.61368431
H       7.53427073      6.28696531     14.54591004
H       8.49485820     -2.20410734     -3.82848308
H      -2.13583522     13.23797264     10.08718725
H      16.77268712      1.86780048     -5.55650569
H      -2.63821847      4.84526286    -11.56622968
H      11.14627275     -5.21954550      6.45965997
H      28.34965753      0.60231707     -0.22896987
H      -2.47932363     13.26035188     12.06821925
