   94

C      -9.87962330     -1.67382623     -3.76652310
C      -8.40594769     -2.07655998     -2.97574811
H      -9.67274189     -0.98969656     -4.78972405
C     -11.20283066     -1.04464468     -2.86367356
H     -10.24060108     -2.59809698     -4.52247361
H      -7.68527398     -1.13053333     -2.62238975
C      -0.14163313     -1.70620514     -1.23269903
H      -8.44211899     -2.81832351     -1.98342728
H      -5.82565398     -4.70825757    -13.96702431
H      -5.81794279     -5.47765156    -13.83906564
C       0.99858995     -1.43624005     -2.28197182
H       0.21253165     -1.01107747     -3.13325620
C       2.41931474     -0.58017928     -1.85301469
H       1.04988014     -2.60548118     -2.67419210
H       2.40337467      0.50939298     -2.45329039
H       3.28536071     -0.93384902     -2.67774525
C       3.05094602     -0.41744334     -0.24006299
H       4.29800932     -0.39906343     -0.26902495
C       2.52417112      0.70822501      0.98633768
H       3.22604811     -1.56564864      0.20067419
H       2.01296992      1.70166450      0.44845166
H       3.40147004      1.56903814      1.19424621
C       1.72208662      0.32363566      2.49148441
H       2.41465362      0.71729950      3.44873290
C       3.10167032      3.65598037    -10.58674094
H       2.06172278     -0.78164158      2.95180460
H       2.45566351      4.46410784    -11.04611964
H       0.48498731      9.61934759     12.25545905
C      10.73503470     -4.86111106     -9.76333234
H     -11.10270488      0.08192198     -2.35419724
H     -11.63741262     -1.66738206     -1.88386067
C     -21.44161111     -1.47125103     -2.28573277
H     -12.31740132     -0.87088787     -3.37673234
C      -8.02601567      0.03013353     10.36011364
H     -22.11982784     -2.35626957     -2.28920680
H      -8.08601248      0.90414778      9.59416020
H      -7.96598540     -0.84380744     11.12614809
C       0.02462317      0.54987750      2.80849116
H      -0.49138789      1.31832602      1.97868324
C      -0.75667907      0.99192047      4.28550023
H      -0.57570804     -0.44359128      2.35546299
H      -0.47265429      2.06297813      4.84436323
H      -0.69381925      0.25372090      5.28077364
H      -1.98864871      1.14272450      4.34761600
H      10.30562250     -3.78036447     -9.47089764
H      11.25763004     -5.03029082    -10.82925841
H      10.64185156     -5.77267788     -8.98984096
H       4.20792801     -3.42468124     17.45865040
H       1.39786246     -3.88357704     19.47506375
H      12.02091771     -5.15664965     11.58506393
H      14.98542565     -5.01536855     12.02027928
H      -8.39907487     -4.14614902     22.33906395
H       8.66069183      8.74055554      0.99837594
H      -1.21943034     10.00979830     14.99714626
H      10.39185408      8.42210325      4.06100505
H      15.48941355     -2.42522547      1.08631442
H      -1.19932685      8.78128372     12.28956104
H      18.00316193     -0.54799607      2.27524192
H      22.37918902     -0.25661961     -9.15259292
H      12.23165988     -1.52430926      3.29444754
H      20.25824551     -1.51381974     -0.22164540
H       8.95094528      7.26579672      3.61991512
C      11.96143551     -3.45012731     13.11587579
C      12.57650919     -4.07449754     11.76693721
C       3.05529868     -3.10976467     17.44124126
C       2.08958206     -3.54576566     18.60008425
C      14.22846231     -4.09703731     11.81453624
C       9.25813754      9.09583694      1.98759513
C       9.28652403      8.44763004      3.51419829
C      -0.69742482      9.89366190     12.50584797
C      -1.06473267     10.68922166     13.97220745
C      15.83985558     -1.54822318      1.87698930
C      17.12886808     -0.54458455      1.41123794
C      18.12829041     -0.64671668      0.12654405
C      19.56946474     -0.58084964     -0.62222121
C      14.39637094     -0.97547680      2.32447154
C      12.95563637     -0.66152151      2.89016095
H      19.73302563     -0.66181633     -1.83391459
H      -7.48329292     -2.73765398     -3.47068853
H      11.55126489     -2.98228333     14.11067815
H      -8.27077617     -3.47392553     22.71330323
H      12.09172467     -3.48125082     10.80435802
H      15.01599662     -3.19219406     11.67064772
H       2.67752448     -2.45668655     16.51419866
H       9.82438928     10.06682306      1.54175375
H      -0.26073249     11.52129532     14.41639438
H       8.54713459      9.03014420      4.31242050
H      16.06521688     -2.25554605      2.86297056
H      -0.99325944     10.44740507     11.43723534
H      16.85338849      0.65618388      1.40004143
H      22.27028638      0.51344275     -9.21212595
H      12.49623740      0.43804929      2.96365704
H      20.10705726      0.50297169     -0.40869962
H      -2.09864228     11.36946443     14.03841739
   94

C      -9.88411886     -1.67480598     -3.76802070
C      -8.41016394     -2.07725635     -2.97761323
H      -9.67689419     -0.99072141     -4.79119464
C     -11.20759852     -1.04530311     -2.86584765
H     -10.24566363     -2.59963792     -4.52303584
H      -7.68945962     -1.13225489     -2.62162211
C      -0.14622395     -1.69960406     -1.23821553
H      -8.44475402     -2.81793180     -1.98442102
H      -5.82552768     -4.70838915    -13.96744310
H      -5.81781549     -5.47778289    -13.83948297
C       0.99448323     -1.42977272     -2.28700973
H       0.20804221     -1.00501059     -3.13809297
C       2.41496674     -0.57305567     -1.85873719
H       1.04678393     -2.59928948     -2.67824494
H       2.39903374      0.51665494     -2.45873463
H       3.28130182     -0.92472336     -2.68400136
C       3.04582431     -0.41173628     -0.24544962
H       4.29294115     -0.39594435     -0.27282260
C       2.51909378      0.71495538      0.97989680
H       3.21913677     -1.56022869      0.19523124
H       2.00822057      1.70869075      0.44222385
H       3.39659550      1.57570126      1.18721157
C       1.71645669      0.33040327      2.48461818
H       2.40906774      0.72489861      3.44145752
C       3.10164977      3.65604259    -10.58689475
H       2.05609981     -0.77452982      2.94574986
H       2.45563226      4.46417431    -11.04625058
H       0.48477694      9.61894860     12.25579347
C      10.73501073     -4.86112162     -9.76354056
H     -11.10717932      0.08122153     -2.35635320
H     -11.64297613     -1.66808774     -1.88641616
C     -21.44606863     -1.47136838     -2.28541079
H     -12.32183491     -0.87110884     -3.37951857
C      -8.02613805      0.03017099     10.36010468
H     -22.12428485     -2.35638730     -2.28888460
H      -8.08613264      0.90418442      9.59415019
H      -7.96611783     -0.84377268     11.12613678
C       0.01880824      0.55577328      2.80095430
H      -0.49879676      1.32253873      1.97053919
C      -0.76012534      0.99791688      4.27911262
H      -0.58205352     -0.43721927      2.34757927
H      -0.47490620      2.06912244      4.83708094
H      -0.69588545      0.25923960      5.27395751
H      -1.99186489      1.14910968      4.34373488
H      10.30558944     -3.78037533     -9.47111874
H      11.25762923     -5.03030050    -10.82945522
H      10.64181479     -5.77269368     -8.99005715
H       4.19396571     -3.41860969     17.47833657
H       1.38384874     -3.87832998     19.49447497
H      11.52401053     -5.50420842     11.16663026
H      15.29541505     -4.86410105     12.33928421
H      -8.41851779     -4.14712144     22.34706905
H       8.66196928      8.74253960      0.99837486
H      -1.21889479     10.00996165     14.99727498
H      10.39307646      8.42422367      4.06102187
H      15.50027959     -2.41729298      1.06891953
H      -1.20001786      8.78174871     12.28925507
H      18.00654892     -0.53456878      2.27683149
H      22.38486467     -0.25567931     -9.16307266
H      12.23533691     -1.51472173      3.27324264
H      20.26655578     -1.51141385     -0.23240303
H       8.95212249      7.26793156      3.61993972
C      12.40257720     -3.28494467     13.48893147
C      12.10074467     -4.43303969     11.23454135
C       3.04124657     -3.10407916     17.46089022
C       2.07588424     -3.54056492     18.61975456
C      14.51438624     -3.96148716     12.16117113
C       9.25937431      9.09786922      1.98759954
C       9.28773945      8.44975254      3.51423311
C      -0.69757658      9.89382444     12.50584849
C      -1.06485575     10.68936602     13.97222296
C      15.84797517     -1.54450786      1.86550448
C      17.13646896     -0.53676585      1.40830034
C      18.14086039     -0.64136133      0.12847733
C      19.57684390     -0.57743975     -0.62897474
C      14.40417438     -0.97236476      2.31219572
C      12.96317316     -0.65305584      2.87370058
H      19.72500372     -0.65983870     -1.84255116
H      -7.48906801     -2.73768381     -3.47649101
H      11.90227848     -2.82288231     14.44328930
H      -8.29022144     -3.47489810     22.72130942
H      11.57395736     -3.79052480     10.34263192
H      15.27855505     -3.05414719     11.94037921
H       2.66298193     -2.45096371     16.53410552
H       9.82570845     10.06879337      1.54173407
H      -0.26116429     11.52192367     14.41606395
H       8.54834318      9.03226384      4.31244773
H      16.07115657     -2.25718751      2.84803773
H      -0.99283691     10.44785278     11.43722416
H      16.85560269      0.66261904      1.38660423
H      22.27596018      0.51438313     -9.22260170
H      12.50673768      0.44771765      2.94766363
H      20.11640601      0.50633269     -0.42018938
H      -2.09909512     11.36908742     14.03864406
   94

C      -9.88860996     -1.67578569     -3.76951814
C      -8.41437463     -2.07795207     -2.97947809
H      -9.68104337     -0.99174643     -4.79266544
C     -11.21236239     -1.04596182     -2.86802240
H     -10.25072096     -2.60117864     -4.52359655
H      -7.69363857     -1.13398216     -2.62086105
C      -0.15076561     -1.69299214     -1.24371102
H      -8.44738478     -2.81754249     -1.98542090
H      -5.82539754     -4.70852026    -13.96785845
H      -5.81768436     -5.47791376    -13.83989689
C       0.99043201     -1.42329595     -2.29202005
H       0.20361037     -0.99893519     -3.14290503
C       2.41067892     -0.56593343     -1.86441923
H       1.04373992     -2.59308759     -2.68226822
H       2.39475632      0.52391221     -2.46414547
H       3.27730495     -0.91560363     -2.69020781
C       3.04077651     -0.40602096     -0.25080201
H       4.28794020     -0.39281757     -0.27657721
C       2.51408396      0.72169931      0.97348094
H       3.21229680     -1.55479508      0.18982959
H       2.00354541      1.71573107      0.43601663
H       3.39179270      1.58237192      1.18020654
C       1.71087090      0.33720332      2.47776918
H       2.40352107      0.73253388      3.43420098
C       3.10164072      3.65609934    -10.58703084
H       2.05052041     -0.76738289      2.93971686
H       2.45561224      4.46423382    -11.04636608
H       0.48461444      9.61850737     12.25613766
C      10.73500135     -4.86112312     -9.76368192
H     -11.11164963      0.08052060     -2.35850958
H     -11.64853562     -1.66879318     -1.88897275
C     -21.45052677     -1.47148567     -2.28508896
H     -12.32626404     -0.87133024     -3.38230532
C      -8.02625890      0.03021345     10.36009912
H     -22.12874257     -2.35650491     -2.28856254
H      -8.08625004      0.90422510      9.59414239
H      -7.96624957     -0.84373187     11.12613018
C       0.01303277      0.56169551      2.79341550
H      -0.50615740      1.32677361      1.96239045
C      -0.76355360      1.00394313      4.27270734
H      -0.58835615     -0.43082205      2.33969245
H      -0.47714512      2.07529518      4.82978229
H      -0.69794681      0.26478872      5.26712275
H      -1.99505848      1.15552545      4.33982435
H      10.30557441     -3.78037665     -9.47126956
H      11.25763450     -5.03030297    -10.82958910
H      10.64179702     -5.77269765     -8.99020265
H       4.18116722     -3.41219548     17.49789251
H       1.37050666     -3.87293126     19.51353651
H      11.08167077     -5.82217439     10.79881474
H      15.54511374     -4.73172123     12.60938763
H      -8.43793605     -4.14809062     22.35506873
H       8.66329125      8.74439821      0.99848186
H      -1.21831630     10.01008795     14.99740793
H      10.39436468      8.42618172      4.06113906
H      15.51095002     -2.40968840      1.05337383
H      -1.20066123      8.78217506     12.28895605
H      18.00974481     -0.52143601      2.27927397
H      22.39050685     -0.25475047     -9.17347936
H      12.23977561     -1.50536271      3.25566319
H      20.27446059     -1.50913628     -0.24273251
H       8.95337750      7.26989888      3.62007137
C      12.77622119     -3.16623685     13.73299728
C      11.61767291     -4.73593738     10.86848127
C       3.02828925     -3.09827713     17.48048568
C       2.06315476     -3.53533044     18.63925891
C      14.78225382     -3.81310382     12.44647931
C       9.26066809      9.09976181      1.98771016
C       9.28902110      8.45171074      3.51436616
C      -0.69768005      9.89394761     12.50585611
C      -1.06493647     10.68947319     13.97224297
C      15.85604329     -1.54111295      1.85571986
C      17.14382431     -0.52935845      1.40634248
C      18.15318840     -0.63628159      0.13135871
C      19.58372474     -0.57419575     -0.63521035
C      14.41200656     -0.96959213      2.30194178
C      12.97112007     -0.64491804      2.86012546
H      19.71641935     -0.65796843     -1.85049126
H      -7.49484228     -2.73770045     -3.48228237
H      12.25507519     -2.70932480     14.67786440
H      -8.30964028     -3.47586734     22.72930941
H      11.12793807     -4.07451990      9.97619056
H      15.56089821     -2.92394562     12.21216361
H       2.64940087     -2.44509495     16.55402600
H       9.82705875     10.07064280      1.54182661
H      -0.26155442     11.52251477     14.41573830
H       8.54961831      9.03421796      4.31257537
H      16.07716750     -2.25897451      2.83486723
H      -0.99236503     10.44826124     11.43722026
H      16.85759410      0.66853885      1.37406041
H      22.28160175      0.51531200     -9.23300720
H      12.51744735      0.45699217      2.93407973
H      20.12525946      0.50952257     -0.43121802
H      -2.09950549     11.36867291     14.03887412
   94

C      -9.89310241     -1.67676402     -3.77101744
C      -8.41858595     -2.07864645     -2.98134457
H      -9.68519524     -0.99277014     -4.79413835
C     -11.21712702     -1.04661937     -2.87019848
H     -10.25577898     -2.60271774     -4.52415776
H      -7.69781703     -1.13571431     -2.62010883
C      -0.15529781     -1.68635158     -1.24921097
H      -8.45001734     -2.81715480     -1.98642876
H      -5.82526688     -4.70865089    -13.96827400
H      -5.81755282     -5.47804416    -13.84031113
C       0.98639231     -1.41679174     -2.29703288
H       0.19918970     -0.99283655     -3.14772150
C       2.40640231     -0.55878334     -1.87010032
H       1.04070757     -2.58685771     -2.68629080
H       2.39049036      0.53119355     -2.46956236
H       3.27332104     -0.90645990     -2.69640468
C       3.03574757     -0.40025994     -0.25615857
H       4.28295124     -0.38964476     -0.28033299
C       2.50909039      0.72848959      0.96705759
H       3.20547483     -1.54931104      0.18442858
H       1.99888970      1.72281775      0.42980037
H       3.38701023      1.58908407      1.17319539
C       1.70528787      0.34406946      2.47091035
H       2.39797696      0.74023627      3.42693397
C       3.10163945      3.65615512    -10.58715863
H       2.04494399     -0.76016882      2.93367389
H       2.45559941      4.46429139    -11.04647424
H       0.48449847      9.61802323     12.25648796
C      10.73500380     -4.86111580     -9.76378728
H     -11.11612024      0.07982060     -2.36066704
H     -11.65409543     -1.66949698     -1.89153097
C     -21.45498513     -1.47160275     -2.28476733
H     -12.33069360     -0.87155053     -3.38509283
C      -8.02637356      0.03025975     10.36009924
H     -22.13320050     -2.35662233     -2.28824070
H      -8.08636136      0.90426891      9.59413944
H      -7.96637475     -0.84368640     11.12613016
C       0.00725783      0.56766886      2.78586605
H      -0.51351372      1.33105872      1.95423497
C      -0.76698353      1.01001348      4.26628897
H      -0.59465634     -0.42437340      2.33179270
H      -0.47938578      2.08150742      4.82247583
H      -0.70001545      0.27037839      5.26027062
H      -1.99824851      1.16198622      4.33589985
H      10.30557374     -3.78036898     -9.47138120
H      11.25764630     -5.03029729    -10.82968952
H      10.64179312     -5.77269163     -8.99031048
H       4.16921685     -3.40582839     17.51705448
H       1.35772745     -3.86742979     19.53219293
H      10.64568289     -6.12313087     10.44678776
H      15.80445236     -4.60081624     12.87473565
H      -8.45732699     -4.14905843     22.36305902
H       8.66465402      8.74613134      0.99870755
H      -1.21769984     10.01017969     14.99753977
H      10.39571550      8.42796424      4.06136658
H      15.52140798     -2.40235744      1.03934349
H      -1.20125793      8.78256125     12.28866026
H      18.01272836     -0.50857890      2.28242237
H      22.39612138     -0.25383002     -9.18382362
H      12.24496170     -1.49634796      3.24167873
H      20.28200311     -1.50696298     -0.25269960
H       8.95470345      7.27169067      3.62031543
C      13.11900210     -3.07314140     13.93387935
C      11.13811258     -5.02302986     10.52146704
C       3.01617403     -3.09252158     17.49982100
C       2.05119270     -3.53010939     18.65847139
C      15.06212788     -3.66309967     12.74397095
C       9.26201652      9.10150978      1.98793860
C       9.29036588      8.45349592      3.51460736
C      -0.69773683      9.89403033     12.50586629
C      -1.06497821     10.68954419     13.97226138
C      15.86401835     -1.53800713      1.84734401
C      17.15093617     -0.52231588      1.40519317
C      18.16531019     -0.63142571      0.13504477
C      19.59016748     -0.57108768     -0.64100467
C      14.41978820     -0.96718927      2.29339949
C      12.97935501     -0.63723601      2.84912845
H      19.70735240     -0.65617757     -1.85780719
H      -7.50062236     -2.73770349     -3.48806497
H      12.58227026     -2.61860918     14.87059268
H      -8.32903101     -3.47683512     22.73729960
H      10.69615979     -4.34086784      9.62781386
H      15.85093354     -2.79128959     12.49002791
H       2.63661544     -2.43923719     16.57372469
H       9.82843987     10.07236660      1.54204611
H      -0.26190682     11.52307023     14.41541126
H       8.55095804      9.03599598      4.31281587
H      16.08320228     -2.26094143      2.82312610
H      -0.99184472     10.44862795     11.43721818
H      16.85937304      0.67398961      1.36226593
H      22.28721649      0.51623243     -9.24335223
H      12.52826266      0.46575630      2.92263317
H      20.13367740      0.51256814     -0.44185084
H      -2.09987688     11.36822197     14.03909960
   94

C      -9.89760457     -1.67773864     -3.77252254
C      -8.42280650     -2.07933728     -2.98321672
H      -9.68935813     -0.99379013     -4.79561720
C     -11.22189932     -1.04727353     -2.87237794
H     -10.26084608     -2.60425288     -4.52472333
H      -7.70200373     -1.13744895     -2.61936980
C      -0.15985827     -1.67965100     -1.25474993
H      -8.45266027     -2.81676671     -1.98744880
H      -5.82513904     -4.70878062    -13.96869432
H      -5.81742433     -5.47817372    -13.84073043
C       0.98232431     -1.41023050     -2.30208577
H       0.19473940     -0.98668571     -3.15257885
C       2.40209256     -0.55156535     -1.87582839
H       1.03764741     -2.58056974     -2.69035184
H       2.38619224      0.53853973     -2.47503044
H       3.26930583     -0.89725231     -2.70264017
C       3.03068665     -0.39439711     -0.26156695
H       4.27792326     -0.38637326     -0.28414459
C       2.50407204      0.73537250      0.96059212
H       3.19861558     -1.54372339      0.17897349
H       1.99421384      1.72999938      0.42354489
H       3.38221038      1.59588066      1.16614483
C       1.69966838      0.35105759      2.46401011
H       2.39240066      0.74805178      3.41962601
C       3.10164443      3.65621419    -10.58728509
H       2.03932436     -0.75283720      2.92757969
H       2.45559175      4.46435147    -11.04658098
H       0.48443961      9.61747805     12.25684356
C      10.73501893     -4.86109701     -9.76387863
H     -11.12059764      0.07912364     -2.36282745
H     -11.65966217     -1.67019708     -1.89409282
C     -21.45944506     -1.47171933     -2.28444592
H     -12.33513060     -0.87176732     -3.38788277
C      -8.02647126      0.03030944     10.36011044
H     -22.13765992     -2.35673930     -2.28791908
H      -8.08645784      0.90431523      9.59414673
H      -7.96648050     -0.84363661     11.12614211
C       0.00144608      0.57373177      2.77829324
H      -0.52090375      1.33543773      1.94606611
C      -0.77043080      1.01615271      4.25985991
H      -0.60099384     -0.41783128      2.32386252
H      -0.48163639      2.08777850      4.81517107
H      -0.70210276      0.27602876      5.25340025
H      -2.00144979      1.16851807      4.33197291
H      10.30558807     -3.78034991     -9.47147528
H      11.25766739     -5.03028043    -10.82977754
H      10.64180271     -5.77267498     -8.99040523
H       4.15842198     -3.39980687     17.53529221
H       1.34577546     -3.86179221     19.55012536
H      10.19698548     -6.42671682     10.08007328
H      16.07133843     -4.46621043     13.14617431
H      -8.47667782     -4.15002546     22.37103282
H       8.66605716      8.74772136      0.99906247
H      -1.21703848     10.01022354     14.99766700
H      10.39712532      8.42953817      4.06171532
H      15.53152529     -2.39530423      1.02668905
H      -1.20179627      8.78288900     12.28836695
H      18.01536322     -0.49602488      2.28624213
H      22.40170822     -0.25291729     -9.19410311
H      12.25091272     -1.48802234      3.23189869
H      20.28911877     -1.50489297     -0.26227455
H       8.95609671      7.27327639      3.62068161
C      13.47556116     -2.96975930     14.15743258
C      10.66137046     -5.32023938     10.13896513
C       3.00523394     -3.08699424     17.51852547
C       2.04030881     -3.52494107     18.67707650
C      15.34755564     -3.51200046     13.05462034
C       9.26341898      9.10309102      1.98829727
C       9.29177074      8.45507755      3.51496629
C      -0.69773642      9.89405502     12.50587762
C      -1.06497388     10.68956491     13.97227421
C      15.87174374     -1.53521234      1.84027426
C      17.15768304     -0.51566782      1.40480163
C      18.17714169     -0.62679907      0.13951247
C      19.59610581     -0.56811869     -0.64633244
C      14.42732265     -0.96530777      2.28652575
C      12.98766063     -0.63037381      2.84079299
H      19.69776659     -0.65446290     -1.86447069
H      -7.50641746     -2.73769081     -3.49384379
H      12.90282689     -2.52234461     15.07540938
H      -8.34838116     -3.47780202     22.74527290
H      10.25325440     -4.61129263      9.25874907
H      16.13978015     -2.65633212     12.76846946
H       2.62498727     -2.43358242     16.59280750
H       9.82985006     10.07394478      1.54240759
H      -0.26221531     11.52357703     14.41507854
H       8.55235993      9.03756647      4.31318016
H      16.08917435     -2.26316842      2.81265610
H      -0.99126549     10.44893475     11.43721618
H      16.86078678      0.67893221      1.35119483
H      22.29280417      0.51714508     -9.25363426
H      12.53888916      0.47361909      2.91341402
H      20.14158610      0.51546675     -0.45204697
H      -2.10020237     11.36772041     14.03931561
   94

C      -9.90211690     -1.67870844     -3.77403375
C      -8.42703664     -2.08002284     -2.98509483
H      -9.69353251     -0.99480525     -4.79710230
C     -11.22667965     -1.04792341     -2.87456084
H     -10.26592263     -2.60578299     -4.52529356
H      -7.70619900     -1.13918440     -2.61864413
C      -0.16444389     -1.67287662     -1.26032208
H      -8.45531408     -2.81637660     -1.98848136
H      -5.82501455     -4.70890915    -13.96912019
H      -5.81729951     -5.47830215    -13.84115571
C       0.97823282     -1.40360081     -2.30717160
H       0.19026621     -0.98046583     -3.15746909
C       2.39775696     -0.54427449     -1.88159086
H       1.03455910     -2.57421074     -2.69444992
H       2.38187248      0.54595898     -2.48053089
H       3.26526465     -0.88797448     -2.70890463
C       3.02560593     -0.38843214     -0.26701575
H       4.27286855     -0.38301046     -0.28800219
C       2.49905508      0.74233780      0.95411199
H       3.19172373     -1.53803552      0.17346788
H       1.98954964      1.73727129      0.41728301
H       3.37742527      1.60274424      1.15908679
C       1.69404412      0.35815950      2.45709958
H       2.38682934      0.75595789      3.41231071
C       3.10165584      3.65627599    -10.58740840
H       2.03368634     -0.74540210      2.92145581
H       2.45558958      4.46441342    -11.04668474
H       0.48443437      9.61686960     12.25720224
C      10.73504634     -4.86106735     -9.76395301
H     -11.12508216      0.07843056     -2.36499075
H     -11.66523620     -1.67089269     -1.89665842
C     -21.46390679     -1.47183530     -2.28412473
H     -12.33957539     -0.87197972     -3.39067521
C      -8.02654456      0.03036006     10.36013205
H     -22.14212107     -2.35685570     -2.28759771
H      -8.08653270      0.90436166      9.59416369
H      -7.96655873     -0.84358508     11.12616515
C      -0.00437198      0.57987544      2.77072138
H      -0.52829560      1.33990590      1.93791080
C      -0.77386359      1.02234711      4.25344631
H      -0.60734209     -0.41120020      2.31592165
H      -0.48386263      2.09409286      4.80789630
H      -0.70417654      0.28172503      5.24653687
H      -2.00463023      1.17510846      4.32806912
H      10.30561693     -3.78032012     -9.47154868
H      11.25769718     -5.03025297    -10.82985028
H      10.64182593     -5.77264859     -8.99048423
H       4.14863167     -3.39428822     17.55244247
H       1.33461170     -3.85604531     19.56729580
H       9.73752493     -6.73479526      9.69733859
H      16.34259046     -4.32869709     13.42258575
H      -8.49598743     -4.15099259     22.37898794
H       8.66749593      8.74915913      0.99952991
H      -1.21633470     10.01021788     14.99778787
H      10.39858214      8.43089498      4.06216783
H      15.54106248     -2.38860293      1.01527571
H      -1.20227927      8.78315574     12.28807449
H      18.01738783     -0.48385212      2.29064912
H      22.40726474     -0.25201320     -9.20431554
H      12.25745892     -1.48123157      3.22722154
H      20.29569614     -1.50293016     -0.27143046
H       8.95754551      7.27464640      3.62115199
C      13.84955560     -2.85346702     14.40594984
C      10.17702706     -5.62422004      9.72712831
C       2.99533310     -3.08179690     17.53645281
C       2.03040165     -3.51985018     18.69498775
C      15.63742627     -3.35990508     13.37261794
C       9.26486762      9.10449834      1.98877053
C       9.29322339      8.45644620      3.51542623
C      -0.69768222      9.89401935     12.50588836
C      -1.06492616     10.68953367     13.97227962
C      15.87892096     -1.53280541      1.83441169
C      17.16381387     -0.50951562      1.40507047
C      18.18852552     -0.62243174      0.14471812
C      19.60141882     -0.56530178     -0.65117248
C      14.43421038     -0.96431659      2.28133151
C      12.99552927     -0.62520519      2.83526278
H      19.68759870     -0.65282871     -1.87045876
H      -7.51222804     -2.73766075     -3.49961933
H      13.22865387     -2.41716983     15.29671935
H      -8.36768982     -3.47876893     22.75322728
H       9.80000288     -4.88720086      8.86552255
H      16.42777305     -2.51999335     13.04611104
H       2.61440214     -2.42827483     16.61108988
H       9.83128183     10.07537049      1.54289673
H      -0.26248253     11.52403355     14.41473812
H       8.55381173      9.03892147      4.31365042
H      16.09488450     -2.26580577      2.80328811
H      -0.99063107     10.44917928     11.43721259
H      16.86154033      0.68325395      1.34077989
H      22.29836220      0.51804904     -9.26385104
H      12.54876035      0.47969716      2.90651018
H      20.14886195      0.51820404     -0.46176520
H      -2.10048450     11.36716675     14.03952061
   94

C      -9.90663561     -1.67967295     -3.77554891
C      -8.43127233     -2.08070178     -2.98697654
H      -9.69771473     -0.99581504     -4.79859149
C     -11.23146489     -1.04856883     -2.87674565
H     -10.27100485     -2.60730761     -4.52586631
H      -7.71039857     -1.14091953     -2.61792908
C      -0.16903267     -1.66602737     -1.26589758
H      -8.45797488     -2.81598313     -1.98952403
H      -5.82489297     -4.70903617    -13.96955085
H      -5.81717795     -5.47842916    -13.84158629
C       0.97414250     -1.39690356     -2.31225761
H       0.18579845     -0.97416775     -3.16235819
C       2.39342715     -0.53692945     -1.88733773
H       1.03145881     -2.56777915     -2.69856149
H       2.37756654      0.55343815     -2.48600429
H       3.26122485     -0.87864136     -2.71515439
C       3.02054864     -0.38240900     -0.27245582
H       4.26783053     -0.37961004     -0.29185520
C       2.49410066      0.74932825      0.94768756
H       3.18483510     -1.53229566      0.16795228
H       1.98496542      1.74458441      0.41109226
H       3.37272293      1.60960870      1.15209730
C       1.68849419      0.36530506      2.45025633
H       2.38135108      0.76386497      3.40506812
C       3.10167326      3.65633805    -10.58752379
H       2.02810443     -0.73794007      2.91536949
H       2.45559296      4.46447473    -11.04678152
H       0.48447324      9.61620260     12.25756069
C      10.73508300     -4.86103027     -9.76400346
H     -11.12957074      0.07774148     -2.36715528
H     -11.67081454     -1.67158371     -1.89922638
C     -21.46836983     -1.47195070     -2.28380365
H     -12.34402478     -0.87218762     -3.39346876
C      -8.02658238      0.03040596     10.36016019
H     -22.14658353     -2.35697154     -2.28727647
H      -8.08657544      0.90440285      9.59418685
H      -7.96659778     -0.84353782     11.12619496
C      -0.01011980      0.58604899      2.76320388
H      -0.53561242      1.34441749      1.92982545
C      -0.77721414      1.02854578      4.24709664
H      -0.61363211     -0.40452492      2.30801942
H      -0.48599645      2.10040017      4.80069816
H      -0.70616764      0.28741646      5.23972861
H      -2.00772202      1.18170882      4.32423209
H      10.30565682     -3.78028312     -9.47159477
H      11.25773253     -5.03021811    -10.82990087
H      10.64186049     -5.77261547     -8.99053990
H       4.13947206     -3.38930672     17.56859754
H       1.32403220     -3.85024740     19.58381956
H       9.27462759     -7.04170706      9.30689889
H      16.61462279     -4.18980808     13.70125910
H      -8.51526008     -4.15196109     22.38692370
H       8.66896067      8.75045022      1.00008279
H      -1.21559567     10.01016669     14.99790071
H      10.40006944      8.43204899      4.06269615
H      15.54988563     -2.38227760      1.00477509
H      -1.20271619      8.78336543     12.28778032
H      18.01862110     -0.47208726      2.29547762
H      22.41279160     -0.25111803     -9.21446648
H      12.26406242     -1.47666306      3.22714916
H      20.30170087     -1.50106510     -0.28019966
H       8.95903180      7.27581365      3.62169752
C      14.23182076     -2.73092305     14.66635852
C       9.68835071     -5.92829593      9.29947843
C       2.98610253     -3.07696256     17.55361002
C       2.02116012     -3.51485382     18.71225505
C      15.92986751     -3.20741293     13.69367513
C       9.26634916      9.10574190      1.98933153
C       9.29470667      8.45761469      3.51596077
C      -0.69758372      9.89392738     12.50589602
C      -1.06484225     10.68945434     13.97227584
C      15.88532877     -1.53079552      1.82945494
C      17.16917300     -0.50388016      1.40580826
C      18.19938917     -0.61830301      0.15052819
C      19.60608061     -0.56262818     -0.65557180
C      14.44012813     -0.96445023      2.27752154
C      13.00242533     -0.62239136      2.83206632
H      19.67686973     -0.65126676     -1.87581837
H      -7.51804993     -2.73761201     -3.50538910
H      13.55955242     -2.30797913     15.52480859
H      -8.38696163     -3.47973720     22.76116233
H       9.34495720     -5.16283716      8.45850677
H      16.71411247     -2.38327189     13.32268468
H       2.60451292     -2.42339684     16.62853855
H       9.83272496     10.07665186      1.54348671
H      -0.26271541     11.52444353     14.41438808
H       8.55529635      9.04007541      4.31419883
H      16.10015600     -2.26891469      2.79467449
H      -0.98995120     10.44936547     11.43720493
H      16.86146298      0.68693000      1.33086582
H      22.30389131      0.51894404     -9.27400798
H      12.55739988      0.48335751      2.90154321
H      20.15547954      0.52078563     -0.47103525
H      -2.10073030     11.36656512     14.03971338
   94

C      -9.91115584     -1.68063174     -3.77706522
C      -8.43550838     -2.08137263     -2.98885885
H      -9.70190008     -0.99681905     -4.80008205
C     -11.23625097     -1.04920967     -2.87893044
H     -10.27608792     -2.60882626     -4.52643890
H      -7.71459690     -1.14265323     -2.61722117
C      -0.17359603     -1.65911259     -1.27143921
H      -8.46063766     -2.81558492     -1.99057380
H      -5.82477380     -4.70916134    -13.96998535
H      -5.81705924     -5.47855443    -13.84202136
C       0.97008616     -1.39014962     -2.31730168
H       0.18137438     -0.96778750     -3.16720219
C       2.38914652     -0.52956766     -1.89300233
H       1.02836785     -2.56128240     -2.70265717
H       2.37332341      0.56094775     -2.49137084
H       3.25722427     -0.86928479     -2.72133104
C       3.01557171     -0.37640709     -0.27782027
H       4.26286623     -0.37626271     -0.29563317
C       2.48928390      0.75624942      0.94140906
H       3.17799874     -1.52658865      0.16248257
H       1.98054437      1.75185476      0.40507241
H       3.36818526      1.61637025      1.14527410
C       1.68311688      0.37237198      2.44357732
H       2.37607411      0.77162744      3.39799846
C       3.10169554      3.65639720    -10.58762559
H       2.02267190     -0.73058087      2.90940671
H       2.45560146      4.46453230    -11.04686656
H       0.48454590      9.61548363     12.25791554
C      10.73512436     -4.86099070     -9.76402340
H     -11.13405938      0.07705643     -2.36931893
H     -11.67639329     -1.67227012     -1.90179490
C     -21.47283352     -1.47206554     -2.28348250
H     -12.34847468     -0.87239090     -3.39626170
C      -8.02657238      0.03043977     10.36018954
H     -22.15104671     -2.35708679     -2.28695523
H      -8.08657426      0.90443180      9.59421137
H      -7.96658479     -0.84350267     11.12622561
C      -0.01570099      0.59216825      2.75580628
H      -0.54275600      1.34889592      1.92187920
C      -0.78040017      1.03467015      4.24086724
H      -0.61977908     -0.39788099      2.30021723
H      -0.48795577      2.10662382      4.79362838
H      -0.70799346      0.29302515      5.23303168
H      -2.01064283      1.18824518      4.32051071
H      10.30570245     -3.78024393     -9.47160777
H      11.25776913     -5.03018048    -10.82992270
H      10.64190247     -5.77257989     -8.99056474
H       4.13056457     -3.38477362     17.58400979
H       1.31378785     -3.84445956     19.59988177
H       8.81232988     -7.34434707      8.91400346
H      16.88530782     -4.05037914     13.98062177
H      -8.53450183     -4.15293224     22.39484005
H       8.67043924      8.75161244      1.00069357
H      -1.21482911     10.01007541     14.99800398
H      10.40157043      8.43302999      4.06327323
H      15.55803721     -2.37629034      0.99477152
H      -1.20311721      8.78352388     12.28748176
H      18.01904757     -0.46069610      2.30054038
H      22.41829266     -0.25023142     -9.22456744
H      12.27002881     -1.47446515      3.22973392
H      20.30719550     -1.49928010     -0.28866547
H       8.96053625      7.27680755      3.62228981
C      14.61732772     -2.60587128     14.93165608
C       9.19848902     -6.22966246      8.86333585
C       2.97715425     -3.07245654     17.57012570
C       2.01223956     -3.50995834     18.72901288
C      16.22383461     -3.05480735     14.01600788
C       9.26784840      9.10684462      1.98995259
C       9.29620340      8.45861183      3.51654399
C      -0.69745124      9.89378499     12.50589808
C      -1.06472992     10.68933233     13.97226127
C      15.89093619     -1.52912365      1.82499769
C      17.17378053     -0.49868847      1.40679520
C      18.20978180     -0.61434997      0.15675805
C      19.61017932     -0.56007156     -0.65963351
C      14.44500150     -0.96567180      2.27456915
C      13.00806562     -0.62198741      2.83024137
H      19.66568688     -0.64976021     -1.88065399
H      -7.52387785     -2.73754322     -3.51114997
H      13.89341793     -2.19799092     15.75376844
H      -8.40620310     -3.48070823     22.76907832
H       8.89289722     -5.43443629      8.04569353
H      16.99825379     -2.24670666     13.59830810
H       2.59493868     -2.41894776     16.64525914
H       9.83416910     10.07780799      1.54414831
H      -0.26292136     11.52481208     14.41402671
H       8.55679651      9.04105810      4.31479840
H      16.10491333     -2.27243916      2.78641314
H      -0.98923644     10.44949907     11.43719063
H      16.86059799      0.69003950      1.32126162
H      22.30939538      0.51983046     -9.28411633
H      12.56465786      0.48458813      2.89777381
H      20.16152866      0.52323455     -0.47995103
H      -2.10094734     11.36592113     14.03989293
   94

C      -9.91567233     -1.68158434     -3.77857990
C      -8.43973922     -2.08203387     -2.99073875
H      -9.70608343     -0.99781672     -4.80157114
C     -11.24103351     -1.04984580     -2.88111325
H     -10.28116667     -2.61033832     -4.52700866
H      -7.71878791     -1.14438448     -2.61651687
C      -0.17810033     -1.65215676     -1.27690694
H      -8.46329713     -2.81518059     -1.99162773
H      -5.82465649     -4.70928422    -13.97042276
H      -5.81694289     -5.47867755    -13.84246016
C       0.96610432     -1.38336444     -2.32225588
H       0.17704234     -0.96133017     -3.17195092
C       2.38497041     -0.52225085     -1.89850539
H       1.02531222     -2.55474152     -2.70670533
H       2.36920715      0.56843630     -2.49653446
H       3.25331246     -0.85995946     -2.72736407
C       3.01074364     -0.37054789     -0.28302782
H       4.25804410     -0.37310252     -0.29924806
C       2.48468744      0.76296663      0.93537792
H       3.17127448     -1.52104252      0.15712691
H       1.97637792      1.75895988      0.39933615
H       3.36390044      1.62288542      1.13872825
C       1.67801690      0.37918166      2.43716624
H       2.37111128      0.77904291      3.39120980
C       3.10172127      3.65644942    -10.58770689
H       2.01748701     -0.72351111      2.90366149
H       2.45561456      4.46458222    -11.04693404
H       0.48464232      9.61472022     12.25826373
C      10.73516485     -4.86095444     -9.76400437
H     -11.13854371      0.07637545     -2.37147951
H     -11.68196829     -1.67295191     -1.90436219
C     -21.47729721     -1.47217986     -2.28316115
H     -12.35292062     -0.87258943     -3.39905222
C      -8.02650311      0.03045317     10.36021362
H     -22.15551003     -2.35720139     -2.28663386
H      -8.08651797      0.90444065      9.59423132
H      -7.96650799     -0.84348849     11.12624997
C      -0.02101085      0.59811426      2.74859774
H      -0.54961624      1.35323239      1.91414432
C      -0.78333584      1.04061581      4.23481314
H      -0.62569401     -0.39137632      2.29258066
H      -0.48965466      2.11266286      4.78673425
H      -0.70957123      0.29844816      5.22650162
H      -2.01330664      1.19462115      4.31694998
H      10.30574746     -3.78020834     -9.47158015
H      11.25780160     -5.03014560    -10.82990727
H      10.64194689     -5.77254670     -8.99054909
H       4.12160801     -3.38051890     17.59901004
H       1.30364146     -3.83873064     19.61569245
H       8.35206241     -7.64214963      8.52143942
H      17.15372565     -3.91061634     14.26027284
H      -8.55371944     -4.15390717     22.40273757
H       8.67191841      8.75267246      1.00133665
H      -1.21404239     10.00995014     14.99809649
H      10.40306920      8.43387989      4.06387541
H      15.56570922     -2.37055288      0.98486300
H      -1.20349236      8.78363805     12.28717638
H      18.01881837     -0.44959609      2.30565853
H      22.42377373     -0.24935262     -9.23463344
H      12.27484033     -1.47416916      3.23245265
H      20.31232190     -1.49755432     -0.29694844
H       8.96204019      7.27766987      3.62290412
C      15.00431261     -2.47975559     15.19926455
C       8.70760514     -6.52810598      8.42168409
C       2.96816905     -3.06819061     17.58621285
C       2.00334004     -3.50515738     18.74544610
C      16.51885698     -2.90219767     14.33876926
C       9.26934952      9.10783874      1.99060750
C       9.29769758      8.45947859      3.51715272
C      -0.69729475      9.89359906     12.50589229
C      -1.06459665     10.68917376     13.97223474
C      15.89590836     -1.52768495      1.82062773
C      17.17782147     -0.49379880      1.40782337
C      18.21985674     -0.61048843      0.16320306
C      19.61389287     -0.55759579     -0.66349887
C      14.44902696     -0.96768739      2.27186029
C      13.01253559     -0.62340487      2.82866759
H      19.65421791     -0.64828814     -1.88510844
H      -7.52970614     -2.73745301     -3.51689885
H      14.22924910     -2.08865325     15.98112582
H      -8.42542140     -3.48168322     22.77697616
H       8.44460075     -5.70050244      7.63213859
H      17.28005215     -2.11047081     13.87340686
H       2.58535201     -2.41484736     16.66146564
H       9.83560436     10.07886602      1.54485233
H      -0.26310745     11.52514503     14.41365274
H       8.55829581      9.04191084      4.31542503
H      16.10920329     -2.27623529      2.77814033
H      -0.98849700     10.44958690     11.43716747
H      16.85918542      0.69273939      1.31177271
H      22.31488023      0.52070910     -9.29419082
H      12.57075685      0.48401243      2.89433060
H      20.16718867      0.52558445     -0.48865371
H      -2.10114293     11.36524112     14.04005876
   94

C      -9.91962577     -1.68283492     -3.77949989
C      -8.44322828     -2.08288798     -2.99224912
H      -9.70928231     -0.99895701     -4.80228719
C     -11.24561685     -1.05065172     -2.88336052
H     -10.28618573     -2.61254432     -4.52626386
H      -7.72197549     -1.14745117     -2.61314468
C      -0.18106884     -1.64679910     -1.27945091
H      -8.46386140     -2.81355575     -1.99123941
H      -5.82434168     -4.70939886    -13.97053257
H      -5.81663049     -5.47879285    -13.84257390
C       0.96400529     -1.37825420     -2.32389738
H       0.17424139     -0.95646788     -3.17299112
C       2.38283876     -0.51679192     -1.90089230
H       1.02474155     -2.55006888     -2.70671274
H       2.36733834      0.57424140     -2.49831266
H       3.25144488     -0.85068356     -2.73098577
C       3.00766675     -0.36896822     -0.28484493
H       4.25495466     -0.37630783     -0.29815823
C       2.48217007      0.76632284      0.93195560
H       3.16515177     -1.51998711      0.15504873
H       1.97458748      1.76305890      0.39645945
H       3.36177103      1.62606445      1.13426621
C       1.67513939      0.38169599      2.43311015
H       2.36835806      0.78281918      3.38646211
C       3.10166687      3.65598424    -10.58674140
H       2.01453731     -0.72042457      2.90107095
H       2.45566006      4.46411171    -11.04612010
H       0.48442610      9.61407615     12.25867824
C      10.73503642     -4.86111299     -9.76333211
H     -11.14266421      0.07555040     -2.37380811
H     -11.68794702     -1.67380529     -1.90726209
C     -21.48168869     -1.47231689     -2.28282203
H     -12.35692353     -0.87278605     -3.40240342
C      -8.02600892      0.03014833     10.36013001
H     -22.15990543     -2.35733542     -2.28629606
H      -8.08601590      0.90414039      9.59415204
H      -7.96598878     -0.84381485     11.12613992
C      -0.02430666      0.60024956      2.74211604
H      -0.55579807      1.35214131      1.90641572
C      -0.78307757      1.04349149      4.22977971
H      -0.63022786     -0.38813214      2.28528912
H      -0.48734044      2.11593813      4.77977782
H      -0.70715948      0.30044457      5.22064348
H      -2.01255581      1.19845316      4.31595546
H      10.30562423     -3.78036640     -9.47089741
H      11.25763177     -5.03029276    -10.82925818
H      10.64185328     -5.77267981     -8.98984073
H       4.10937291     -3.37604633     17.61590510
H       1.29087844     -3.83352902     19.63349722
H       7.87752227     -7.92833814      8.12290552
H      17.39226032     -3.75827583     14.57658445
H      -8.57328484     -4.15503337     22.41094426
H       8.67322076      8.75417555      1.00144116
H      -1.21330828     10.01002773     14.99821007
H      10.40438855      8.43573955      4.06395655
H      15.57713523     -2.36270783      0.96760637
H      -1.20431456      8.78406891     12.28674359
H      18.01650241     -0.43378215      2.31404607
H      22.42964607     -0.24841713     -9.24536768
H      12.27885182     -1.47335044      3.22883143
H      20.31948059     -1.49652388     -0.30807115
H       8.96336632      7.27943821      3.62311552
C      15.47194240     -2.36237021     15.46711720
C       8.14599340     -6.82122655      7.90538200
C       2.95583979     -3.06400715     17.60399370
C       1.99120661     -3.50052466     18.76354304
C      16.79824559     -2.73317852     14.70461265
C       9.27062608      9.10946448      1.99068110
C       9.29899282      8.46124674      3.51727997
C      -0.69744568      9.89364897     12.50585447
C      -1.06470403     10.68922831     13.97220622
C      15.90207885     -1.52651962      1.81225631
C      17.18281546     -0.48716733      1.40912071
C      18.23408912     -0.60551860      0.17285640
C      19.61933403     -0.55510585     -0.66802783
C      14.45392098     -0.97037823      2.26478907
C      13.01756117     -0.62492953      2.82189788
H      19.63454401     -0.64724241     -1.89023097
H      -7.53652846     -2.73720124     -3.52579457
H      14.62424611     -1.99858624     16.18345464
H      -8.44498614     -3.48280989     22.78518353
H       7.96221376     -5.92684277      7.19026528
H      17.54356026     -1.96752814     14.18124543
H       2.57209840     -2.41098673     16.67942046
H       9.83687339     10.08046625      1.54486580
H      -0.26362236     11.52582786     14.41318251
H       8.55956584      9.04370483      4.31550807
H      16.11337730     -2.28329089      2.76376345
H      -0.98793183     10.44995728     11.43709862
H      16.85537190      0.69555745      1.29536384
H      22.32074342      0.52164523     -9.30490065
H      12.57905301      0.48402106      2.88591311
H      20.17570807      0.52783578     -0.50029653
H      -2.10166093     11.36464280     14.04029515
