   94
energy=      0.00000000
C       7.13315482     -6.85308127     -7.67394344
C       5.64336903     -7.60666897     -7.24740197
H       7.40593088     -6.05644643     -6.75792952
C     -10.35223719     -0.90292630      5.86262389
H     -18.89185999     -7.18329685     -1.80818867
H       4.66450805     -6.93608449     -6.88082262
C      10.10102916     -1.65603137      7.92774378
H       5.61755023     -8.41726866     -6.30914860
H      -7.56622560     -6.01512687    -16.99155064
H      -7.55851441     -6.78452087    -16.86359197
C      10.42513084      2.48532745      6.57834651
H      11.42573243      2.81935208      7.20643351
C       9.86515392     -2.60314835      6.61908822
H       7.80201936      3.65928495     -4.19663786
H      11.00207536     -2.38197155      6.21576307
H      -0.14324904     -7.37312948     12.68691252
C       8.93315810     -3.89825465      6.72875863
H       7.92268761     -4.10074054      7.40465131
C       6.34484560      5.54720796     -3.47416733
H       9.33762964     -5.03452719      6.97833805
H       7.02309269      6.48682813     -3.92800475
H       5.30185222      6.04858703     -3.91752295
C       6.76461233      4.23474959     -4.52896536
H       7.11216692      4.79027243     -7.09468776
C       6.42951300      4.42555461     -6.16182232
H       6.65309508      3.00855510     -4.47301802
H       5.41082468      4.27567002     -6.80422576
H      -2.99588326     13.84804180     10.97118645
C       8.56236693     -7.65542890     -8.21813807
H     -10.74359595      0.21633235      5.71281672
H     -19.27118577     -7.16726916     -1.12682601
C       0.53742589     -6.42772164      1.99522494
H     -11.01390178     -1.78378982      5.39934946
C      -1.16836905     -7.12813458     13.27899969
H      -0.28353211     -6.89453769      2.67513554
H      -3.40369176     -8.07764626     13.53438050
H      -1.16511742     -5.92172713     13.19489680
C      -3.56001328      0.05579044     -7.29964687
H       6.78657430      6.81204900     -1.49921050
C       4.82837540      5.80419133     -0.78252365
H      -4.21769162      0.86115883     -7.81950559
H       4.75496770      6.60953366      0.16171379
H       4.35864577      4.82729439     -0.18488564
H       3.70967579      6.09595905     -1.22161713
H       8.86452239     -7.46188249     -9.40724713
H       8.43927532     -8.86060771     -8.47825751
H      10.63968532     -8.31639665     -6.71942095
H       8.27490818      0.28603320      9.32569295
H      11.65139000     -0.78983494      8.60177479
H      -2.03575607     -9.35619166     13.92866274
H       8.27740226      1.41135181      6.77551823
H      -8.74524341     -4.13752919     22.51985742
H       5.56424646     13.79100716     17.31910960
H       3.17616564     13.86981265     20.42726557
H      11.15995911     -0.91801085     11.55628547
H      11.14709673      1.99338734      2.76233605
H      -4.75293279     12.91569800     10.67707525
H      12.94307311      2.38345781      3.59447252
H       1.28497187      1.77933824    -18.00471786
H       7.97802438     -3.10373147      4.63631076
H       6.88642073     -5.91504306     -8.45689076
H      12.10589159      0.47248277     10.89335700
C      -9.02049327     -1.20442128      6.63797963
C      -2.26250987     -8.14628629     13.99851921
C       9.34214574      0.70594632      8.85267994
C      10.53699766     -0.50198003      9.01232046
C       9.32933758      1.52293490      7.38688151
C       5.05301094     14.06376153     18.37687362
C      11.28125964     -0.33595680     10.50246736
C      -4.19801789     14.01167378     10.76090584
C       3.96442394     13.81357947     19.54127846
C       7.36721927      4.70141411     -0.94829195
C      11.78906080      2.11660355      3.76159905
C      11.10976682      2.06249622      5.18451552
C      10.01042433     -7.52757529     -7.38883913
C       6.27235726      5.69960221     -1.73503902
C       8.98028021     -3.07983820      5.34842291
H       8.46311764      4.89641822     -0.47051459
H       5.01161911     -8.26784447     -8.08535653
H      -8.03208998     -1.42818700      7.21343874
H      -8.61694471     -3.46530571     22.89409669
H      -2.38562017     -7.98143118     15.21514269
H       9.94169942      3.58141329      6.31137797
H       9.15733821      1.61411651      9.67598584
H       6.05444322     14.13079757     17.71623468
H       4.71655100     15.05728366     18.94122376
H      -3.22127425     -0.92683135     -6.77895270
H       7.34929247      3.52795780     -0.64740006
H      -4.34988696     14.63028602      9.70716218
H       1.33834327     -5.95281666      1.29725338
H       1.22522505      2.55375970    -18.07614389
H       9.40414554     -2.93256776      4.20227605
H      10.79721076     -6.61353424     -7.26634117
H      -4.69336856     14.65266930     11.68819948
   94
energy=      0.00000000
C       7.13610992     -6.84372872     -7.67322266
C       5.65252105     -7.60922230     -7.24847599
H       7.40631988     -6.04175641     -6.76096319
C     -10.35223719     -0.90292630      5.86262389
H     -18.89185999     -7.18329685     -1.80818867
H       4.66667289     -6.95116223     -6.87927203
C       9.84392006     -1.88931490      8.26508052
H       5.63682396     -8.42081831     -6.31075499
H      -7.56622560     -6.01512687    -16.99155064
H      -7.55851441     -6.78452087    -16.86359197
C      10.13666092      2.29285474      6.92656094
H      11.14966769      2.61840472      7.53824728
C       9.61225115     -2.85030851      6.96849393
H       7.64178064      3.80266397     -4.42874540
H      10.75987511     -2.66701879      6.57425893
H      -0.14324894     -7.37313387     12.68691924
C       8.66436962     -4.13343268      7.08099446
H       7.66301338     -4.33241503      7.77105564
C       6.12677865      5.62771356     -3.61374223
H       9.05656243     -5.27574696      7.32165345
H       6.79813272      6.57654639     -4.06025039
H       5.07244088      6.10482843     -4.05859085
C       6.54045943      4.31363724     -4.66645980
H       6.90897697      4.85702674     -7.23045655
C       6.21826884      4.49169622     -6.30347733
H       6.28675806      3.11346078     -4.50992602
H       5.20157117      4.33473571     -6.94750670
H      -3.00364170     13.84794703     10.96428889
C       8.55707945     -7.65691902     -8.22158053
H     -10.74359595      0.21633235      5.71281672
H     -19.27118577     -7.16726916     -1.12682601
C       0.53424371     -6.42643055      1.99231562
H     -11.01390178     -1.78378982      5.39934946
C      -1.16836751     -7.12813881     13.27900883
H      -0.28197753     -6.89520472      2.67657734
H      -3.40368981     -8.07765133     13.53438852
H      -1.16511451     -5.92173120     13.19490827
C      -3.76246754     -0.05256756     -7.36662863
H       6.58353295      6.88354731     -1.63577536
C       4.61083624      5.87098538     -0.93944071
H      -4.35003564      0.80321422     -7.89177108
H       4.53155512      6.66841039      0.01038224
H       4.13149786      4.88659376     -0.36222727
H       3.49884982      6.17103114     -1.38982213
H       8.85214324     -7.47622444     -9.41439840
H       8.43478903     -8.86228849     -8.48127198
H      10.61850139     -8.31455266     -6.70249909
H       7.98976281      0.05723629      9.62652475
H      11.38635313     -0.93623782      8.89467103
H      -2.03575366     -9.35619581     13.92867335
H       8.00734773      1.17863340      7.07916459
H      -8.74525928     -4.13752018     22.51987819
H       5.30719112     13.65660482     17.32018644
H       3.19716894     13.73754317     20.39422849
H      10.84840147     -1.20612162     11.87142502
H      17.27663155      4.29847217      0.29107835
H      -4.76069122     12.91560322     10.67017769
H      17.96680581      4.44684818      0.62280753
H       1.28497187      1.77933824    -18.00471786
H       7.67749077     -3.25138990      5.02790637
H       6.89421282     -5.89466015     -8.44437597
H      11.81802603      0.19288208     11.25468810
C      -9.02049327     -1.20442128      6.63797963
C      -2.26250834     -8.14629052     13.99852837
C       9.06256486      0.48169687      9.17105908
C      10.26561170     -0.71793936      9.33314833
C       9.04593546      1.30620919      7.71007183
C       5.06099461     14.16835493     18.39426950
C      10.99074423     -0.59795726     10.83574887
C      -4.20577633     14.01157900     10.75400828
C       3.98827801     13.73668777     19.51723300
C       7.15782747      4.77562335     -1.08467655
C      11.45576982      1.82272927      4.17326817
C      10.80079287      1.85740448      5.53772447
C      10.00175841     -7.52931790     -7.38748836
C       6.06485978      5.77371110     -1.87519956
C       8.70057297     -3.29983314      5.70862650
H       8.25299611      4.96763975     -0.60427346
H       5.02659086     -8.26947174     -8.09147714
H      -8.03208998     -1.42818700      7.21343874
H      -8.61696058     -3.46529670     22.89411747
H      -2.38561986     -7.98143464     15.21515161
H       9.66806370      3.39683006      6.66852668
H       8.87679287      1.38123454     10.00306441
H       6.16786904     14.14278373     17.90673724
H       4.84613165     15.28474149     18.82381884
H      -3.34387520     -1.00225913     -6.84104356
H       7.13998770      3.60464667     -0.77457897
H      -4.35764540     14.63019125      9.70026461
H       1.33999177     -5.95342915      1.29861528
H       1.22522505      2.55375970    -18.07614389
H       9.12092234     -3.18704830      4.55683254
H      10.79251498     -6.61774026     -7.27395708
H      -4.70112699     14.65257452     11.68130192
