   94
energy=      0.00000000
C      10.83194215     -8.23647321     -9.00230713
C      -0.34772690    -10.13617038     -9.68164018
H      10.93790631     -7.34950225     -8.14585358
C      -0.19682963     -0.99207564      8.21689601
H     -18.89185999     -7.18329685     -1.80818867
H      -0.58197416     -9.34808518     -8.85808985
C       0.94285480     -1.06838418      9.39461651
H      10.00899102     -8.94644606     -8.40723114
H      -8.53156068     -6.31648995    -17.82625171
H      -8.52384950     -7.08588394    -17.69829304
C       6.44334506     -0.22414895     -2.66732452
H      16.07331130      6.48611777     13.52058838
C       8.32979173     -9.92355518      5.42654750
H       8.44293415     12.82746988      3.38689905
H       8.61941415     -9.35159745      4.44188476
H       2.50425844    -10.90118632     17.33758517
C       6.57539568    -10.70917768      7.48970190
H       5.46311544    -10.79690636      7.02789747
C       7.89861550     13.04116937      5.82984116
H       6.29612843    -10.58221812      8.65887797
H       9.49486321     13.98215717      7.11497126
H       6.82123346     13.58851534      5.63431363
C       8.47233229     12.23509816      4.46921263
H      16.69775101      2.88062585     -4.96113023
C      15.59392200      2.66066033     -4.85056771
H       4.31839278      0.54513926     -2.28685216
H       7.93346218     11.14204687      4.26320346
H      -2.20778801     10.68650213     11.82959127
C      12.21245248     -8.99540111     -9.66997524
H      -1.23760965     -0.62207596      8.72512571
H     -19.27118577     -7.16726916     -1.12682601
C       2.76235401     -2.61422098     -1.87596447
H       0.80668018     -2.11575084      9.99536344
C       1.47819573    -10.71751696     17.93036419
H       2.00051284     -2.44376964     -0.97162669
H     -10.96213609    -12.27297242     15.66815272
H       1.07348491     -9.60107587     18.09678088
C      -5.45418212      0.66525253     -7.95308635
H       2.54055215     11.71781615     -2.65058058
C       0.08083616     10.96016284     -2.63634740
H      -5.95834949      1.57183068     -8.48045391
H      -0.33047539     11.52401185     -1.62049872
H      -0.58241221      9.92320581     -2.61061013
H      -0.40190510     11.54788387     -3.60648606
H      12.47924437     -8.67499673    -10.83901521
H      12.04761629    -10.16647630    -10.04872049
H      14.01622471     -9.62874390     -7.87051678
H       3.39948418      1.26938595      7.80152495
H       1.46192126      0.99780441     10.36754085
H       0.85684386    -11.65028868     18.35672652
H       7.98056021      0.72011241     -4.19966212
H      -9.42675544     -2.95204824     23.99740376
H       6.87578513     13.29239018      9.34560302
H       8.92535490     12.09292519      7.62656344
H       3.11415336     -0.53265960     12.25683056
H      26.42731526      7.32036741     -2.22000405
H      -4.24158606      9.60737774     11.48915491
H      27.11748881      7.46874313     -1.88827450
H       0.54444723     -2.01789041      6.03982335
H       8.30455630    -11.95563336      6.42388151
H      10.07336743     -7.59300464     -9.74014059
H       4.41516385     -0.48059462     11.02320917
C      -0.25298510     -1.24291122      6.57042210
C     -10.36016020    -12.21606716     16.66242232
C       2.84723434      0.70572302      8.67198870
C       2.07922579      0.03183270      9.91638057
C       7.64766588      0.70154361     -3.05161505
C       7.91583296     13.78704232      8.88725199
C       3.21529063     -0.34317522     11.06754857
C      -3.22468704     10.14693994     11.65937309
C       8.53124826     13.24305105      7.37952983
C       2.57751085      9.51100950     -2.88564619
C       4.02158007     -1.71316203     -2.12912100
C       4.93373935     -0.46833019     -2.35667174
C      13.62388852     -8.93644348     -8.78283268
C       1.72553670     10.82873346     -2.71061492
C       8.05206303    -10.79668612      6.75023758
H       9.66017811     11.91236023      4.36797215
H      -0.11432852    -10.92428742    -10.50540103
H      -1.29261154     -1.74009980      6.12957188
H      -9.29845674     -2.27982476     24.37164303
H      -9.75818431    -12.15916191     17.65669192
H      15.89747689      7.23957088     13.42164096
H       8.05789608      1.44620063     -2.20896248
H       8.63649247     13.67978600      9.89495303
H       7.59482591     14.97249425      9.05394155
H      -4.95001474     -0.24132561     -7.42571879
H       3.17581948      8.51934136     -3.02866657
H      -7.58509478     21.18379827      9.78636566
H       2.45579832     -3.50784241     -2.60272445
H      -0.09488722     -0.21460105      5.90647703
H       8.98797122    -10.47169969      7.47913499
H      14.56233172     -8.17327169     -8.83506741
H      -7.71830632     21.19241746     10.55485795
   94
energy=      0.00000000
C      10.83148750     -8.23601126     -9.00267670
C      -0.01655938    -10.70209306     -9.72690632
H      10.93892436     -7.33953351     -8.15631233
C      -0.23664293     -0.97244553      8.27747989
H      -4.94895465      6.04397474     -1.74247483
H      -0.25046518     -9.91399499     -8.90327125
C       0.93735986     -1.05525131      9.41824082
H      10.01527430     -8.94448834     -8.39661844
H      -8.82389101     -7.11496087    -18.93572149
H      -8.81617982     -7.88435486    -18.80776282
C       6.50598000     -0.37760911     -2.73110779
H      16.07331130      6.48611777     13.52058838
C       8.31757268     -9.93532585      5.43549179
H       8.39791908     12.86147721      3.40416414
H       8.55207890     -9.32426740      4.46039122
H       2.50425844    -10.90118632     17.33758517
C       6.58249631    -10.70434127      7.47492304
H       5.47618552    -10.77352732      6.99576621
C       7.92033879     13.03324709      5.85610152
H       6.28841461    -10.55367527      8.63721186
H       9.57610839     13.93411951      7.14731375
H       6.83779598     13.57632281      5.68198581
C       8.45111577     12.24296788      4.47107722
H      16.85711207      2.91586041     -5.08188573
C      15.75328332      2.69589495     -4.97132326
H       4.37195220      0.38555743     -2.32678203
H       7.89681562     11.15753004      4.26619084
H      -2.21947149     10.71285114     11.84582056
C      12.21297949     -8.99330512     -9.67018020
H      -1.27776364     -0.61064764      8.79372715
H      -4.95527648      6.07625749     -1.62412858
C       2.91739175     -2.85411682     -1.93334435
H       0.87897959     -2.15122604      9.93833506
C       1.47819573    -10.71751696     17.93036419
H       2.17641751     -2.68393295     -1.01090509
H     -10.96213609    -12.27297242     15.66815272
H       1.07348491     -9.60107587     18.09678088
C      -6.58073908     -0.67092922     -9.27227797
H      -1.83650292      7.40780694     -1.72146008
C      -1.96943378      9.44270854     -1.90072804
H      -7.08490647      0.23564898     -9.79964541
H      -1.81637873     10.38346484     -1.12724460
H      -0.76176749      9.38978530     -2.15409492
H      -1.92366786     10.48626108     -2.53628902
H      12.48195669     -8.66803795    -10.83738336
H      12.04729159    -10.16319614    -10.05223683
H      14.01648898     -9.63643020     -7.87355941
H       3.40940040      1.24439208      7.83177091
H       1.44403326      1.02218569     10.41091004
H       0.85684386    -11.65028868     18.35672652
H       8.18659056      0.47343475     -4.22951999
H      -9.42675544     -2.95204824     23.99740376
H       6.85090182     13.27708507      9.28857956
H       9.03581165     12.10177810      7.65004507
H       3.07799992     -0.54638094     12.29172128
H      26.59603254      7.39406717     -2.17340260
H      -4.25326953      9.63372674     11.50538421
H      27.28620609      7.54244290     -1.84167305
H       0.56574980     -2.03131752      6.15797246
H       8.33851350    -11.97852200      6.44949904
H      10.06362218     -7.60566932     -9.74227481
H       4.37226476     -0.55440417     11.03949461
C      -0.26112939     -1.25253678      6.63586113
C     -10.36016020    -12.21606716     16.66242232
C       2.83240058      0.72739586      8.71496893
C       2.05612044      0.05418611      9.95485426
C       7.77566288      0.46237251     -3.10840246
C       7.89763469     13.78826647      8.86473215
C       3.18165275     -0.35773812     11.10255615
C      -3.23637051     10.17328894     11.67560239
C       8.58287432     13.22859851      7.39375473
C      -3.88627404      6.61352749     -1.78350181
C       4.14213205     -1.90640497     -2.18170217
C       4.99877773     -0.62111106     -2.40549283
C      13.62380280     -8.93887257     -8.78169094
C      -2.86196928      7.98236004     -1.81951431
C       8.06801863    -10.81825271      6.75772750
H       9.63087401     11.90710417      4.33208083
H       0.21718049    -11.49019735    -10.55058255
H      -1.28088695     -1.77106989      6.17505445
H      -9.29845674     -2.27982476     24.37164303
H      -9.75818431    -12.15916191     17.65669192
H      15.89747689      7.23957088     13.42164096
H       8.29098057      1.17898848     -2.30219176
H       8.56317563     13.71275016      9.91116573
H       7.56179277     14.97525898      8.98706487
H      -6.07657169     -1.57750739     -8.74491046
H      -3.27881515      5.54877101     -1.90096939
H      -7.59898053     21.21843440      9.78166394
H       2.65279516     -3.74217560     -2.68488085
H      -0.10887564     -0.23669162      5.95205608
H       9.00745792    -10.50324290      7.48638127
H      14.56213712     -8.17521496     -8.82872724
H      -7.73219206     21.22705360     10.55015623
