   94
energy=      0.00000000
C      -8.28408911     -5.22315674     -5.52297604
C      -7.14830264     -5.74530969     -4.51322645
H      -9.11347782     -4.84186310     -6.26032897
C     -10.16968115     -0.97812123      5.78662610
H     -18.89185999     -7.18329685     -1.80818867
H      -6.60261526     -4.80783069     -3.93834468
C      10.55036120     -1.91419756      9.22432445
H      -7.62414225     -6.48456886     -3.65636987
H      -7.33653238     -5.79074589    -16.94234694
H      -7.32882119     -6.56013989    -16.81438827
C       9.89151553      1.35181674      5.71117914
H       9.69237141      2.51165696      6.04139045
C      10.48839234     -3.20322704      8.24696449
H      10.46837494      1.03138496      3.33773113
H      11.06582022     -2.73445130      7.30495200
H       0.32152355     -6.93135943     11.13965061
C       9.92172541     -4.74178641      7.93938105
H       8.79733678     -4.65912662      7.43030303
C       5.58497567      3.34454241     -3.58570177
H       9.60297011     -5.29720134      8.99281184
H       6.63926383      3.80836004     -4.05792210
H       4.95893822      4.38743651     -3.83893051
C       5.05662265      2.20255781     -4.78173366
H       5.56683083      2.87998426     -7.30983635
C       4.84886314      2.81982030     -6.33365658
H       5.89995487      1.32780097     -5.04284906
H       3.96779629      3.44731712     -6.88083704
H      -1.67522236     13.86417483     12.14530767
C      19.67495958     -6.55100541     -9.25494990
H     -10.56103990      0.14113741      5.63681892
H     -19.27118577     -7.16726916     -1.12682601
C      -9.30897803      4.96232714    -10.51107341
H     -10.83134579     -1.85898470      5.32335163
C      -0.70363230     -6.68637287     11.73167886
H     -10.40895073      4.90076610    -10.25089213
H      -2.93894395     -7.63586990     11.98704533
H      -0.70042765     -5.47996817     11.64752665
C       3.82436210      1.15904957     -4.34890002
H       6.31819346      4.37324273     -1.57794285
C       4.35657153      3.38798934     -0.84945456
H       2.61843375      1.22759102     -4.40772712
H       4.19921605      4.34963840     -0.08030759
H       4.00561286      2.52492038     -0.03467598
H       3.19143717      3.43465586     -1.25800754
H      18.56604291     -6.05539227     -9.46470163
H      19.34499123     -7.38103379    -10.09330166
H      20.00542500     -6.91601699     -6.70560728
H       8.21844868     -0.47724353      9.44961039
H      11.70374837     -0.52194705      9.79081222
H      -1.57108579     -8.91445024     12.38133438
H       8.34226657     -0.06939677      6.77494296
H      -8.70101793     -4.16259184     22.46177845
H       8.20292755     13.22027483     11.17401892
H      -2.34916350     13.47718722     24.28698232
H      10.67323563      1.33903133     11.77021133
H       7.94203718      1.72584918     -1.87007748
H      -3.43227189     12.93183102     11.85119647
H      12.83607545      2.38828910      2.44015774
H       1.13493633      1.57363886    -14.27436771
H      10.58482791     -6.47290601      6.04471227
H      20.78540070     -6.61135122     -9.78509193
H      10.64535177      2.24839510     10.30487678
C      -8.83793723     -1.27961622      6.56198184
C      -1.79776792     -7.70453200     12.45119534
C       9.09430141      0.07216649      8.77297514
C      10.50598821     -0.31225840      9.63011730
C       9.32120352      0.53701662      7.12956551
C       9.13835244     13.77360906     11.58993564
C      10.64838789      1.06491650     10.58867779
C      -2.87735699     14.02780680     11.93502706
C      -1.82981241     14.44151727     23.89388281
C       6.97327008      2.17171718     -1.24300367
C      11.99810215      2.19255800      3.26059260
C      10.89800306      1.55607854      4.32873238
C      20.01008233     -6.18894027     -7.67201255
C       5.77720395      3.27471238     -1.84559012
C      10.82221651     -5.82260981      7.03997011
H       7.69813780      2.50264715     -0.29090307
H      -6.28027477     -6.37469725     -5.11116422
H      -7.84953392     -1.50338187      7.13744096
H      -8.57271924     -3.49036836     22.83601772
H      -1.92080649     -7.53969228     13.66782846
H       8.91518820      1.13856537      5.02379658
H       8.03451248      0.36648741      9.32596804
H      10.07369391     14.32714122     12.00577660
H      -1.31046131     15.40584731     23.50078330
H       3.82087762      0.05584575     -3.84888556
H       6.67569300      1.02683866     -0.87790308
H      -3.02922606     14.64641905     10.88128340
H      12.45795347      2.75035469      2.31545490
H       1.07519040      2.34806060    -14.34579134
H      11.95775635     -6.22059866      7.16216235
H      20.33339834     -5.12315810     -7.19284830
H      -3.37270765     14.66880232     12.86232070
   94
energy=      0.00000000
C      -8.28408908     -5.22315672     -5.52297606
C      -7.14830261     -5.74530968     -4.51322647
H      -9.11347793     -4.84186317     -6.26032889
C     -10.16968116     -0.97812122      5.78662609
H     -18.89185999     -7.18329685     -1.80818867
H      -6.60261512     -4.80783074     -3.93834468
C      10.58926374     -1.87548412      9.13060200
H      -7.62414245     -6.48456882     -3.65636999
H      -7.33771152     -5.79188303    -16.94270548
H      -7.33000033     -6.56127703    -16.81474681
C       9.77137799      1.42391470      5.68904990
H       9.91662404      2.55165727      6.15753485
C      10.58240221     -3.18594182      8.19117728
H      10.47930294      0.69167791      3.44187339
H      11.24960345     -2.77212499      7.27985112
H       0.32152166     -6.93136439     11.13964551
C       9.94538983     -4.70875015      7.97725767
H       8.79708818     -4.61876211      7.52805506
C       5.18844635      3.14616877     -3.33254218
H       9.63021384     -5.22510455      9.05201380
H       6.17753601      3.61403876     -3.91934621
H       4.72688621      4.22590702     -3.75120037
C       5.10217322      1.70034356     -5.52206389
H       5.64174054      2.92677127     -7.61776356
C       4.81601702      2.69393653     -6.78235145
H       6.07407492      0.96314706     -5.53740950
H       3.88714632      3.41532277     -7.06184854
H      -1.67522236     13.86417483     12.14530767
C      19.67924106     -6.54216701     -9.26551159
H     -10.56103990      0.14113743      5.63681893
H     -19.27118577     -7.16726916     -1.12682601
C      -9.30897803      4.96232714    -10.51107341
H     -10.83134577     -1.85898473      5.32335165
C      -0.70363106     -6.68637519     11.73167826
H     -10.40895073      4.90076610    -10.25089213
H      -2.93895326     -7.63587067     11.98706499
H      -0.70041669     -5.47997079     11.64752644
C       4.33647553      1.82254898     -4.06163564
H       6.28946626      4.30572142     -1.53338457
C       4.28171929      3.39107156     -0.69779887
H       3.10892471      1.63060377     -4.13016733
H       4.18083293      4.38876537      0.02624482
H       3.94823316      2.48938732      0.07612262
H       3.11286668      3.50642483     -1.09044562
H      18.62479235     -5.96798914     -9.54719743
H      19.33449743     -7.51206011     -9.93558933
H      19.99298662     -6.94096411     -6.71325092
H       8.18800580     -0.55472054      9.24081422
H      11.69125476     -0.49276734      9.66456976
H      -1.57105879     -8.91444259     12.38132141
H       8.37846732     -0.24978226      6.56913459
H      -8.70101793     -4.16259184     22.46177845
H       8.20293744     13.22025135     11.17402791
H      -2.34916350     13.47718722     24.28698232
H      10.69184400      1.16549391     11.77571274
H       7.92934137      1.76191922     -1.86913702
H      -3.43227189     12.93183102     11.85119647
H      13.01056507      2.08098149      2.86418898
H       1.13390832      1.57441290    -14.28002085
H      10.56946136     -6.44001474      6.07985517
H      20.75510520     -6.50009029     -9.86668789
H      10.81812775      2.20631931     10.35315255
C      -8.83793724     -1.27961621      6.56198183
C      -1.79776955     -7.70453035     12.45119624
C       9.06583826      0.11459514      8.67735093
C      10.48994897     -0.28265298      9.52859471
C       9.21319027      0.50469488      7.02088916
C       9.13833265     13.77365602     11.58991766
C      10.69509702      1.01585042     10.57206568
C      -2.87735699     14.02780680     11.93502706
C      -1.82981241     14.44151727     23.89388281
C       6.95969861      2.13949738     -1.19188006
C      11.92694308      2.17882386      3.36917120
C      10.78251230      1.46239422      4.32101648
C      20.00623505     -6.20791220     -7.67425698
C       5.68759617      3.21145461     -1.68219897
C      10.82179556     -5.80988559      7.08328811
H       7.69953072      2.46760538     -0.25315220
H      -6.28027464     -6.37469721     -5.11116413
H      -7.84953393     -1.50338189      7.13744095
H      -8.57271924     -3.49036836     22.83601772
H      -1.92083285     -7.53969092     13.66782679
H       8.74834419      1.39040615      5.01863534
H       8.09234613      0.70708008      9.15117450
H      10.07370381     14.32711774     12.00578559
H      -1.31046131     15.40584731     23.50078330
H       4.03630284      0.68878926     -3.65390815
H       6.69225147      0.97654420     -0.86625590
H      -3.02922606     14.64641905     10.88128340
H      12.09244526      3.01451485      2.52478774
H       1.07416238      2.34883464    -14.35144450
H      11.95042828     -6.22337153      7.21985734
H      20.32744238     -5.15571518     -7.16601913
H      -3.37270765     14.66880232     12.86232070
