   94

C      -8.28632556     -5.21847624     -5.51136218
C      -7.15053740     -5.74062806     -4.50161392
H      -9.11557283     -4.83708544     -6.24882395
C      -9.94931484     -1.10799089      5.91473768
H     -18.89185999     -7.18329685     -1.80818867
H      -6.60495792     -4.80307688     -3.92674748
C      10.04040973     -5.11894645      7.46517323
H      -7.62614383     -6.47991443     -3.64465130
H      -7.29857073     -5.75426489    -16.93041859
H      -7.29085954     -6.52365889    -16.80245992
C       6.73371994      1.03147854      9.75943074
H       5.55989814      1.39386719      9.66637110
C       9.95713201     -5.91704649      6.14176881
H       6.58634872     -0.19494535      9.82333480
H      10.12172780     -5.02359190      5.35455872
H       1.53351362     -5.83085622     10.81704188
C       9.73736552     -7.54166032      5.97106878
H       8.72744464     -7.73079839      5.28729799
C       4.86973771      1.72754947     -2.83046129
H       9.26630167     -8.08270524      6.97541990
H       4.80163882      1.79568636     -4.05488323
H       5.04059604      2.54568475     -3.73369440
C       4.52028629      0.05653075     -2.52975602
H       5.21745021     -0.96645803     -2.65593561
C       8.24133052     11.02659787    -16.67272651
H       4.02920994     -0.59587215     -3.45823713
H       7.59532382     11.83472489    -17.13210486
H      -0.88914472     13.61687685     12.12272325
C      12.37234461     -6.91729667    -13.67192055
H     -10.47467657     -0.06583539      5.67877578
H     -19.27118577     -7.16726916     -1.12682601
C      -9.29645936      4.95896142    -10.51503065
H     -10.71682842     -1.85742408      5.39797383
C       0.50672122     -5.59645565     11.41011981
H     -10.39643206      4.89740038    -10.25484936
H      -1.68749835     -6.56271496     11.58929553
H       0.48742234     -4.38842059     11.33894047
C       3.87675302     -0.18287143     -1.01568407
H       5.67405764      3.87265714     -1.44126971
C       3.96328662      3.31529170     -0.48154325
H       2.69590687     -0.06328757     -0.80160251
H       3.73353943      4.39339286      0.08140839
H       3.54067165      2.99435908      0.63941807
H       2.78413245      3.49645099     -0.84356901
H      11.94284700     -5.83658463    -13.37948360
H      12.89496904     -7.08642857    -14.73783995
H      12.27921780     -7.82887681    -12.89843808
H       8.31879890      2.09912369     13.25163918
H       6.17069632      4.41026966     12.89267045
H      -0.45130367     -7.85384272     12.11619842
H       8.90162650      1.49252528     10.68253738
H      -8.70101793     -4.16259184     22.46177845
H       6.54924999      7.23209961     11.26926302
H      -2.34926645     13.47707260     24.28447819
H       8.83924454      5.70924928     13.39145210
H       7.71522753      1.80543858     -2.36483388
H      -2.64619425     12.68453305     11.82861206
H      18.54992280      0.44742033     -4.91106469
H       1.39573177      1.59075688    -13.44446147
H      11.23802062     -9.17497491      4.58855267
H      28.97090236     -1.67643105      0.07609727
H       9.22121302      5.29759131     11.60952593
C      -8.61370621     -1.41036320      6.69234397
C      -0.57759903     -6.62835226     12.12454290
C       7.48774160      2.45870589     12.41082096
C       7.29452409      4.12521519     12.51245053
C       7.72232447      1.68306400     10.94243211
C       7.60316643      6.94425893     11.78621758
C       8.23856820      5.50143261     12.32859574
C      -2.09127935     13.78050884     11.91244264
C      -1.82991536     14.44140264     23.89137868
C       6.94356911      2.00756123     -1.41023713
C      18.57578614      0.95558225     -5.98787185
C      19.23607072      0.17857861     -7.14141271
C      28.89202853     -0.52001579     -0.02718812
C       5.31734196      2.68965874     -1.45603213
C      11.09143440     -8.35405626      5.46313197
H       8.04670291      2.36874692     -1.02520333
H      -6.28260564     -6.37004062     -5.09966482
H      -7.62288714     -1.63464033      7.26921031
H      -8.57271924     -3.49036836     22.83601772
H      -0.62314808     -6.46300505     13.34657281
H       7.05614522      1.25721100      8.58974112
H       6.61572788      1.84376548     13.03203424
H       8.03200671      8.07655684     11.77352867
H      -1.31056426     15.40573269     23.49827917
H       4.35949355     -0.38409433      0.08659683
H       7.32749767      0.92774185     -0.94212348
H      -2.24314842     14.39912108     10.85869898
H      18.12008332      2.03042956     -6.22335101
H       1.33598602      2.36517869    -13.51588489
H      12.23309733     -8.30075597      5.85646076
H      28.81337808      0.63646345     -0.12992607
H      -2.58663002     14.42150435     12.83973628
   94

C      -8.28744532     -5.21890056     -5.51154664
C      -7.15175764     -5.74117901     -4.50176908
H      -9.11651821     -4.83728112     -6.24907984
C      -9.95311226     -1.10712923      5.91262058
H     -18.89193112     -7.18331808     -1.80817412
H      -6.60623631     -4.80360479     -3.92689188
C      10.04134627     -5.11825136      7.46451440
H      -7.62735147     -6.48044132     -3.64478315
H      -7.30126123     -5.75676919    -16.93135634
H      -7.29350119     -6.52615950    -16.80337873
C       6.73369089      1.03545743      9.76080965
H       5.56024102      1.39956087      9.66960393
C       9.95699225     -5.91667141      6.14136809
H       6.58664974     -0.19095932      9.82464401
H      10.11978174     -5.02312019      5.35389843
H       1.53369908     -5.83223907     10.81677959
C       9.73774515     -7.54141928      5.97121598
H       8.72781943     -7.73088771      5.28755673
C       4.92171907      1.91071893     -2.92620810
H       9.26694420     -8.08221763      6.97581919
H       5.00373443      1.95238763     -4.14579182
H       5.04230304      2.84655621     -3.72479340
C       4.55805523      0.20842864     -2.82581731
H       5.32989602     -0.91474046     -3.15987176
C       7.93122748     10.16201210    -15.52836409
H       3.97210976     -0.35002533     -3.76164952
H       7.32581433     10.99821351    -16.01216980
H      -0.88922111     13.61695607     12.12289053
C      12.37302074     -6.91844361    -13.67241747
H     -10.46715026     -0.05731496      5.68402876
H     -19.27124976     -7.16728732     -1.12680758
C      -9.29876687      4.95924603    -10.51454483
H     -10.71198735     -1.86874824      5.40013160
C       0.50705381     -5.59698818     11.40980202
H     -10.39872964      4.89770246    -10.25432607
H      -1.69035111     -6.56182769     11.59465083
H       0.48940682     -4.38905484     11.33761192
C       3.86874859     -0.12839667     -1.34793664
H       5.72748498      3.95511098     -1.42161564
C       3.99889026      3.35406186     -0.48655292
H       2.69736704     -0.01456360     -1.08815838
H       3.77612550      4.42337099      0.09698274
H       3.59311431      2.98468263      0.62523400
H       2.81639733      3.52409298     -0.84006475
H      11.94356961     -5.83771686    -13.37998310
H      12.89561315     -7.08755447    -14.73835217
H      12.27988044     -7.83000535    -12.89892036
H       8.31897645      2.09691392     13.25496110
H       6.16661682      4.40764116     12.88591431
H      -0.44396821     -7.85256665     12.11160941
H       8.90322313      1.50028902     10.68023485
H      -8.70100771     -4.16258968     22.46176123
H       6.55216904      7.22964717     11.26246953
H      -2.34927120     13.47707166     24.28449457
H       8.83791075      5.70540549     13.39062327
H       7.77323467      1.88613972     -2.33155499
H      -2.64626811     12.68460659     11.82876856
H      18.55135359      0.44684881     -4.91073481
H       1.36231971      1.57799846    -13.52561062
H      11.23866602     -9.17270105      4.58664696
H      28.97102395     -1.67647606      0.07614385
H       9.21976895      5.29481456     11.60799572
C      -8.61805126     -1.40936608      6.68988288
C      -0.57795997     -6.62786182     12.12463091
C       7.48852929      2.45683890     12.41367853
C       7.29263327      4.12311379     12.51180109
C       7.72374991      1.68559870     10.94322381
C       7.60350128      6.94193095     11.78473918
C       8.23742771      5.49866902     12.32750716
C      -2.09135561     13.78058292     11.91260587
C      -1.82992062     14.44140327     23.89139821
C       6.97809950      2.08691813     -1.39661350
C      18.57729095      0.95500302     -5.98754182
C      19.23733197      0.17791953     -7.14116117
C      28.89217661     -0.52005598     -0.02710802
C       5.35781471      2.77451265     -1.47787795
C      11.09166702     -8.35410637      5.46334525
H       8.05979575      2.46625501     -0.96511780
H      -6.28386256     -6.37062102     -5.09983577
H      -7.62744684     -1.63358079      7.26659467
H      -8.57270958     -3.49036655     22.83600133
H      -0.62930037     -6.46235250     13.34639962
H       7.05415847      1.26096325      8.59055957
H       6.61934513      1.83992288     13.03695743
H       8.03182383      8.07445608     11.77663796
H      -1.31057007     15.40573491     23.49830185
H       4.30139106     -0.42785190     -0.24751503
H       7.33817704      1.00578576     -0.91324659
H      -2.24323035     14.39920837     10.85887092
H      18.12188577      2.02999073     -6.22294520
H       1.29979684      2.35226334    -13.59630667
H      12.23263121     -8.30354745      5.85905740
H      28.81353051      0.63642172     -0.12986686
H      -2.58670877     14.42157153     12.83990281
   94

C      -8.28834031     -5.21929636     -5.51158556
C      -7.15271683     -5.74165785     -4.50178995
H      -9.11728989     -4.83752369     -6.24917465
C      -9.95696532     -1.10626363      5.91040991
H     -18.89198866     -7.18333901     -1.80815719
H      -6.60722587     -4.80407465     -3.92690332
C      10.04217934     -5.11751765      7.46367430
H      -7.62829341     -6.48089686     -3.64477729
H      -7.30403601     -5.75933752    -16.93233976
H      -7.29621325     -6.52872216    -16.80433216
C       6.73368521      1.03931186      9.76244256
H       5.56061160      1.40512508      9.67309480
C       9.95665569     -5.91621478      6.14076930
H       6.58698660     -0.18709745      9.82621724
H      10.11752004     -5.02256421      5.35302474
H       1.53387929     -5.83363357     10.81644976
C       9.73792610     -7.54109345      5.97115432
H       8.72800044     -7.73086098      5.28759076
C       4.96266648      2.09733065     -3.01246058
H       9.26738218     -8.08164510      6.97600638
H       5.25726801      2.13930362     -4.19375134
H       4.97788791      3.11940953     -3.71388496
C       4.60591886      0.38708785     -3.12525065
H       5.44861963     -0.80523003     -3.69244811
C       7.63182402      9.31391024    -14.38800109
H       3.95951689     -0.08150336     -4.06975164
H       7.06479469     10.17392158    -14.89513852
H      -0.88930260     13.61703843     12.12306988
C      12.37397730     -6.92001009    -13.67319138
H     -10.45943517     -0.04885595      5.68934596
H     -19.27130125     -7.16730521     -1.12678737
C      -9.30127436      4.95952665    -10.51407771
H     -10.70694771     -1.88011992      5.40234573
C       0.50739220     -5.59753850     11.40943691
H     -10.40122120      4.89800037    -10.25379929
H      -1.69316390     -6.56097794     11.59994872
H       0.49138859     -4.38970994     11.33624183
C       3.86924962     -0.05555779     -1.69674950
H       5.77500717      4.03054141     -1.40296960
C       4.03310461      3.37884426     -0.48349205
H       2.70856462      0.04046389     -1.38940085
H       3.81722136      4.43585739      0.12555723
H       3.64944236      2.95484070      0.61625163
H       2.84512744      3.53564412     -0.82246920
H      11.94459877     -5.83925614    -13.38077514
H      12.89652287     -7.08907465    -14.73915097
H      12.28081049     -7.83153955    -12.89966733
H       8.31918314      2.09471557     13.25841216
H       6.16259008      4.40498968     12.87924698
H      -0.43667542     -7.85124294     12.10700647
H       8.90484376      1.50801058     10.67812405
H      -8.70099864     -4.16258982     22.46174516
H       6.55511753      7.22719018     11.25577229
H      -2.34927704     13.47707255     24.28451474
H       8.83660072      5.70157268     13.38985647
H       7.82138862      1.95416235     -2.29194040
H      -2.64634773     12.68468350     11.82893821
H      18.55297037      0.44612105     -4.91021952
H       1.32156430      1.55489257    -13.60777715
H      11.23916240     -9.17032351      4.58460743
H      28.97114399     -1.67651689      0.07619014
H       9.21833976      5.29203286     11.60653161
C      -8.62240166     -1.40837685      6.68733778
C      -0.57831790     -6.62738386     12.12468133
C       7.48934645      2.45497815     12.41666366
C       7.29076575      4.12100922     12.51124836
C       7.72522711      1.68808134     10.94419526
C       7.60384566      6.93959502     11.78332835
C       8.23630493      5.49590295     12.32648765
C      -2.09143683     13.78066012     11.91278043
C      -1.82992696     14.44140568     23.89142143
C       7.00107868      2.15075729     -1.37867175
C      18.57907650      0.95429391     -5.98701153
C      19.23886037      0.17716199     -7.14073821
C      28.89232250     -0.52009207     -0.02702867
C       5.39290935      2.85464422     -1.50085196
C      11.09173324     -8.35405511      5.46341188
H       8.05968433      2.53811324     -0.89493056
H      -6.28485647     -6.37113677     -5.09986386
H      -7.63200466     -1.63253430      7.26388506
H      -8.57270129     -3.49036716     22.83598639
H      -0.63541788     -6.46173813     13.34616755
H       7.05220242      1.26457811      8.59163696
H       6.62299048      1.83611212     13.04200726
H       8.03162602      8.07233778     11.77978366
H      -1.31057691     15.40573881     23.49832804
H       4.25581297     -0.45905315     -0.61278761
H       7.32882849      1.06151181     -0.88992650
H      -2.24331676     14.39929744     10.85905335
H      18.12406498      2.02947360     -6.22228780
H       1.25205310      2.32856238    -13.67836194
H      12.23197662     -8.30627496      5.86154243
H      28.81367990      0.63638399     -0.12980915
H      -2.58679245     14.42164322     12.84007971
   94

C      -8.28894158     -5.21963186     -5.51149255
C      -7.15333323     -5.74201919     -4.50169646
H      -9.11783666     -4.83779551     -6.24910976
C      -9.96090402     -1.10539273      5.90810941
H     -18.89203043     -7.18335852     -1.80813996
H      -6.60784556     -4.80443749     -3.92680637
C      10.04297337     -5.11682142      7.46271022
H      -7.62888709     -6.48123814     -3.64465507
H      -7.30688575     -5.76195940    -16.93336952
H      -7.29898564     -6.53133599    -16.80531868
C       6.73373063      1.04305453      9.76438373
H       5.56103856      1.41057458      9.67689557
C       9.95618856     -5.91575065      6.14002811
H       6.58739191     -0.18334655      9.82811821
H      10.11507425     -5.02200499      5.35200003
H       1.53404639     -5.83506230     10.81611600
C       9.73795397     -7.54074889      5.97090129
H       8.72803279     -7.73077799      5.28741713
C       4.99061174      2.28195762     -3.08324099
H       9.26766329     -8.08105984      6.97599594
H       5.50315995      2.35182156     -4.18010782
H       4.89217820      3.35160198     -3.70551281
C       4.66269667      0.59514721     -3.42565040
H       5.58241143     -0.61481051     -4.26055973
C       7.34798705      8.48627828    -13.24962231
H       3.97829846      0.20630393     -4.37754972
H       6.81593551      9.36592194    -13.77885561
H      -0.88938527     13.61712547     12.12325677
C      12.37522383     -6.92196682    -13.67429915
H     -10.45155410     -0.04046231      5.69473082
H     -19.27133845     -7.16732192     -1.12676767
C      -9.30390687      4.95985211    -10.51367847
H     -10.70173036     -1.89153373      5.40461838
C       0.50772141     -5.59812723     11.40907445
H     -10.40382808      4.89832735    -10.25330553
H      -1.69595420     -6.56018484     11.60522528
H       0.49335808     -4.39040589     11.33489193
C       3.87879412      0.03710439     -2.06086962
H       5.81741879      4.09928762     -1.39184474
C       4.06776633      3.38990433     -0.47572434
H       2.73079777      0.10396308     -1.70367520
H       3.85915719      4.43230273      0.16110084
H       3.71254145      2.90802440      0.60948221
H       2.87243404      3.52919004     -0.79415685
H      11.94595640     -5.84116060    -13.38194468
H      12.89770868     -7.09096924    -14.74029140
H      12.28200556     -7.83343571    -12.90072039
H       8.31944097      2.09255032     13.26202612
H       6.15863029      4.40233277     12.87267851
H      -0.42944274     -7.84989519     12.10242383
H       8.90652737      1.51570742     10.67624184
H      -8.70099246     -4.16259249     22.46173325
H       6.55810539      7.22473234     11.24914682
H      -2.34928364     13.47707585     24.28453858
H       8.83533090      5.69777235     13.38914114
H       7.86006909      1.99390890     -2.24422767
H      -2.64642948     12.68476601     11.82911734
H      18.55485041      0.44527573     -4.90960806
H       1.27060607      1.52003369    -13.69576523
H      11.23954025     -9.16786466      4.58238524
H      28.97125819     -1.67655171      0.07623290
H       9.21693701      5.28925835     11.60512438
C      -8.62679188     -1.40739568      6.68472306
C      -0.57869158     -6.62694138     12.12473313
C       7.49021510      2.45314183     12.41980925
C       7.28893607      4.11891863     12.51080419
C       7.72679571      1.69052687     10.94538577
C       7.60420859      6.93725944     11.78196543
C       8.23521316      5.49314941     12.32552962
C      -2.09151912     13.78074255     11.91296229
C      -1.82993398     14.44141034     23.89144798
C       7.01389466      2.19693410     -1.35641072
C      18.58123499      0.95350061     -5.98636650
C      19.24070592      0.17633531     -7.14024277
C      28.89246146     -0.52012227     -0.02695369
C       5.42436721      2.92934569     -1.52386389
C      11.09167023     -8.35395916      5.46331538
H       8.04901950      2.58351832     -0.81988050
H      -6.28549864     -6.37153442     -5.09976779
H      -7.63660077     -1.63150336      7.26110471
H      -8.57269601     -3.49037037     22.83597574
H      -0.64152066     -6.46118662     13.34591606
H       7.05031019      1.26807319      8.59303103
H       6.62668599      1.83235104     13.04721621
H       8.03142229      8.07021048     11.78293965
H      -1.31058433     15.40574475     23.49835717
H       4.22500635     -0.47148182     -1.00811048
H       7.29808310      1.09636551     -0.86420360
H      -2.24340338     14.39938958     10.85924169
H      18.12676314      2.02894298     -6.22147392
H       1.18833134      2.29216038    -13.76933345
H      12.23117516     -8.30899240      5.86388400
H      28.81382088      0.63635197     -0.12975692
H      -2.58687684     14.42172200     12.84026284
   94

C      -8.28928506     -5.21991880     -5.51131033
C      -7.15364522     -5.74227802     -4.50153015
H      -9.11818587     -4.83808800     -6.24892681
C      -9.96497349     -1.10450818      5.90573234
H     -18.89206014     -7.18337591     -1.80812470
H      -6.60813998     -4.80470641     -3.92663927
C      10.04382526     -5.11634979      7.46180955
H      -7.62917703     -6.48148567     -3.64446618
H      -7.30977923     -5.76460005    -16.93444241
H      -7.30179074     -6.53396643    -16.80633614
C       6.73377464      1.04670676      9.76682530
H       5.56147039      1.41593357      9.68119235
C       9.95569810     -5.91545537      6.13932489
H       6.58782287     -0.17968511      9.83055015
H      10.11266574     -5.02162165      5.35102626
H       1.53418302     -5.83655526     10.81588610
C       9.73791060     -7.54054576      5.97053440
H       8.72799430     -7.73078090      5.28711552
C       5.01358962      2.45685904     -3.13846411
H       9.26787407     -8.08064383      6.97585449
H       5.72302035      2.54792577     -4.11084290
H       4.84318559      3.55540156     -3.69371769
C       4.72009721      0.83050222     -3.72185264
H       5.71564336     -0.26849010     -4.92519395
C       7.07605826      7.67505968    -12.11882245
H       3.98954482      0.49366376     -4.65770977
H       6.57738018      8.57476141    -12.66421302
H      -0.88946382     13.61721337     12.12342992
C      12.37665246     -6.92414629    -13.67559464
H     -10.44354237     -0.03213113      5.70019088
H     -19.27136490     -7.16733689     -1.12675066
C      -9.30649210      4.96028375    -10.51338683
H     -10.69637242     -1.90297618      5.40696171
C       0.50801213     -5.59878222     11.40880010
H     -10.40637682      4.89872614    -10.25288134
H      -1.69875309     -6.55947712     11.61054392
H       0.49529115     -4.39116991     11.33366177
C       3.90217606      0.15125665     -2.42665752
H       5.86265449      4.15476159     -1.37448155
C       4.09954387      3.39089765     -0.47100159
H       2.77192676      0.17238060     -2.01086908
H       3.89491026      4.42008501      0.18865102
H       3.77105405      2.85475683      0.59694762
H       2.89870504      3.50789928     -0.77451114
H      11.94755963     -5.84324205    -13.38338340
H      12.89906601     -7.09310633    -14.74162045
H      12.28332847     -7.83549544    -12.90190008
H       8.31974543      2.09046946     13.26593450
H       6.15472363      4.39971902     12.86627976
H      -0.42230161     -7.84855748     12.09792333
H       8.90826622      1.52338373     10.67473624
H      -8.70099270     -4.16259776     22.46173058
H       6.56111828      7.22229719     11.24262103
H      -2.34929164     13.47708296     24.28456553
H       8.83409251      5.69405690     13.38853167
H       7.88698578      1.98122104     -2.17935758
H      -2.64650807     12.68485048     11.82928470
H      18.55685576      0.44437299     -4.90903713
H       1.21173665      1.48261928    -13.79716378
H      11.23986107     -9.16538425      4.57991569
H      28.97135714     -1.67658159      0.07626582
H       9.21554994      5.28652213     11.60383488
C      -8.63127450     -1.40641572      6.68206770
C      -0.57911433     -6.62656814     12.12485448
C       7.49112813      2.45137436     12.42324760
C       7.28713400      4.11688620     12.51055452
C       7.72845118      1.69295741     10.94694229
C       7.60457446      6.93495406     11.78068488
C       8.23414129      5.49044886     12.32469076
C      -2.09159709     13.78082658     11.91312971
C      -1.82994226     14.44141846     23.89147697
C       7.01748528      2.21735647     -1.32253684
C      18.58363383      0.95268950     -5.98574051
C      19.24271957      0.17548347     -7.13980424
C      28.89258465     -0.52014766     -0.02688963
C       5.45558049      2.99295499     -1.53977224
C      11.09154699     -8.35394842      5.46305592
H       8.03081749      2.59650182     -0.73795993
H      -6.28581892     -6.37181817     -5.09958812
H      -7.64129547     -1.63048242      7.25829535
H      -8.57269705     -3.49037613     22.83597422
H      -0.64764405     -6.46073411     13.34571370
H       7.04842548      1.27147774      8.59493544
H       6.63042486      1.82869068     13.05272373
H       8.03119946      8.06810364     11.78612464
H      -1.31059285     15.40575377     23.49838797
H       4.22246636     -0.46539628     -1.42528757
H       7.24100855      1.10766360     -0.81759801
H      -2.24348367     14.39947954     10.85941306
H      18.12987563      2.02847163     -6.22066339
H       1.11481164      2.25218952    -13.87914169
H      12.23030804     -8.31181467      5.86604394
H      28.81394518      0.63632461     -0.12971689
H      -2.58695673     14.42180487     12.84042993
   94

C      -8.28933308     -5.22008572     -5.51114247
C      -7.15363918     -5.74239292     -4.50138805
H      -9.11829045     -4.83830907     -6.24872708
C      -9.96919587     -1.10357484      5.90327068
H     -18.89207166     -7.18338488     -1.80811673
H      -6.60811237     -4.80483004     -3.92650101
C      10.04492144     -5.11650458      7.46168453
H      -7.62916109     -6.48159626     -3.64431338
H      -7.31256167     -5.76715128    -16.93547048
H      -7.30449105     -6.53650734    -16.80730777
C       6.73368703      1.05035929      9.76992714
H       5.56177932      1.42130267      9.68614285
C       9.95545850     -5.91573803      6.13936873
H       6.58814545     -0.17602056      9.83369816
H      10.11075845     -5.02180655      5.35086799
H       1.53425613     -5.83812697     10.81593935
C       9.73806335     -7.54087814      5.97061977
H       8.72813396     -7.73124881      5.28727530
C       5.04227022      2.60490238     -3.18025617
H       9.26829904     -8.08083539      6.97613192
H       5.93328836      2.63378943     -3.98550289
H       4.89772319      3.72941577     -3.68998574
C       4.74359163      1.08288723     -3.99369989
H       5.78334119      0.40029913     -5.76398941
C       6.80618245      6.88143781    -11.03794560
H       4.03265442      0.59861551     -4.87431992
H       6.33160566      7.80914599    -11.57465686
H      -0.88951665     13.61727229     12.12352146
C      12.37752009     -6.92563265    -13.67612966
H     -10.43540836     -0.02383281      5.70570363
H     -19.27137514     -7.16734445     -1.12674201
C      -9.30872263      4.96081270    -10.51315752
H     -10.69089300     -1.91440702      5.40937427
C       0.50820987     -5.59951569     11.40875433
H     -10.40856799      4.89919100    -10.25250998
H      -1.70161567     -6.55887824     11.61601390
H       0.49713532     -4.39201399     11.33269778
C       3.92874906      0.29827998     -2.73822596
H       5.91932040      4.19068793     -1.34560939
C       4.12604089      3.39267073     -0.48037885
H       2.81454360      0.24691118     -2.28214480
H       3.91903749      4.41448057      0.19017757
H       3.80639944      2.81376351      0.56774459
H       2.92664081      3.49029033     -0.79232612
H      11.94861325     -5.84462501    -13.38406055
H      12.89987889     -7.09458584    -14.74217640
H      12.28403128     -7.83681366    -12.90226739
H       8.32005023      2.08855530     13.27026612
H       6.15081463      4.39723112     12.86009601
H      -0.41530565     -7.84725602     12.09361446
H       8.90997810      1.53105995     10.67374248
H      -8.70100401     -4.16260334     22.46174249
H       6.56412011      7.21991199     11.23614646
H      -2.34930091     13.47709395     24.28458842
H       8.83283624      5.69051152     13.38806192
H       7.90146020      1.91573059     -2.09654551
H      -2.64656123     12.68490671     11.82937141
H      18.55814520      0.44362901     -4.90872398
H       1.15643668      1.46266251    -13.91427044
H      11.24033520     -9.16319222      4.57756640
H      28.97141340     -1.67660176      0.07627091
H       9.21413596      5.28386893     11.60270845
C      -8.63587988     -1.40540035      6.67938216
C      -0.57964332     -6.62629032     12.12515937
C       7.49203414      2.44974716     12.42710889
C       7.28531070      4.11498419     12.51057569
C       7.73011640      1.69542784     10.94899956
C       7.60489283      6.93272214     11.77947493
C       8.23304369      5.48786482     12.32400685
C      -2.09164903     13.78088229     11.91321408
C      -1.82995156     14.44142973     23.89150045
C       7.01787722      2.21096991     -1.27188018
C      18.58531338      0.95204803     -5.98536751
C      19.24407194      0.17480953     -7.13959295
C      28.89266186     -0.52016375     -0.02685552
C       5.49207777      3.04030259     -1.54568680
C      11.09159344     -8.35439304      5.46305875
H       8.01358524      2.58124947     -0.65023515
H      -6.28580051     -6.37193681     -5.09942628
H      -7.64612745     -1.62943008      7.25548377
H      -8.57270864     -3.49038189     22.83598657
H      -0.65384854     -6.46040749     13.34567447
H       7.04639998      1.27488413      8.59750526
H       6.63415761      1.82521730     13.05867708
H       8.03090673      8.06606123     11.78930815
H      -1.31060211     15.40576519     23.49841179
H       4.22728827     -0.42776044     -1.80789799
H       7.16710932      1.09900285     -0.74353997
H      -2.24353393     14.39953489     10.85949708
H      18.13226411      2.02815701     -6.22015781
H       1.05377018      2.23033329    -14.00649857
H      12.22964321     -8.31504025      5.86833354
H      28.81402022      0.63630613     -0.12970879
H      -2.58701118     14.42186178     12.84051205
   94

C      -8.28910085     -5.22006945     -5.51109997
C      -7.15337359     -5.74233982     -4.50136075
H      -9.11812721     -4.83836529     -6.24864567
C      -9.97354005     -1.10259172      5.90073074
H     -18.89206276     -7.18338329     -1.80811988
H      -6.60783174     -4.80478160     -3.92647903
C      10.04617003     -5.11681875      7.46204657
H      -7.62891243     -6.48154605     -3.64429673
H      -7.31485072     -5.76935109    -16.93624158
H      -7.30676079     -6.53870357    -16.80805868
C       6.73357617      1.05420834      9.77262209
H       5.56207810      1.42688782      9.69066345
C       9.95546035     -5.91627323      6.13994832
H       6.58842237     -0.17215664      9.83645940
H      10.10918129     -5.02224552      5.35126385
H       1.53431901     -5.83969620     10.81613359
C       9.73846267     -7.54146468      5.97123236
H       8.72850387     -7.73202094      5.28799952
C       5.07460844      2.73384219     -3.21246982
H       9.26897844     -8.08126245      6.97695062
H       6.04862636      2.51037071     -3.86933071
H       5.06257719      3.87226882     -3.70676257
C       4.57556974      1.42174971     -4.23727364
H       5.79075931      1.10176336     -6.36533567
C       6.55407117      6.17251049    -10.11735885
H       4.29995752      0.56194867     -5.06584560
H       6.04017992      7.12913872    -10.57796690
H      -0.88950715     13.61726186     12.12348726
C      12.37724618     -6.92528853    -13.67578945
H     -10.42712337     -0.01557546      5.71127903
H     -19.27136717     -7.16734294     -1.12674568
C      -9.31034436      4.96133236    -10.51298344
H     -10.68526332     -1.92581723      5.41187150
C       0.50838072     -5.60024361     11.40881775
H     -10.41015811      4.89965346    -10.25221677
H      -1.70447388     -6.55830920     11.62155507
H       0.49895152     -4.39285563     11.33184247
C       3.93485835      0.44834496     -3.01104902
H       5.97459488      4.22031398     -1.34736637
C       4.15551820      3.39194336     -0.50121195
H       2.83810255      0.31011732     -2.53651816
H       3.94872393      4.41040973      0.17407641
H       3.84578800      2.77720498      0.52947337
H       2.95862082      3.47052124     -0.82329231
H      11.94834248     -5.84428129    -13.38371301
H      12.89961931     -7.09425628    -14.74182766
H      12.28370783     -7.83642942    -12.90188491
H       8.32031129      2.08666640     13.27428430
H       6.14689643      4.39474721     12.85363208
H      -0.40838391     -7.84590680     12.08942100
H       8.91161601      1.53883557     10.67244725
H      -8.70101598     -4.16260537     22.46175701
H       6.56712247      7.21748008     11.22922733
H      -2.34930389     13.47709970     24.28459110
H       8.83153185      5.68700511     13.38728551
H       7.91406282      1.86794733     -2.02694352
H      -2.64655228     12.68489636     11.82933671
H      18.55839307      0.44367014     -4.90898560
H       1.12567986      1.47156976    -14.02406869
H      11.24102370     -9.16130109      4.57572098
H      28.97141835     -1.67659503      0.07624390
H       9.21268680      5.28123512     11.60127949
C      -8.64056369     -1.40434292      6.67665754
C      -0.58020229     -6.62602129     12.12555367
C       7.49290228      2.44816225     12.43065842
C       7.28344626      4.11311055     12.51031782
C       7.73173051      1.69800198     10.95072317
C       7.60514531      6.93047263     11.77789770
C       8.23190769      5.48530117     12.32301580
C      -2.09163911     13.78087162     11.91317727
C      -1.82995430     14.44143496     23.89150211
C       7.02013292      2.20542883     -1.22895275
C      18.58559827      0.95210978     -5.98561813
C      19.24418986      0.17481158     -7.13989945
C      28.89267708     -0.52015402     -0.02685706
C       5.53020309      3.07706924     -1.55656432
C      11.09185673     -8.35510644      5.46352422
H       7.99515339      2.57678738     -0.57459330
H      -6.28551129     -6.37186362     -5.09938727
H      -7.65103985     -1.62833065      7.25264352
H      -8.57272026     -3.49038375     22.83600066
H      -0.66005264     -6.46010751     13.34570365
H       7.04436870      1.27849716      8.59967780
H       6.63784969      1.82179194     13.06429455
H       8.03051133      8.06399694     11.79210439
H      -1.31060456     15.40576983     23.49841236
H       4.22330168     -0.35768937     -2.14736193
H       7.10473543      1.09380498     -0.68575953
H      -2.24352045     14.39951936     10.85945688
H      18.13276708      2.02830956     -6.22041492
H       1.03071224      2.23972008    -14.12056081
H      12.22921296     -8.31846412      5.87099690
H      28.81402262      0.63631241     -0.12973969
H      -2.58700195     14.42185278     12.84047370
   94

C      -8.28871895     -5.21989051     -5.51116287
C      -7.15299388     -5.74215214     -4.50141509
H      -9.11778946     -4.83824203     -6.24868776
C      -9.97804519     -1.10157945      5.89814175
H     -18.89203932     -7.18337298     -1.80813270
H      -6.60743862     -4.80460569     -3.92652562
C      10.04740861     -5.11680302      7.46216879
H      -7.62857917     -6.48136758     -3.64438392
H      -7.31663191     -5.77115545    -16.93674152
H      -7.30860313     -6.54051364    -16.80858881
C       6.73359350      1.05826719      9.77447836
H       5.56250706      1.43267678      9.69436608
C       9.95549305     -5.91655338      6.14032835
H       6.58879475     -0.16808125      9.83840416
H      10.10753230     -5.02243097      5.35143503
H       1.53441501     -5.84123871     10.81636700
C       9.73893157     -7.54183182      5.97186208
H       8.72893695     -7.73265587      5.28877065
C       5.10329885      2.84186522     -3.26416848
H       9.26974771     -8.08143276      6.97781855
H       6.07517074      2.41984506     -3.80982806
H       5.12306593      3.99584406     -3.71971747
C       4.55578278      1.66975718     -4.43222184
H       6.08422343      1.29333417     -6.52940312
C       6.28701231      5.59831230     -9.36349968
H       4.37669230      0.80402381     -5.28274692
H       5.65371596      6.55607766     -9.66657358
H      -0.88945649     13.61721779     12.12338952
C      12.37671186     -6.92416640    -13.67567083
H     -10.41873221     -0.00739043      5.71694741
H     -19.27134649     -7.16733427     -1.12675998
C      -9.31120106      4.96172831    -10.51272046
H     -10.67951751     -1.93721557      5.41447402
C       0.50857793     -5.60095174     11.40891200
H     -10.41100942      4.90004432    -10.25192638
H      -1.70727869     -6.55774899     11.62711349
H       0.50079698     -4.39367958     11.33101849
C       3.94932773      0.58230313     -3.28455527
H       6.01541851      4.25116578     -1.37931800
C       4.18528746      3.38623012     -0.52698399
H       2.87807741      0.37733302     -2.77821960
H       3.98082545      4.40297937      0.15158386
H       3.89668815      2.73850177      0.48971439
H       2.98801041      3.43996049     -0.84903859
H      11.94774294     -5.84316992    -13.38363925
H      12.89912393     -7.09314222    -14.74169152
H      12.28322660     -7.83535656    -12.90181401
H       8.32057277      2.08473748     13.27774612
H       6.14303154      4.39219508     12.84678363
H      -0.40148943     -7.84449014     12.08528539
H       8.91321857      1.54673832     10.67054013
H      -8.70102520     -4.16260527     22.46177235
H       6.57016182      7.21497478     11.22184335
H      -2.34930008     13.47710027     24.28457959
H       8.83023332      5.68345766     13.38609232
H       7.91213355      1.84786224     -2.00202792
H      -2.64650369     12.68485631     11.82924544
H      18.55775031      0.44461894     -4.90965677
H       1.12389197      1.49799884    -14.10284961
H      11.24176268     -9.15935784      4.57403752
H      28.97136216     -1.67656057      0.07619608
H       9.21123404      5.27857851     11.59941048
C      -8.64536709     -1.40326894      6.67393007
C      -0.58073845     -6.62573890     12.12597776
C       7.49378401      2.44655396     12.43364234
C       7.28158821      4.11120036     12.50962024
C       7.73332791      1.70067118     10.95181364
C       7.60538338      6.92816421     11.77589180
C       8.23078143      5.48269868     12.32160691
C      -2.09158867     13.78083092     11.91308310
C      -1.82995005     14.44143448     23.89148861
C       7.01538098      2.21059838     -1.21845044
C      18.58465823      0.95300273     -5.98632665
C      19.24332481      0.17563393     -7.14052822
C      28.89261978     -0.52011762     -0.02688251
C       5.55639520      3.11329850     -1.59090274
C      11.09217055     -8.35566934      5.46405040
H       7.97245607      2.58812661     -0.53980123
H      -6.28510106     -6.37164674     -5.09942914
H      -7.65607560     -1.62721570      7.24981224
H      -8.57272875     -3.49038323     22.83601499
H      -0.66620775     -6.45981623     13.34574306
H       7.04244381      1.28231847      8.60100252
H       6.64155430      1.81834373     13.06932081
H       8.03006550      8.06186844     11.79447849
H      -1.31059988     15.40576833     23.49839693
H       4.22854839     -0.27897057     -2.47288365
H       7.05101819      1.09961551     -0.66782702
H      -2.24346753     14.39947285     10.85935888
H      18.13139855      2.02899152     -6.22128145
H       1.04158121      2.26804481    -14.19585747
H      12.22882240     -8.32173817      5.87371995
H      28.81394140      0.63634432     -0.12979735
H      -2.58694991     14.42181439     12.84037885
   94

C      -8.28789170     -5.21948145     -5.51119878
C      -7.15210773     -5.74166537     -4.50146919
H      -9.11708796     -4.83799286     -6.24866701
C      -9.98254825     -1.10053539      5.89539880
H     -18.89197670     -7.18335421     -1.80814762
H      -6.60649432     -4.80413447     -3.92660597
C      10.04856401     -5.11657713      7.46212497
H      -7.62773961     -6.48089051     -3.64447009
H      -7.31827795     -5.77288065    -16.93713897
H      -7.31033116     -6.54224686    -16.80902901
C       6.73361212      1.06247294      9.77567773
H       5.56294049      1.43860888      9.69740982
C       9.95545847     -5.91666358      6.14056617
H       6.58914004     -0.16385952      9.83968191
H      10.10571231     -5.02244728      5.35144489
H       1.53454136     -5.84270876     10.81644868
C       9.73935891     -7.54204649      5.97246025
H       8.72933130     -7.73316733      5.28951235
C       5.15809794      2.95390498     -3.32767231
H       9.27047257     -8.08142075      6.97867077
H       6.09979564      2.38757462     -3.78039077
H       5.12641458      4.13349123     -3.71249869
C       4.64807531      1.90237291     -4.62480828
H       6.55444860      1.36048238     -6.60915628
C       5.56839308      4.94734882     -8.43077384
H       4.53511721      1.05784308     -5.50976095
H       5.30015543      6.04960135     -8.80260198
H      -0.88938266     13.61713378     12.12326265
C      12.37623597     -6.92299009    -13.67593616
H     -10.41008948      0.00071172      5.72261918
H     -19.27128952     -7.16731813     -1.12677798
C      -9.31207185      4.96201890    -10.51241003
H     -10.67350379     -1.94858968      5.41709599
C       0.50881624     -5.60159143     11.40887561
H     -10.41187701      4.90035523    -10.25159411
H      -1.71000494     -6.55714975     11.63255342
H       0.50267631     -4.39443899     11.33003733
C       3.99345931      0.73407149     -3.58388337
H       6.05625684      4.28275869     -1.41276054
C       4.21525777      3.37460179     -0.56182008
H       2.94093284      0.47326485     -3.06438103
H       4.00808308      4.38844396      0.12050694
H       3.94904307      2.69293636      0.43881157
H       3.01903351      3.39841988     -0.88747276
H      11.94716164     -5.84200615    -13.38399913
H      12.89870530     -7.09194768    -14.74193522
H      12.28284707     -7.83426779    -12.90216662
H       8.32079828      2.08274000     13.28077339
H       6.13916154      4.38954561     12.83960683
H      -0.39459158     -7.84295320     12.08107512
H       8.91470646      1.55470617     10.66816389
H      -8.70102503     -4.16260283     22.46177230
H       6.57323815      7.21237503     11.21408747
H      -2.34929193     13.47709336     24.28455730
H       8.82889119      5.67983875     13.38462856
H       7.90596663      1.83331885     -1.99825456
H      -2.64643087     12.68477724     11.82912635
H      18.55707965      0.44616351     -4.91049382
H       1.13171799      1.52493476    -14.16455898
H      11.24247798     -9.15735556      4.57245250
H      28.97130294     -1.67651113      0.07614668
H       9.20975438      5.27587035     11.59726140
C      -8.65010150     -1.40216722      6.67105484
C      -0.58122559     -6.62538952     12.12629569
C       7.49463469      2.44489040     12.43618937
C       7.27969728      4.10922319     12.50860246
C       7.73482907      1.70336888     10.95241420
C       7.60558096      6.92577699     11.77359806
C       8.22962655      5.48002991     12.31991941
C      -2.09151566     13.78075185     11.91296422
C      -1.82994145     14.44142654     23.89146444
C       7.01004178      2.21714352     -1.22460437
C      18.58340826      0.95445645     -5.98722777
C      19.24222086      0.17700227     -7.14130683
C      28.89255313     -0.52006677     -0.02691103
C       5.58372212      3.15118950     -1.63382855
C      11.09244587     -8.35612580      5.46461808
H       7.95042827      2.59983952     -0.52389811
H      -6.28418886     -6.37113224     -5.09947790
H      -7.66102898     -1.62606648      7.24681779
H      -8.57272806     -3.49038054     22.83601432
H      -0.67228662     -6.45947938     13.34565713
H       7.04049680      1.28628711      8.60166230
H       6.64523091      1.81484226     13.07389128
H       8.02953382      8.05965889     11.79660545
H      -1.31059089     15.40575946     23.49837105
H       4.24560436     -0.17095621     -2.81066433
H       6.99905069      1.10642815     -0.67153970
H      -2.24339371     14.39939003     10.85923756
H      18.12923451      2.03001469     -6.22242061
H       1.06036352      2.29685593    -14.25087854
H      12.22836938     -8.32494505      5.87652391
H      28.81384356      0.63639002     -0.12986041
H      -2.58687398     14.42173722     12.84026034
   94

C      -8.28630553     -5.21846251     -5.51137760
C      -7.15051852     -5.74061510     -4.50162844
H      -9.11564862     -4.83713751     -6.24876565
C      -9.99211367     -1.09829321      5.88981996
H     -18.89185999     -7.18329685     -1.80818867
H      -6.60486595     -4.80311280     -3.92675161
C      10.04990559     -5.11511035      7.46055257
H      -7.62628290     -6.47988304     -3.64473764
H      -7.31887601     -5.77374841    -16.93688809
H      -7.31116482     -6.54314240    -16.80892942
C       6.73420389      1.07028258      9.77552628
H       5.56442615      1.44984237      9.70018175
C       9.95503521     -5.91551780      6.13929300
H       6.59030780     -0.15597861      9.84041927
H      10.10262335     -5.02107740      5.34991992
H       1.53490923     -5.84546008     10.81668145
C       9.74005589     -7.54118842      5.97222326
H       8.73001275     -7.73283410      5.28946703
C       5.25376639      3.15742445     -3.49555550
H       9.27176955     -8.08026109      6.97886996
H       6.03423483      2.31540173     -3.79877694
H       5.01902837      4.35194754     -3.77196923
C       4.81288965      2.25619736     -4.91553722
H       6.16342608      3.12734177     -7.19598938
C       5.33525052      3.12174591     -6.30078833
H       4.72384844      1.42212676     -5.82350712
H       5.14636220      4.12873021     -6.95054505
H      -0.88914472     13.61687686     12.12272325
C      12.37234461     -6.91729667    -13.67192055
H     -10.39261584      0.01667790      5.73420784
H     -19.27118577     -7.16726916     -1.12682601
C      -9.30897803      4.96232714    -10.51107341
H     -10.66126281     -1.97109792      5.42266974
C       0.50937416     -5.60287082     11.40887776
H     -10.40895073      4.90076610    -10.25089213
H      -1.71521124     -6.55592136     11.64342701
H       0.50638269     -4.39594932     11.32828548
C       4.06359392      1.00731550     -4.03981033
H       6.11846644      4.35584149     -1.57076320
C       4.27890753      3.38137839     -0.65941337
H       3.07151548      0.61244122     -3.48614654
H       4.08203724      4.40255292      0.01556899
H       4.07219511      2.65389471      0.32345459
H       3.08228426      3.34766359     -0.97663377
H      11.94284700     -5.83658463    -13.37948360
H      12.89496904     -7.08642857    -14.73783995
H      12.27921780     -7.82887681    -12.89843808
H       8.31981147      2.07896712     13.28500877
H       6.13257083      4.38500902     12.82650014
H      -0.38110294     -7.83987326     12.07297424
H       8.91730122      1.56917674     10.66282073
H      -8.70101793     -4.16259184     22.46177845
H       6.57721182      7.20856129     11.20282494
H      -2.34926645     13.47707260     24.28447819
H       8.82715965      5.67284583     13.38027854
H       7.84774341      1.80798177     -2.10972680
H      -2.64619425     12.68453305     11.82861205
H      18.54992096      0.44742164     -4.91105982
H       1.15332696      1.56248734    -14.18198804
H      11.24303255     -9.15412826      4.56954678
H      28.97086895     -1.67644067      0.07601537
H       9.20677617      5.27098084     11.59121625
C      -8.66001723     -1.39986926      6.66538101
C      -0.58206173     -6.62479141     12.12699289
C       7.49558553      2.44215122     12.43892092
C       7.27601748      4.10592080     12.50448143
C       7.73735101      1.70956100     10.95122268
C       7.60610734      6.92169787     11.76854864
C       8.22774689      5.47524153     12.31537235
C      -2.09127935     13.78050884     11.91244264
C      -1.82991536     14.44140264     23.89137868
C       6.98827526      2.24257606     -1.32280189
C      18.57578680      0.95557944     -5.98786911
C      19.23606922      0.17858371     -7.14141650
C      28.89209537     -0.51999665     -0.02702431
C       5.61639914      3.23185159     -1.77316165
C      11.09277569     -8.35590757      5.46439439
H       7.91856034      2.64875123     -0.61792605
H      -6.28252165     -6.37001071     -5.09960272
H      -7.67140363     -1.62367139      7.24096302
H      -8.57271924     -3.49036836     22.83601772
H      -0.68418376     -6.45878265     13.34547340
H       7.03773061      1.29285982      8.60042675
H       6.65117839      1.80880002     13.08013475
H       8.02947270      8.05561667     11.79819129
H      -1.31056426     15.40573269     23.49827917
H       4.30397594      0.03550139     -3.34668325
H       6.91145088      1.14559882     -0.74568441
H      -2.24314842     14.39912108     10.85869898
H      18.12008600      2.03042596     -6.22335482
H       1.09358106      2.33690907    -14.25341160
H      12.22776648     -8.32857644      5.87913570
H      28.81334465      0.63645392     -0.13000798
H      -2.58663002     14.42150435     12.83973628
