   94
energy=      0.00000000
C      10.83245065     -8.23315317     -8.99982229
C      -0.34717269    -10.13614959     -9.68150274
H      10.93693609     -7.35238228     -8.13685098
C      -0.07832345     -1.03273909      8.00358774
H     -18.89185999     -7.18329685     -1.80818867
H      -0.58225112     -9.34809605     -8.85815906
C       1.02270072     -1.10355915      9.21943039
H      10.00579181     -8.94439439     -8.41144285
H      -8.53156068     -6.31648995    -17.82625171
H      -8.52384950     -7.08588394    -17.69829304
C       7.87071756      0.43752662     -2.68725843
H      16.07331130      6.48611777     13.52058838
C       8.29117814     -9.82211303      5.43474157
H       8.47928446     12.79773611      3.37405756
H       8.62847090     -9.29737539      4.43799717
H       2.50425826    -10.90118635     17.33758515
C       6.51577977    -10.62316731      7.51941115
H       5.40081265    -10.74442804      7.07146645
C       7.88372291     13.04825133      5.80805576
H       6.25082675    -10.52687121      8.69523873
H       9.42377285     14.02602426      7.09001106
H       6.81205148     13.60015209      5.59217034
C       8.49001049     12.22808746      4.46866491
H      11.97994602      1.57265964     -3.22128103
C      10.82655087      1.34743074     -3.10760455
H       5.69323055      1.07591978     -2.28574717
H       7.96138907     11.12981433      4.26332908
H      -2.15370095     10.56603547     11.75857275
C      12.21196291     -8.99329696     -9.66813485
H      -1.11201307     -0.64174162      8.50634569
H     -19.27118577     -7.16726916     -1.12682601
C       4.06630181     -1.99568448     -1.86729527
H       0.79377819     -2.07925600      9.90835202
C       1.47819556    -10.71751698     17.93036417
H       3.25147752     -1.89738586     -0.99750196
H     -10.96213585    -12.27297239     15.66815274
H       1.07348473     -9.60107589     18.09678087
C      -5.29669487      0.64474710     -7.87005184
H       2.58651784     11.60200449     -2.65048656
C       0.12691748     10.84443863     -2.63187327
H      -5.80086224      1.55132525     -8.39741940
H      -0.28501492     11.40817816     -1.61618941
H      -0.53778423      9.80837450     -2.60774986
H      -0.35371995     11.43220807     -3.60300589
H      12.47723400     -8.67649349    -10.83849766
H      12.04775419    -10.16499085    -10.04522635
H      14.01498174     -9.61953541     -7.86581500
H       3.45449388      1.29533483      7.62615516
H       1.54733526      0.94979467     10.16385775
H       0.85684368    -11.65028870     18.35672650
H       9.10001009      1.27962660     -4.24841145
H      -9.42675544     -2.95204824     23.99740376
H       6.89994419     13.30070481      9.39199329
H       8.82991305     12.08883432      7.60794456
H       3.20800931     -0.51850027     12.07503450
H      23.68739798      6.18932909     -2.70616817
H      -4.18749900      9.48691107     11.41813640
H      24.37757154      6.33770482     -2.37443862
H       0.58212535     -2.01269097      5.75877505
H       8.21021194    -11.84221698      6.42104852
H      10.08034634     -7.58057240     -9.73622892
H       4.52055929     -0.42807316     10.86015307
C      -0.17875493     -1.24809192      6.35361021
C     -10.36015996    -12.21606713     16.66242234
C       2.93299141      0.67566873      8.47769342
C       2.17609927     -0.01118153      9.72195233
C       9.21983821      1.26183020     -3.03327118
C       7.93197447     13.78456701      8.90481240
C       3.31508570     -0.34464193     10.88368010
C      -3.17059999     10.02647329     11.58835457
C       8.48831328     13.25657516      7.36831562
C       2.62407438      9.39448646     -2.87556375
C       5.34043750     -1.09432019     -2.12442965
C       6.35288061      0.08904532     -2.37233050
C      13.62347171     -8.93110182     -8.78142099
C       1.77163295     10.71243021     -2.70464988
C       7.98463810    -10.68292494      6.76122959
H       9.68342937     11.91617828      4.39844035
H      -0.11460577    -10.92429735    -10.50546925
H      -1.24095050     -1.72509947      5.94394566
H      -9.29845674     -2.27982476     24.37164303
H      -9.75818407    -12.15916188     17.65669195
H      15.89747689      7.23957088     13.42164096
H       9.14226536      2.04975794     -2.10328467
H       8.69563847     13.65205620      9.87824995
H       7.62371442     14.96752467      9.10821131
H      -4.79252749     -0.26183104     -7.34268428
H       3.22304791      8.40482354     -3.02924763
H      -7.52913094     21.04430955      9.80462270
H       3.68355790     -2.90906865     -2.53276655
H      -0.01928414     -0.20361857      5.71521954
H       8.92462333    -10.36747711      7.48940266
H      14.56188892     -8.16815421     -8.83702415
H      -7.66234247     21.05292874     10.57311499
   94
energy=      0.00000000
C      10.83194215     -8.23647321     -9.00230713
C      -0.34772690    -10.13617038     -9.68164018
H      10.93790631     -7.34950225     -8.14585358
C      -0.19682963     -0.99207564      8.21689601
H     -18.89185999     -7.18329685     -1.80818867
H      -0.58197416     -9.34808518     -8.85808985
C       0.94285480     -1.06838418      9.39461651
H      10.00899102     -8.94644606     -8.40723114
H      -8.53156068     -6.31648995    -17.82625171
H      -8.52384950     -7.08588394    -17.69829304
C       6.44334506     -0.22414895     -2.66732452
H      16.07331130      6.48611777     13.52058838
C       8.32979173     -9.92355518      5.42654750
H       8.44293415     12.82746988      3.38689905
H       8.61941415     -9.35159745      4.44188476
H       2.50425844    -10.90118632     17.33758517
C       6.57539568    -10.70917768      7.48970190
H       5.46311544    -10.79690636      7.02789747
C       7.89861550     13.04116937      5.82984116
H       6.29612843    -10.58221812      8.65887797
H       9.49486321     13.98215717      7.11497126
H       6.82123346     13.58851534      5.63431363
C       8.47233229     12.23509816      4.46921263
H      16.69775101      2.88062585     -4.96113023
C      15.59392200      2.66066033     -4.85056771
H       4.31839278      0.54513926     -2.28685216
H       7.93346218     11.14204687      4.26320346
H      -2.20778801     10.68650213     11.82959127
C      12.21245248     -8.99540111     -9.66997524
H      -1.23760965     -0.62207596      8.72512571
H     -19.27118577     -7.16726916     -1.12682601
C       2.76235401     -2.61422098     -1.87596447
H       0.80668018     -2.11575084      9.99536344
C       1.47819573    -10.71751696     17.93036419
H       2.00051284     -2.44376964     -0.97162669
H     -10.96213609    -12.27297242     15.66815272
H       1.07348491     -9.60107587     18.09678088
C      -5.45418212      0.66525253     -7.95308635
H       2.54055215     11.71781615     -2.65058058
C       0.08083616     10.96016284     -2.63634740
H      -5.95834949      1.57183068     -8.48045391
H      -0.33047539     11.52401185     -1.62049872
H      -0.58241221      9.92320581     -2.61061013
H      -0.40190510     11.54788387     -3.60648606
H      12.47924437     -8.67499673    -10.83901521
H      12.04761629    -10.16647630    -10.04872049
H      14.01622471     -9.62874390     -7.87051678
H       3.39948418      1.26938595      7.80152495
H       1.46192126      0.99780441     10.36754085
H       0.85684386    -11.65028868     18.35672652
H       7.98056021      0.72011241     -4.19966212
H      -9.42675544     -2.95204824     23.99740376
H       6.87578513     13.29239018      9.34560302
H       8.92535490     12.09292519      7.62656344
H       3.11415336     -0.53265960     12.25683056
H      26.42731526      7.32036741     -2.22000405
H      -4.24158606      9.60737774     11.48915491
H      27.11748881      7.46874313     -1.88827450
H       0.54444723     -2.01789041      6.03982335
H       8.30455630    -11.95563336      6.42388151
H      10.07336743     -7.59300464     -9.74014059
H       4.41516385     -0.48059462     11.02320917
C      -0.25298510     -1.24291122      6.57042210
C     -10.36016020    -12.21606716     16.66242232
C       2.84723434      0.70572302      8.67198870
C       2.07922579      0.03183270      9.91638057
C       7.64766588      0.70154361     -3.05161505
C       7.91583296     13.78704232      8.88725199
C       3.21529063     -0.34317522     11.06754857
C      -3.22468704     10.14693994     11.65937309
C       8.53124826     13.24305105      7.37952983
C       2.57751085      9.51100950     -2.88564619
C       4.02158007     -1.71316203     -2.12912100
C       4.93373935     -0.46833019     -2.35667174
C      13.62388852     -8.93644348     -8.78283268
C       1.72553670     10.82873346     -2.71061492
C       8.05206303    -10.79668612      6.75023758
H       9.66017811     11.91236023      4.36797215
H      -0.11432852    -10.92428742    -10.50540103
H      -1.29261154     -1.74009980      6.12957188
H      -9.29845674     -2.27982476     24.37164303
H      -9.75818431    -12.15916191     17.65669192
H      15.89747689      7.23957088     13.42164096
H       8.05789608      1.44620063     -2.20896248
H       8.63649247     13.67978600      9.89495303
H       7.59482591     14.97249425      9.05394155
H      -4.95001474     -0.24132561     -7.42571879
H       3.17581948      8.51934136     -3.02866657
H      -7.58509478     21.18379827      9.78636566
H       2.45579832     -3.50784241     -2.60272445
H      -0.09488722     -0.21460105      5.90647703
H       8.98797122    -10.47169969      7.47913499
H      14.56233172     -8.17327169     -8.83506741
H      -7.71830632     21.19241746     10.55485795
