   94

C       7.13875900     -6.83572456     -7.67257819
C       5.66098620     -7.61206650     -7.24923431
H       7.40663108     -6.02893101     -6.76374143
C     -10.35223719     -0.90292630      5.86262389
H     -18.89185999     -7.18329685     -1.80818867
H       4.66892271     -6.96570656     -6.87723420
C       9.87465546     -1.90962228      8.28691485
H       5.65483288     -8.42466593     -6.31217384
H      -7.79459229     -6.25680611    -16.92497689
H      -7.78688110     -7.02620011    -16.79701822
C      10.13382571      2.31254736      6.95448142
H      11.15083169      2.63822027      7.55986436
C       9.64528507     -2.88866069      7.00618160
H       7.26495422      4.03979606     -3.88178218
H      10.80403476     -2.74870397      6.62476520
H      -0.14325058     -7.37313422     12.68691672
C       8.67978606     -4.15855526      7.11991533
H       7.68840506     -4.35463949      7.82473979
C       5.83964449      5.75446153     -2.76522937
H       9.05745907     -5.30836781      7.34705255
H       6.56426232      6.66320589     -3.21656565
H       4.80270609      6.26335765     -3.21349571
C       6.09653690      4.43538337     -3.84938903
H      10.06135663      4.52405364    -13.26815452
C       9.40869299      4.17304527    -12.41426904
H       5.86762328      3.23830024     -3.68393742
H       5.59441392      4.44215161     -5.00024740
H      -3.00407118     13.84794178     10.96390706
C       8.55242461     -7.65813001     -8.22490546
H     -10.74359595      0.21633235      5.71281672
H     -19.27118577     -7.16726916     -1.12682601
C       0.53237992     -6.42567805      1.99063443
H     -11.01390178     -1.78378982      5.39934946
C      -1.16836746     -7.12813897     13.27900916
H      -0.28105909     -6.89558879      2.67742775
H      -3.40368927     -8.07765248     13.53438752
H      -1.16511283     -5.92173117     13.19491134
C      -3.85857337     -0.09853118     -7.36510218
H       6.37240523      6.97771976     -0.77600276
C       4.39492410      5.97734854     -0.07516082
H      -4.40267786      0.78488785     -7.89190956
H       4.31724302      6.76259607      0.88474654
H       3.90985461      4.99064269      0.49210334
H       3.28602558      6.29459840     -0.51820800
H       8.84076306     -7.48779017     -9.42080166
H       8.43160101     -8.86355089     -8.48517797
H      10.59625439     -8.31219004     -6.68351306
H       7.99011279      0.04153388      9.61132449
H      11.40320064     -0.85638831      8.86920188
H      -2.03575257     -9.35619587     13.92867540
H       8.02129455      1.16276735      7.07017684
H      -8.74525986     -4.13751985     22.51987896
H       5.05957906     13.60585690     17.32595385
H       3.22307639     13.62442962     20.35621151
H      10.81660314     -1.29190537     11.86457108
H      17.32066155      4.32686045      0.25060614
H      -4.76112071     12.91559797     10.66979586
H      18.01083541      4.47523631      0.58233550
H       0.12703865      1.58825898    -19.49091687
H       7.66606808     -3.17408448      5.11369568
H       6.90080786     -5.87726035     -8.43331648
H      11.80954075      0.11654533     11.30588055
C      -9.02049327     -1.20442128      6.63797963
C      -2.26250827     -8.14629068     13.99852871
C       9.06765142      0.47228970      9.17352000
C      10.27958146     -0.71853289      9.33614783
C       9.04774939      1.30550568      7.71767703
C       5.07774554     14.22009589     18.38303177
C      10.98206380     -0.65333410     10.85151148
C      -4.20620582     14.01157376     10.75362645
C       4.02266644     13.73106728     19.49789549
C       6.94239891      4.89139049     -0.22784640
C      11.44681867      1.75797541      4.20820476
C      10.78575592      1.86416572      5.56497208
C       9.99381234     -7.53140662     -7.38602067
C       5.83907566      5.87760515     -1.02290780
C       8.70549973     -3.30685444      5.75780426
H       8.02824943      5.08350182      0.27524923
H       5.03998349     -8.27101395     -8.09686094
H      -8.03208998     -1.42818700      7.21343874
H      -8.61696116     -3.46529637     22.89411823
H      -2.38562123     -7.98143390     15.21515168
H       9.67387121      3.42473361      6.71510545
H       8.88068121      1.36189904     10.01558224
H       6.26255016     14.15033863     18.10587993
H       4.92416322     15.39495382     18.68941011
H      -3.39355426     -1.02590263     -6.83808763
H       6.93258977      3.72653944      0.10208608
H      -4.35807489     14.63018600      9.69988278
H       1.34093780     -5.95379719      1.29944214
H       0.06729184      2.36268043    -19.56234290
H       9.11759497     -3.23731393      4.59913605
H      10.79048242     -6.62382063     -7.28371532
H      -4.70155648     14.65256928     11.68092009
   94

C       7.13919583     -6.83841231     -7.67416001
C       5.66208029     -7.61572551     -7.25061148
H       7.40694539     -6.03132085     -6.76557011
C     -10.35233095     -0.90293600      5.86267290
H     -18.89188436     -7.18330289     -1.80818629
H       4.66923890     -6.97079735     -6.87829848
C       9.88235720     -1.91804862      8.29797222
H       5.65702349     -8.42838844     -6.31359628
H      -7.79590171     -6.25820577    -16.92459986
H      -7.78819129     -7.02759981    -16.79664135
C      10.08777957      2.29966513      6.86582339
H      11.12240027      2.61350912      7.44356806
C       9.65374253     -2.90383762      7.02305116
H       7.35305342      4.20497455     -3.95128265
H      10.81424537     -2.77102712      6.64434839
H      -0.14332312     -7.37318477     12.68700596
C       8.68601282     -4.17194040      7.13791142
H       7.69614270     -4.36757054      7.84491630
C       5.84199812      5.79524486     -2.76318752
H       9.06164336     -5.32279115      7.36309332
H       6.53526861      6.72546439     -3.22013023
H       4.78959082      6.26517239     -3.21878286
C       6.15461020      4.47570749     -3.83373260
H      10.06788667      4.52397112    -13.27626674
C       9.41505474      4.17294778    -12.42252106
H       5.96012284      2.61069850     -3.27342128
H       5.61502763      4.44239424     -4.96597274
H      -3.00421960     13.84806101     10.96405950
C       8.55281906     -7.66073819     -8.22649321
H     -10.74368422      0.21632374      5.71285983
H     -19.27120859     -7.16727459     -1.12682278
C       0.53073639     -6.42745866      1.99122882
H     -11.01399106     -1.78379841      5.39938997
C      -1.16844310     -7.12818461     13.27908950
H      -0.28267717     -6.89713163      2.67819306
H      -3.40375898     -8.07770211     13.53445691
H      -1.16518848     -5.92177714     13.19499553
C      -3.86178673     -0.09978033     -7.36556793
H       6.35011696      7.03630757     -0.78368317
C       4.38063636      6.01667801     -0.08347342
H      -4.40266530      0.78563740     -7.89234280
H       4.29379443      6.80566978      0.87260996
H       3.89810773      5.02948870      0.48534616
H       3.27221251      6.32537467     -0.53422361
H       8.84048733     -7.49110605     -9.42263407
H       8.43234922     -8.86612319     -8.48699521
H      10.59394087     -8.31362279     -6.68137388
H       8.00462175      0.04596199      9.60109725
H      11.41146029     -0.84479742      8.86901155
H      -2.03582070     -9.35624644     13.92874599
H       7.99962911      1.14605706      7.06676979
H      -8.74526938     -4.13752255     22.51989116
H       5.04274162     13.60891636     17.32532721
H       3.22648116     13.61422390     20.35433048
H      10.81454305     -1.30789037     11.86585767
H      17.33491975      4.33512479      0.23911747
H      -4.76126369     12.91570437     10.66993201
H      18.02498178      4.48347116      0.57109160
H       0.12543502      1.58895915    -19.49334412
H       7.66912540     -3.17400466      5.13787328
H       6.90154896     -5.87906205     -8.43386254
H      11.80858454      0.09892710     11.32000180
C      -9.02059958     -1.20443529      6.63804843
C      -2.26258006     -8.14634242     13.99860171
C       9.07799860      0.47477597      9.15190466
C      10.28644948     -0.71706082      9.33519352
C       9.03966769      1.29692904      7.68702097
C       5.07851554     14.22347066     18.38215921
C      10.98112491     -0.66474740     10.85554502
C      -4.20635296     14.01168194     10.75376418
C       4.02648113     13.73232428     19.49829808
C       6.95094067      4.96965099     -0.21221450
C      11.41037247      1.75462762      4.12362477
C      10.66109793      1.88222002      5.42841288
C       9.99369635     -7.53384152     -7.38687097
C       5.83253216      5.92651946     -1.02151912
C       8.71018797     -3.31856073      5.77677101
H       8.04512634      5.18187852      0.26476058
H       5.04157967     -8.27445825     -8.09875482
H      -8.03220642     -1.42820747      7.21352238
H      -8.61697032     -3.46529899     22.89413016
H      -2.38569089     -7.98148453     15.21522431
H       9.64230038      3.42742174      6.68333299
H       8.89388748      1.36180104      9.99704958
H       6.26782593     14.14541140     18.12505185
H       4.92771102     15.40263021     18.67377634
H      -3.39442043     -1.02603349     -6.83865925
H       6.94099524      3.82445572      0.18032226
H      -4.35822391     14.63029966      9.70002421
H       1.33974583     -5.95624141      1.30013874
H       0.06569394      2.36338262    -19.56475305
H       9.12060739     -3.25607258      4.61708492
H      10.79138662     -6.62695615     -7.28639093
H      -4.70170523     14.65267425     11.68105895
   94

C       7.13934092     -6.84264564     -7.67740197
C       5.66287185     -7.62060233     -7.25314113
H       7.40717723     -6.03539337     -6.76902971
C     -10.35237714     -0.90293811      5.86268227
H     -18.89189391     -7.18330293     -1.80818628
H       4.66926291     -6.97704802     -6.88057794
C       9.89060566     -1.92600426      8.30913458
H       5.65890638     -8.43326897     -6.31612307
H      -7.79719639     -6.25958976    -16.92419713
H      -7.78948900     -7.02898429    -16.79624134
C      10.03996107      2.28455370      6.77449306
H      11.09407373      2.58118745      7.32192252
C       9.66261878     -2.91883251      7.04037999
H       7.36052897      4.28052741     -4.01055587
H      10.82468355     -2.79276524      6.66409266
H      -0.14339035     -7.37322176     12.68708866
C       8.69267813     -4.18512279      7.15671022
H       7.70425751     -4.38029047      7.86580192
C       5.83209986      5.82988425     -2.76825962
H       9.06614337     -5.33706745      7.37979711
H       6.51246187      6.76368193     -3.23714034
H       4.77286346      6.27623757     -3.23286256
C       6.16536903      4.51867454     -3.83075245
H      10.07424352      4.52386839    -13.28392822
C       9.42128628      4.17290158    -12.43025502
H       6.30451753      2.04293001     -2.77744150
H       5.59475294      4.41793341     -4.93884677
H      -3.00438859     13.84819093     10.96422691
C       8.55330473     -7.66458765     -8.22916026
H     -10.74372764      0.21632208      5.71286597
H     -19.27121752     -7.16727464     -1.12682243
C       0.52847232     -6.42961716      1.99201291
H     -11.01403533     -1.78380019      5.39939617
C      -1.16851453     -7.12821614     13.27916134
H      -0.28486948     -6.89895968      2.67924848
H      -3.40382404     -8.07773970     13.53451711
H      -1.16525917     -5.92180909     13.19506842
C      -3.86387480     -0.10066306     -7.36564555
H       6.31096001      7.10075558     -0.80868961
C       4.35593902      6.05434288     -0.10430697
H      -4.40181588      0.78651999     -7.89245763
H       4.25484151      6.84729720      0.84719107
H       3.87748247      5.06449177      0.46345139
H       3.24798280      6.35040784     -0.56516186
H       8.84034611     -7.49563777     -9.42552577
H       8.43312667     -8.86992761     -8.48984029
H      10.59163341     -8.31629710     -6.68011719
H       8.02032464      0.05148132      9.59051205
H      11.42031371     -0.83299671      8.86889047
H      -2.03588476     -9.35628480     13.92880853
H       7.97917471      1.12994792      7.06442621
H      -8.74527703     -4.13752451     22.51989933
H       5.02588105     13.61195803     17.32491868
H       3.22995279     13.60396643     20.35236146
H      10.81239453     -1.32374477     11.86705552
H      17.34876246      4.34346094      0.22765178
H      -4.76142626     12.91581979     10.67008239
H      18.03875043      4.49174178      0.55980846
H       0.12383227      1.58965587    -19.49574772
H       7.67253912     -3.17433431      5.16276705
H       6.90205523     -5.88233638     -8.43599120
H      11.80778306      0.08120376     11.33421320
C      -9.02065363     -1.20443863      6.63807015
C      -2.26264708     -8.14638168     13.99866543
C       9.08957100      0.47772827      9.12965665
C      10.29398172     -0.71524834      9.33417395
C       9.03345421      1.28754025      7.65519767
C       5.07933479     14.22679088     18.38124154
C      10.98048424     -0.67613395     10.85950692
C      -4.20652092     14.01179966     10.75391730
C       4.03024119     13.73370131     19.49868134
C       6.96107499      5.06688810     -0.20111759
C      11.37797799      1.74906915      4.05486339
C      10.51977241      1.90553156      5.28708913
C       9.99365363     -7.53760110     -7.38873961
C       5.81783674      5.97560662     -1.02929737
C       8.71512630     -3.33023584      5.79644537
H       8.06455685      5.31122855      0.23942307
H       5.04280776     -8.27909964     -8.10175440
H      -8.03226771     -1.42821359      7.21355530
H      -8.61697769     -3.46530095     22.89413826
H      -2.38575615     -7.98152241     15.21528764
H       9.61615529      3.42841399      6.65532758
H       8.90879695      1.36260493      9.97749933
H       6.27279559     14.14072523     18.14429694
H       4.93151312     15.41009022     18.65806236
H      -3.39387638     -1.02560452     -6.83877466
H       6.93966278      3.97342855      0.31748074
H      -4.35839581     14.63042508      9.70018263
H       1.33787614     -5.95932152      1.30080598
H       0.06409549      2.36408058    -19.56714670
H       9.12376274     -3.27512144      4.63574735
H      10.79260288     -6.63159193     -7.29040987
H      -4.70187470     14.65278749     11.68121411
   94

C       7.13895243     -6.84582685     -7.68116982
C       5.66308228     -7.62414453     -7.25578507
H       7.40701760     -6.03836042     -6.77310697
C     -10.35238186     -0.90294872      5.86266584
H     -18.89188675     -7.18329951     -1.80818821
H       4.66893963     -6.98167880     -6.88284871
C       9.89933957     -1.93340133      8.32041299
H       5.66018246     -8.43687783     -6.31881727
H      -7.79846401     -6.26096614    -16.92374388
H      -7.79076111     -7.03036139    -16.79579216
C       9.99022498      2.26701830      6.67890880
H      11.06320542      2.54376776      7.19615123
C       9.67201695     -2.93410693      7.05864183
H       7.31299928      4.25441093     -4.01592986
H      10.83544863     -2.81447198      6.68441172
H      -0.14344772     -7.37323554     12.68714250
C       8.69984349     -4.19848664      7.17713272
H       7.71272658     -4.39309550      7.88810862
C       5.81197814      5.85732160     -2.78261634
H       9.07092181     -5.35161206      7.39793091
H       6.50244582      6.77488662     -3.26707515
H       4.75651891      6.29906373     -3.26094452
C       6.13258203      4.54018374     -3.83057821
H      10.08020172      4.52359797    -13.29064241
C       9.42727143      4.17280137    -12.43687378
H       6.88306755      1.59616052     -2.16907736
H       5.57832209      4.41130032     -4.93952748
H      -3.00457314     13.84833510     10.96441668
C       8.55298431     -7.66795975     -8.23225224
H     -10.74373897      0.21630979      5.71285510
H     -19.27121106     -7.16727178     -1.12682474
C       0.52617141     -6.43114199      1.99221977
H     -11.01403700     -1.78381150      5.39937695
C      -1.16857455     -7.12822339     13.27920659
H      -0.28691227     -6.90031216      2.67984285
H      -3.40387525     -8.07775569     13.53455247
H      -1.16531748     -5.92181691     13.19511104
C      -3.86496428     -0.10151390     -7.36529804
H       6.26362254      7.16200239     -0.84618000
C       4.31903335      6.09322168     -0.13745610
H      -4.40025052      0.78719847     -7.89224349
H       4.20197644      6.88947863      0.80945839
H       3.84359510      5.09914407      0.42581741
H       3.21284730      6.37741287     -0.61021859
H       8.83939389     -7.49976773     -9.42885697
H       8.43287666     -8.87324617     -8.49310021
H      10.58880110     -8.31941386     -6.67983039
H       8.03703041      0.05873620      9.57825506
H      11.42965626     -0.82069140      8.86863427
H      -2.03593561     -9.35630100     13.92884750
H       7.96056109      1.11384744      7.06091376
H      -8.74528027     -4.13752537     22.51990207
H       5.00898698     13.61497112     17.32469411
H       3.23351723     13.59359414     20.35028457
H      10.80970244     -1.33897004     11.86773992
H      17.36266112      4.35215929      0.21640797
H      -4.76160622     12.91595120     10.67025940
H      18.05261962      4.50030393      0.54868550
H       0.12224550      1.59035208    -19.49809384
H       7.67622339     -3.17600850      5.18902746
H       6.90204994     -5.88445797     -8.43853832
H      11.80670186      0.06387075     11.34815237
C      -9.02065846     -1.20444684      6.63805402
C      -2.26270016     -8.14639848     13.99870437
C       9.10223565      0.48160550      9.10545122
C      10.30197651     -0.71256045      9.33260936
C       9.02921986      1.27717844      7.62043382
C       5.08020608     14.23004296     18.38024156
C      10.97955403     -0.68682863     10.86305869
C      -4.20670498     14.01193275     10.75409679
C       4.03394659     13.73522622     19.49902453
C       6.95332701      5.15824856     -0.19866679
C      11.33736612      1.74387357      3.99794406
C      10.37039245      1.93214980      5.14511571
C       9.99300067     -7.54156689     -7.39123319
C       5.79186963      6.02347591     -1.04702884
C       8.72023662     -3.34249365      5.81754609
H       8.06438111      5.43094173      0.20748151
H       5.04326568     -8.28237085     -8.10475469
H      -8.03227350     -1.42822139      7.21354078
H      -8.61698073     -3.46530193     22.89414112
H      -2.38580728     -7.98153763     15.21532623
H       9.59491510      3.42567092      6.62493836
H       8.92520031      1.36497441      9.95538281
H       6.27746894     14.13623988     18.16360525
H       4.93558963     15.41732494     18.64221478
H      -3.39182002     -1.02479029     -6.83831838
H       6.91348886      4.13894644      0.45286717
H      -4.35858768     14.63056922      9.70036995
H       1.33562274     -5.96151408      1.30066000
H       0.06251067      2.36477686    -19.56949346
H       9.12704176     -3.29583419      4.65586617
H      10.79370646     -6.63682639     -7.29561466
H      -4.70205777     14.65291486     11.68139786
   94

C       7.13841644     -6.84433984     -7.68243439
C       5.66312784     -7.62336634     -7.25645759
H       7.40657642     -6.03640717     -6.77481236
C     -10.35236012     -0.90296649      5.86264950
H     -18.89187123     -7.18329789     -1.80819024
H       4.66870006     -6.98180283     -6.88285343
C       9.90812368     -1.93970653      8.33335499
H       5.66125152     -8.43640724     -6.31973997
H      -7.79966937     -6.26231710    -16.92325603
H      -7.79196950     -7.03171273    -16.79530647
C       9.93753478      2.24923822      6.58118775
H      11.02610985      2.50737151      7.07212221
C       9.68218071     -2.95073196      7.08076872
H       7.23208274      4.12116169     -3.93174736
H      10.84670689     -2.83707474      6.70804716
H      -0.14353149     -7.37322357     12.68720232
C       8.70789307     -4.21308286      7.20300663
H       7.72154595     -4.40704033      7.91508790
C       5.78364375      5.88194579     -2.81577825
H       9.07604278     -5.36763266      7.42093961
H       6.49850831      6.76720725     -3.32075378
H       4.73851157      6.32136436     -3.31724315
C       6.08824878      4.54470971     -3.82884530
H      10.08570861      4.52287363    -13.29608298
C       9.43307989      4.17221709    -12.44201742
H       7.63799199      1.28412135     -1.39323955
H       5.59594662      4.39326678     -4.95832475
H      -3.00470708     13.84844292     10.96456728
C       8.55134540     -7.66801876     -8.23396279
H     -10.74373464      0.21628763      5.71285121
H     -19.27119702     -7.16727067     -1.12682757
C       0.52445757     -6.43152521      1.99150670
H     -11.01401025     -1.78383164      5.39935791
C      -1.16866120     -7.12820144     13.27925538
H      -0.28819438     -6.90079720      2.67956638
H      -3.40394298     -8.07775367     13.53458491
H      -1.16540158     -5.92179595     13.19515243
C      -3.86584332     -0.10262896     -7.36488223
H       6.21300740      7.22286211     -0.90424780
C       4.27154850      6.14149645     -0.18758838
H      -4.39861567      0.78749507     -7.89200889
H       4.14501827      6.93937938      0.75655066
H       3.79590650      5.14448226      0.37095710
H       3.16871884      6.42032115     -0.67085395
H       8.83697525     -7.50066685     -9.43086595
H       8.43108092     -8.87323959     -8.49511739
H      10.58532475     -8.32065435     -6.67958556
H       8.05382620      0.06817812      9.56388611
H      11.43897677     -0.80684169      8.86898760
H      -2.03600307     -9.35629788     13.92888697
H       7.94403857      1.09772734      7.05466523
H      -8.74527930     -4.13752084     22.51989871
H       4.99204730     13.61793580     17.32456931
H       3.23716288     13.58321977     20.34802448
H      10.80626044     -1.35268138     11.86855394
H      17.37765594      4.36177088      0.20562072
H      -4.76174071     12.91605445     10.67041189
H      18.06755143      4.50955793      0.53818409
H       0.12072481      1.59100835    -19.50034499
H       7.68018539     -3.18181172      5.21967666
H       6.90186476     -5.88188102     -8.43854765
H      11.80498443      0.04783920     11.36232146
C      -9.02062705     -1.20445498      6.63802504
C      -2.26277140     -8.14639627     13.99874428
C       9.11516326      0.48705523      9.07925803
C      10.30990451     -0.70784344      9.33119932
C       9.02609137      1.26665407      7.58278195
C       5.08115796     14.23315283     18.37910185
C      10.97764477     -0.69568413     10.86693394
C      -4.20684031     14.01203601     10.75425273
C       4.03761814     13.73674115     19.49924005
C       6.92178430      5.23206765     -0.23095125
C      11.28953254      1.74367079      3.95276103
C      10.22329416      1.96024614      5.00896820
C       9.99134738     -7.54305477     -7.39278656
C       5.75083548      6.07749062     -1.08579722
C       8.72538030     -3.35685792      5.84364609
H       8.02484777      5.52885694      0.18190587
H       5.04342793     -8.28125002     -8.10577216
H      -8.03223366     -1.42821986      7.21350124
H      -8.61697915     -3.46529735     22.89413748
H      -2.38587745     -7.98153486     15.21536574
H       9.57486500      3.41971944      6.58734232
H       8.94183215      1.36936657      9.93079731
H       6.28187078     14.13199391     18.18282277
H       4.93992407     15.42424575     18.62622648
H      -3.38932032     -1.02405339     -6.83769168
H       6.85617819      4.26548126      0.49405391
H      -4.35873955     14.63069008      9.70053874
H       1.33358625     -5.96197435      1.29952323
H       0.06098697      2.36543143    -19.57176027
H       9.13066694     -3.32275674      4.68113205
H      10.79403244     -6.63979801     -7.30003200
H      -4.70218485     14.65300919     11.68156422
   94

C       7.13879820     -6.83739345     -7.67869325
C       5.66418384     -7.61824782     -7.25375506
H       7.40648823     -6.02874649     -6.77149810
C     -10.35225758     -0.90294899      5.86262600
H     -18.89185576     -7.18329808     -1.80818815
H       4.66926511     -6.97789492     -6.87955394
C       9.91633087     -1.94761648      8.35555608
H       5.66326881     -8.43175953     -6.31742029
H      -7.80081139     -6.26362180    -16.92281664
H      -7.79310602     -7.03301636    -16.79486104
C       9.88775429      2.23654637      6.50181448
H      10.98143653      2.48579959      6.98424373
C       9.69376737     -2.97352775      7.11635975
H       7.16199523      4.07646720     -3.92890056
H      10.85909152     -2.86544624      6.74455117
H      -0.14381951     -7.37329473     12.68738993
C       8.71791137     -4.23384314      7.24550386
H       7.73044612     -4.42725516      7.95589121
C       5.74303474      5.94582669     -2.88544212
H       9.08135881     -5.39071135      7.45840659
H       6.46420800      6.81961532     -3.39681790
H       4.69586884      6.37260477     -3.38983595
C       6.06731195      4.61509598     -3.88732711
H      10.09178620      4.52205119    -13.30273154
C       9.43933344      4.17115875    -12.44862780
H       8.29406018      1.06395936     -0.36904540
H       5.58725230      4.40595352     -5.00618446
H      -3.00453998     13.84829218     10.96443721
C       8.54975319     -7.66327744     -8.23199386
H     -10.74364430      0.21630211      5.71283559
H     -19.27118241     -7.16727060     -1.12682597
C       0.52381139     -6.43111885      1.99007622
H     -11.01391422     -1.78381561      5.39934614
C      -1.16894907     -7.12823663     13.27942148
H      -0.28844210     -6.90062238      2.67846408
H      -3.40417865     -8.07782713     13.53469837
H      -1.16568419     -5.92183427     13.19530371
C      -3.86762572     -0.10400591     -7.36485157
H       6.19158781      7.27459579     -0.96297548
C       4.24580252      6.18154916     -0.23334817
H      -4.39793624      0.78752010     -7.89211252
H       4.14230372      6.96072321      0.72852770
H       3.77138071      5.17772631      0.31512643
H       3.13994416      6.47473277     -0.69909732
H       8.83453110     -7.49682213     -9.42922532
H       8.42965204     -8.86847811     -8.49353849
H      10.58208018     -8.31658407     -6.67614801
H       8.06881109      0.07482089      9.55383606
H      11.44781442     -0.79494614      8.87752606
H      -2.03624114     -9.35637583     13.92902142
H       7.93340701      1.08136885      7.05100702
H      -8.74529214     -4.13750902     22.51989882
H       4.97505139     13.62087142     17.32443971
H       3.24083126     13.57313018     20.34550745
H      10.80381229     -1.36724505     11.87688536
H      17.39289767      4.37173637      0.19428258
H      -4.76158064     12.91592014     10.67030773
H      18.08257206      4.51897789      0.52754103
H       0.11921698      1.59156426    -19.50270084
H       7.68528891     -3.20150168      5.26352245
H       6.90253085     -5.87399282     -8.43371585
H      11.80398779      0.03077801     11.38323228
C      -9.02050283     -1.20442062      6.63797229
C      -2.26302079     -8.14647778     13.99888553
C       9.12708165      0.49037259      9.06015209
C      10.31737267     -0.70424890      9.33780236
C       9.02515400      1.25584244      7.55303637
C       5.08221293     14.23603499     18.37777370
C      10.97573362     -0.70511692     10.87840549
C      -4.20667688     14.01189971     10.75415422
C       4.04128988     13.73795332     19.49921920
C       6.87467244      5.25670058     -0.34864178
C      11.29526639      1.75997089      3.96991026
C      10.11343373      1.99072555      4.90229299
C       9.98966473     -7.53905306     -7.39069987
C       5.70557457      6.14382973     -1.15906666
C       8.73089434     -3.37895107      5.88546123
H       7.94297723      5.50120316      0.16782027
H       5.04494117     -8.27588016     -8.10363331
H      -8.03209091     -1.42816162      7.21342641
H      -8.61699017     -3.46528498     22.89413596
H      -2.38612437     -7.98161323     15.21550512
H       9.55296566      3.41421091      6.55349602
H       8.95549255      1.37030587      9.91436498
H       6.28602859     14.12810272     18.20174770
H       4.94443637     15.43073895     18.61015921
H      -3.38794649     -1.02370043     -6.83748248
H       6.77282812      4.18314826      0.19462524
H      -4.35859341     14.63056783      9.70045080
H       1.33265763     -5.96124183      1.29796394
H       0.05946685      2.36598327    -19.57415024
H       9.13601110     -3.37179169      4.72275597
H      10.79310156     -6.63637881     -7.29915247
H      -4.70201088     14.65286797     11.68147488
   94

C       7.13975098     -6.83248820     -7.67482021
C       5.66582450     -7.61529915     -7.25119545
H       7.40669621     -6.02303055     -6.76804514
C     -10.35218079     -0.90292120      5.86261511
H     -18.89185375     -7.18329957     -1.80818364
H       4.67016928     -6.97636001     -6.87669409
C       9.92548061     -1.95965061      8.37591662
H       5.66592705     -8.42898449     -6.31499436
H      -7.80212772     -6.26507739    -16.92240263
H      -7.79441474     -7.03447056    -16.79443919
C       9.85390187      2.22501348      6.44488229
H      10.94519380      2.47178436      6.93312644
C       9.70492343     -2.99394208      7.14440334
H       7.12312581      4.11004466     -4.03164348
H      10.87201288     -2.89300350      6.77605410
H      -0.14402612     -7.37341827     12.68749598
C       8.72754672     -4.25288641      7.27638169
H       7.73928170     -4.44574241      7.98558868
C       5.71721501      5.99672532     -2.94612977
H       9.08659265     -5.41187095      7.48466073
H       6.43451787      6.87478668     -3.45273238
H       4.66225055      6.41668801     -3.43730626
C       6.05633217      4.69599837     -3.97372438
H      10.09900708      4.52166263    -13.31189163
C       9.44638385      4.17043381    -12.45806603
H       8.39304018      1.15504821      0.60333911
H       5.54510799      4.43540482     -5.06231676
H      -3.00426563     13.84805203     10.96415209
C       8.54938445     -7.65975978     -8.22942338
H     -10.74355984      0.21633217      5.71282050
H     -19.27117990     -7.16727134     -1.12682121
C       0.52430345     -6.43065342      1.98876262
H     -11.01384940     -1.78378512      5.39934679
C      -1.16914562     -7.12832833     13.27952606
H      -0.28780180     -6.90035085      2.67720961
H      -3.40434506     -8.07792389     13.53476906
H      -1.16587377     -5.92192802     13.19540492
C      -3.87032893     -0.10545440     -7.36514101
H       6.18938695      7.29095713     -0.99990392
C       4.24935975      6.17288567     -0.26105444
H      -4.39769917      0.78780921     -7.89242968
H       4.16191988      6.93519689      0.71531924
H       3.79111594      5.15756647      0.28019534
H       3.13550274      6.46647558     -0.70583392
H       8.83350978     -7.49429781     -9.42694335
H       8.42982196     -8.86499564     -8.49120932
H      10.57904159     -8.31178725     -6.67020850
H       8.08420482      0.07497418      9.54767173
H      11.45749200     -0.79104364      8.89037143
H      -2.03641382     -9.35648356     13.92910687
H       7.93229885      1.06780565      7.05216866
H      -8.74531118     -4.13750613     22.51990743
H       4.95796016     13.62387805     17.32459538
H       3.24465609     13.56257619     20.34299280
H      10.80201988     -1.38836428     11.88839219
H      17.40483439      4.37919959      0.18167078
H      -4.76130988     12.91569854     10.67004367
H      18.09449639      4.52667032      0.51485805
H       0.11748430      1.59219780    -19.50543258
H       7.69293844     -3.21765707      5.29743419
H       6.90370005     -5.86842732     -8.42906664
H      11.80399397      0.00707815     11.40788414
C      -9.02041762     -1.20438881      6.63794991
C      -2.26319831     -8.14658779     13.99897753
C       9.14065941      0.48763258      9.04841566
C      10.32535105     -0.70874382      9.34808569
C       9.03111607      1.24444578      7.53315744
C       5.08324509     14.23900104     18.37641289
C      10.97564337     -0.72157463     10.89304344
C      -4.20640421     14.01167743     10.75389071
C       4.04481421     13.73974837     19.49929911
C       6.85062572      5.26483570     -0.43007314
C      11.33547956      1.76988740      4.01010086
C      10.06674347      2.01662786      4.82847564
C       9.98874938     -7.53507628     -7.38738554
C       5.68635371      6.17324759     -1.21869055
C       8.73952466     -3.39832502      5.91636577
H       7.93704950      5.43324760      0.07139260
H       5.04728620     -8.27290770     -8.10163495
H      -8.03200035     -1.42812317      7.21339777
H      -8.61700844     -3.46528174     22.89414369
H      -2.38629923     -7.98171843     15.21559526
H       9.54302134      3.40719343      6.52997203
H       8.96931093      1.36332679      9.90703650
H       6.28984208     14.12432570     18.22102518
H       4.94926916     15.43719432     18.59386574
H      -3.38758203     -1.02353995     -6.83774810
H       6.77398589      4.10155625     -0.12560858
H      -4.35831594     14.63033520      9.70018020
H       1.33340706     -5.96048945      1.29712400
H       0.05772742      2.36661489    -19.57689754
H       9.14373322     -3.41107860      4.75361219
H      10.79226812     -6.63245656     -7.29618033
H      -4.70174089     14.65265329     11.68120506
   94

C       7.14037380     -6.83019144     -7.67304861
C       5.66708802     -7.61445390     -7.25004682
H       7.40684074     -6.02007498     -6.76666821
C     -10.35218598     -0.90291781      5.86261963
H     -18.89185712     -7.18330117     -1.80818245
H       4.67077277     -6.97681639     -6.87522005
C       9.93456280     -1.97014754      8.38618023
H       5.66824250     -8.42820017     -6.31388962
H      -7.80340982     -6.26647838    -16.92198969
H      -7.79569425     -7.03587107    -16.79402355
C       9.82224021      2.20710568      6.37876991
H      10.91812703      2.44417083      6.85991965
C       9.71279383     -3.00500415      7.15515923
H       7.09849409      4.11494677     -4.09414011
H      10.88229944     -2.91236103      6.79207416
H      -0.14398138     -7.37344279     12.68740780
C       8.73304218     -4.26262814      7.28385137
H       7.74669978     -4.45508162      7.99583463
C       5.71072751      6.01587888     -2.97305106
H       9.09025858     -5.42247826      7.49035119
H       6.42825743      6.89531690     -3.47487285
H       4.65263207      6.43379498     -3.45781855
C       6.05695704      4.73923561     -4.02087553
H      10.10549673      4.52139544    -13.31978917
C       9.45278066      4.17008269    -12.46607476
H       8.37078177      1.45888241      1.42303848
H       5.52582576      4.44141040     -5.08551728
H      -3.00413520     13.84795052     10.96400561
C       8.54907334     -7.65847876     -8.22845746
H     -10.74355798      0.21633763      5.71282223
H     -19.27118283     -7.16727265     -1.12681978
C       0.52515135     -6.42988906      1.98776052
H     -11.01385592     -1.78378053      5.39935086
C      -1.16908918     -7.12835466     13.27945947
H      -0.28688693     -6.89987458      2.67611801
H      -3.40429983     -8.07792846     13.53471921
H      -1.16581898     -5.92195390     13.19534390
C      -3.87259170     -0.10660350     -7.36529974
H       6.20388428      7.27158336     -1.01126204
C       4.25477185      6.16112516     -0.28017318
H      -4.39703048      0.78839101     -7.89259625
H       4.17541347      6.91890981      0.70012306
H       3.79601220      5.14330783      0.25528687
H       3.14088220      6.46193735     -0.72026249
H       8.83254142     -7.49396578     -9.42625792
H       8.42990017     -8.86372362     -8.49045862
H      10.57603573     -8.30941542     -6.66574562
H       8.10082261      0.07760129      9.53627141
H      11.46690811     -0.78675172      8.89647594
H      -2.03636990     -9.35649134     13.92905324
H       7.93136187      1.05705409      7.05110637
H      -8.74531315     -4.13750969     22.51990853
H       4.94081435     13.62695657     17.32502632
H       3.24853425     13.55212672     20.34045231
H      10.79865077     -1.40897352     11.89291607
H      17.41572861      4.38591871      0.17042496
H      -4.76118232     12.91560741     10.66990564
H      18.10551508      4.53372405      0.50321077
H       0.11584894      1.59287498    -19.50792957
H       7.69878206     -3.21192903      5.31280816
H       6.90457243     -5.86541998     -8.42645820
H      11.80250696     -0.01613398     11.42607555
C      -9.02042616     -1.20439079      6.63795812
C      -2.26315152     -8.14659507     13.99892378
C       9.15560037      0.48637133      9.03089402
C      10.33294220     -0.71344785      9.35124328
C       9.03851368      1.23470975      7.50776385
C       5.08437420     14.24186449     18.37511311
C      10.97474057     -0.73777480     10.90068796
C      -4.20627367     14.01158523     10.75374958
C       4.04830517     13.74150610     19.49941733
C       6.83666485      5.22747942     -0.46842882
C      11.31839036      1.75280584      3.98805261
C      10.01404835      2.02944361      4.74767059
C       9.98791399     -7.53359849     -7.38565833
C       5.68643349      6.16341970     -1.24363640
C       8.74684977     -3.40505859      5.92575833
H       7.94060700      5.38678372     -0.00436143
H       5.04911092     -8.27198905     -8.10096265
H      -8.03201242     -1.42813311      7.21340888
H      -8.61701097     -3.46528539     22.89414514
H      -2.38625166     -7.98172389     15.21554144
H       9.54465126      3.39469738      6.49581779
H       8.98536570      1.35879503      9.89301071
H       6.29341967     14.12090188     18.24038958
H       4.95432802     15.44336530     18.57766027
H      -3.38694866     -1.02318017     -6.83792167
H       6.79421218      4.03825198     -0.27847167
H      -4.35817512     14.63022986      9.70002970
H       1.33464963     -5.95931618      1.29682631
H       0.05609232      2.36729230    -19.57939250
H       9.14831673     -3.41614788      4.76184708
H      10.79203148     -6.63141796     -7.29551438
H      -4.70161502     14.65256825     11.68105676
   94

C       7.14079370     -6.82882510     -7.67226340
C       5.66814326     -7.61432786     -7.24954051
H       7.40693516     -6.01815694     -6.76624996
C     -10.35219823     -0.90292179      5.86262268
H     -18.89185841     -7.18330131     -1.80818286
H       4.67120448     -6.97795347     -6.87435292
C       9.94357095     -1.97719552      8.39173070
H       5.67035221     -8.42815389     -6.31344559
H      -7.80467201     -6.26785624    -16.92156373
H      -7.79695658     -7.03724895    -16.79359764
C       9.78167153      2.18312866      6.29715187
H      10.88998139      2.40185350      6.75554083
C       9.71945905     -3.01175396      7.16048730
H       7.08010128      4.10434217     -4.12178939
H      10.89109622     -2.92693656      6.80217289
H      -0.14383254     -7.37338953     12.68725073
C       8.73673667     -4.26764000      7.28457577
H       7.75387195     -4.45983692      8.00156424
C       5.71459947      6.02265264     -2.97940322
H       9.09348479     -5.42770779      7.49114073
H       6.43492903      6.90119740     -3.47722704
H       4.65649660      6.44130837     -3.46317725
C       6.06447273      4.76540886     -4.04146260
H      10.11160135      4.52111850    -13.32684232
C       9.45887775      4.16986359    -12.47311055
H       8.41783601      1.84138827      2.12863621
H       5.52254674      4.43903739     -5.08782841
H      -3.00408514     13.84791917     10.96393771
C       8.54870001     -7.65800396     -8.22826688
H     -10.74356729      0.21633446      5.71282382
H     -19.27118398     -7.16727282     -1.12682012
C       0.52587783     -6.42908242      1.98709317
H     -11.01386624     -1.78378489      5.39935191
C      -1.16893225     -7.12832160     13.27932902
H      -0.28610660     -6.89938826      2.67532184
H      -3.40416875     -8.07787441     13.53462406
H      -1.16566729     -5.92191931     13.19521834
C      -3.87453104     -0.10759214     -7.36533222
H       6.22783041      7.23617996     -1.00717370
C       4.25972425      6.15183600     -0.29411352
H      -4.39605436      0.78910893     -7.89264044
H       4.18476260      6.91098711      0.68532378
H       3.79126646      5.13630290      0.23677870
H       3.14958299      6.46317385     -0.73726150
H       8.83148734     -7.49438302     -9.42634229
H       8.42982913     -8.86323927     -8.49049171
H      10.57307931     -8.30813989     -6.66223330
H       8.11828717      0.08493794      9.51901100
H      11.47608200     -0.77780632      8.89672969
H      -2.03623701     -9.35643335     13.92894757
H       7.92703269      1.04451897      7.04445185
H      -8.74530444     -4.13751317     22.51990301
H       4.92359999     13.63009097     17.32566085
H       3.25249997     13.54167323     20.33783961
H      10.79382093     -1.42631708     11.89181444
H      17.42667923      4.39283355      0.15991925
H      -4.76113476     12.91558043     10.66983919
H      18.11662828      4.54087919      0.49226327
H       0.11426306      1.59357434    -19.51030241
H       7.70292774     -3.19258111      5.32322816
H       6.90527270     -5.86325697     -8.42473610
H      11.79944894     -0.03615759     11.43895235
C      -9.02044173     -1.20440134      6.63796402
C      -2.26301298     -8.14653517     13.99881410
C       9.17091564      0.48876171      9.00557762
C      10.34042396     -0.71385049      9.34853350
C       9.04337915      1.22466294      7.47307073
C       5.08558562     14.24461358     18.37379069
C      10.97227838     -0.75044137     10.90284193
C      -4.20622284     14.01155698     10.75367914
C       4.05175306     13.74328219     19.49952194
C       6.82945574      5.16460026     -0.49089564
C      11.23557283      1.72853783      3.90997881
C       9.92214480      2.03044803      4.65030346
C       9.98708904     -7.53317393     -7.38479066
C       5.69692938      6.13600826     -1.24852182
C       8.75163916     -3.40481683      5.92936468
H       7.93687481      5.33877802     -0.03744587
H       5.05065392     -8.27172505     -8.10091972
H      -8.03203009     -1.42815189      7.21341507
H      -8.61700315     -3.46528910     22.89414035
H      -2.38611621     -7.98166634     15.21543279
H       9.54862891      3.37638542      6.44840982
H       9.00311637      1.35951179      9.86969995
H       6.29675362     14.11775787     18.25981068
H       4.95963443     15.44924813     18.56143594
H      -3.38602166     -1.02266569     -6.83797135
H       6.80452785      3.97228733     -0.30509977
H      -4.35811452     14.63019093      9.69995150
H       1.33576848     -5.95811142      1.29685832
H       0.05450894      2.36799252    -19.58175821
H       9.14999765     -3.40592034      4.76394136
H      10.79207082     -6.63163611     -7.29607961
H      -4.70156722     14.65254443     11.68098178
   94

C       7.14132515     -6.82746937     -7.67211851
C       5.66976870     -7.61496441     -7.24969522
H       7.40694927     -6.01577660     -6.76683580
C     -10.35223719     -0.90292630      5.86262389
H     -18.89185999     -7.18329685     -1.80818867
H       4.67166138     -6.98084813     -6.87401617
C       9.95468161     -1.97273913      8.39004474
H       5.67381937     -8.42885859     -6.31365259
H      -7.80593454     -6.26921023    -16.92112743
H      -7.79822335     -7.03860423    -16.79316876
C       9.64535897      2.14847603      6.08658282
H      10.79115716      2.30487782      6.46614137
C       9.72922803     -3.01205797      7.16366907
H       7.05694045      4.07333598     -4.12410249
H      10.90341720     -2.93668333      6.81122168
H      -0.14325298     -7.37313449     12.68691269
C       8.74250375     -4.26559077      7.28234263
H       7.76441577     -4.45936574      8.00563599
C       5.73380551      6.02040460     -2.95411390
H       9.09840508     -5.42637520      7.48716424
H       6.45771463      6.89485591     -3.45175502
H       4.67630330      6.43688106     -3.44245629
C       6.08751385      4.79290679     -4.03525771
H      10.11733859      4.52105979    -13.33313342
C       9.46467496      4.17005141    -12.47924795
H       8.99294478      2.24320972      3.33704072
H       5.54174780      4.42668169     -5.05831530
H      -3.00408543     13.84794161     10.96389439
C       8.54792762     -7.65824755     -8.22881132
H     -10.74359595      0.21633235      5.71281672
H     -19.27118577     -7.16726916     -1.12682601
C       0.52599529     -6.42866969      1.98652116
H     -11.01390178     -1.78378982      5.39934946
C      -1.16836747     -7.12813897     13.27900915
H      -0.28583686     -6.89923232      2.67476856
H      -3.40368859     -8.07765387     13.53438564
H      -1.16511054     -5.92173090     13.19491519
C      -3.87595701     -0.10819230     -7.36505664
H       6.27715124      7.16918721     -0.97643500
C       4.27689769      6.13015603     -0.29494116
H      -4.39435324      0.79037733     -7.89231580
H       4.20353081      6.89629141      0.67912942
H       3.79334800      5.11946210      0.23163992
H       3.17320154      6.45378256     -0.74730653
H       8.82937245     -7.49641360     -9.42743234
H       8.42955287     -8.86345561     -8.49139871
H      10.56863748     -8.30751328     -6.65835003
H       8.14849704      0.11695459      9.45882865
H      11.48655968     -0.73676973      8.87655071
H      -2.03575112     -9.35619574     13.92867783
H       7.90543754      1.02607611      7.00137285
H      -8.74525987     -4.13751985     22.51987897
H       4.88943974     13.63721275     17.32690582
H       3.25926846     13.52698478     20.33246714
H      10.78218324     -1.44147368     11.87141955
H      17.43837796      4.39965497      0.15020661
H      -4.76113496     12.91559780     10.66978319
H      18.12855173      4.54803079      0.48193603
H       0.11273072      1.59437111    -19.51251844
H       7.70729345     -3.14768642      5.33805776
H       6.90653660     -5.86021990     -8.42267078
H      11.78862246     -0.05711209     11.44270344
C      -9.02049327     -1.20442128      6.63797963
C      -2.26250827     -8.14629068     13.99852871
C       9.19494084      0.51209783      8.92591805
C      10.34865785     -0.69259399      9.32436375
C       9.03910215      1.21512072      7.37039787
C       5.08873904     14.24862159     18.37154065
C      10.96070796     -0.75612253     10.88804880
C      -4.20622006     14.01157358     10.75361378
C       4.05973914     13.74082761     19.49890826
C       6.84298315      5.06530565     -0.47169851
C      10.88080856      1.74952469      3.67845200
C       9.55921156      2.08792721      4.40650597
C       9.98552754     -7.53344649     -7.38418573
C       5.73349446      6.07525744     -1.22177440
C       8.75573889     -3.39279585      5.93273971
H       7.93402571      5.26250767      0.01873931
H       5.05318183     -8.27203875     -8.10196885
H      -8.03208998     -1.42818700      7.21343874
H      -8.61696117     -3.46529636     22.89411824
H      -2.38562326     -7.98143263     15.21515130
H       9.53270963      3.34565552      6.32623789
H       9.03314497      1.37879967      9.79490123
H       6.30343405     14.11457045     18.29678992
H       4.96923162     15.45852585     18.53183421
H      -3.38449524     -1.02173099     -6.83772693
H       6.81615862      3.88950715     -0.18588836
H      -4.35808914     14.63018583      9.69987011
H       1.33616677     -5.95743679      1.29677713
H       0.05298390      2.36879256    -19.58394447
H       9.15057037     -3.38480025      4.76573249
H      10.79200079     -6.63300493     -7.29813748
H      -4.70157073     14.65256910     11.68090742
