   94
energy=      0.00000000
C       7.07126072     -6.83363391     -7.65969533
C       5.54850658     -7.51906518     -7.22299182
H       7.35629731     -6.06772291     -6.72208345
C     -10.34787391     -0.90496126      5.86078370
H     -18.89185999     -7.18329685     -1.80818867
H       4.61016015     -6.78273221     -6.86978955
C       9.99892601     -1.59059400      7.86036884
H       5.46984387     -8.32379654     -6.28309476
H      -7.50422152     -5.95387426    -16.98474648
H      -7.49651033     -6.72326826    -16.85678781
C      10.44054780      2.38157865      6.48552333
H      11.41708749      2.80004344      7.10120388
C       9.72115639     -2.50176585      6.51834462
H       6.62611468      2.50300074     -4.46378067
H      10.82352152     -2.17104097      6.10959412
H      -0.09294653     -7.32426029     12.37203585
C       8.85599588     -3.84534580      6.59844138
H       7.81372367     -4.06841489      7.21888546
C       4.80789270      5.02998710     -3.85789953
H       9.32592282     -4.95908835      6.83951528
H       5.70835996      5.65876975     -4.45547418
H       4.20765972      5.99179031     -4.38963675
C       5.69547213      2.79877776     -5.23349175
H       5.69499076      4.06096414     -7.70488701
C       5.39779963      3.45047917     -6.72919952
H       6.31102467      1.79484772     -5.57865491
H       4.46364827      3.70410772     -7.43550942
H      -1.67522236     13.86417483     12.14530767
C       8.54749530     -7.56788432     -8.18166272
H     -10.73923267      0.21429739      5.71097653
H     -19.27118577     -7.16726916     -1.12682601
C       0.41427487     -5.60138904      1.81970346
H     -11.00953850     -1.78582478      5.39750927
C      -1.11807135     -7.07926595     12.96411492
H      -0.47881857     -6.03435734      2.42618759
H      -3.35339545     -8.02877481     13.21949950
H      -1.11482435     -5.87285902     12.88000423
C       4.34202606      3.46904245     -4.44113143
H       5.68108595      6.12942332     -1.97788019
C       3.63883497      5.09912024     -1.18566385
H       3.13078423      3.47752205     -4.72695125
H       3.62259778      5.93537269     -0.27887064
H       3.25632820      4.08772348     -0.58343891
H       2.49579677      5.34403558     -1.59296122
H       8.88111750     -7.28634981     -9.34490640
H       8.42990378     -8.77165266     -8.45131153
H      10.68649035     -8.24565868     -6.76598979
H       8.29547777      0.32871475      9.42549818
H      11.57899426     -0.96439551      8.68452389
H      -1.98546133     -9.30732329     13.61377305
H       8.23157854      1.48866441      6.86696397
H      -8.70101793     -4.16259184     22.46177845
H       8.20294145     13.22024184     11.17403155
H      -2.34916350     13.47718722     24.28698232
H      11.24918184     -0.66293137     11.55976911
H      11.12561340      2.16118873      2.69805943
H      -3.43227189     12.93183102     11.85119647
H      12.90457516      2.54700025      3.49194606
H       1.01189080      1.58331759    -15.15068447
H       8.06655039     -3.34463832      4.38788750
H       6.79471659     -5.96973017     -8.51388877
H      12.07187514      0.69219590     10.78705814
C      -9.01612999     -1.20645624      6.63613944
C      -2.21221220     -8.09741766     13.68363440
C       9.32915753      0.73994163      8.87500078
C      10.49678378     -0.49579401      9.00026069
C       9.33132185      1.52912455      7.39536568
C       9.13832463     13.77367504     11.58991039
C      11.28805547     -0.17995608     10.44919917
C      -2.87735699     14.02780680     11.93502706
C      -1.82981241     14.44151727     23.89388281
C       6.18350653      3.98616834     -1.53554661
C      11.79004644      2.16070378      3.69111724
C      11.16904505      1.91411032      5.12465058
C      10.01375699     -7.44541959     -7.37801671
C       5.05417489      5.06595859     -2.15645608
C       8.95214865     -3.07442919      5.19908509
H       7.29462208      4.10461214     -1.07663295
H       4.88091994     -8.17829602     -8.03465699
H      -8.02772670     -1.43022196      7.21159855
H      -8.57271924     -3.49036836     22.83601772
H      -2.33531840     -7.93256510     14.90025866
H       9.90853859      3.41158415      6.09083703
H       9.13572598      1.68186521      9.65996142
H      10.07370782     14.32710824     12.00578923
H      -1.31046131     15.40584731     23.50078330
H       3.70487061      2.44679147     -4.12847965
H       6.22076010      2.78547616     -1.36120285
H      -3.02922606     14.64641905     10.88128340
H       1.13344198     -5.09821908      1.05647408
H       0.95214398      2.35773904    -15.22211050
H       9.36508814     -2.85993322      4.06044811
H      10.79936257     -6.53207750     -7.23581169
H      -3.37270765     14.66880232     12.86232070
   94
energy=      0.00000000
C       7.12591619     -6.87623277     -7.67558229
C       5.62166108     -7.60085294     -7.24443518
H       7.40449921     -6.09267002     -6.75040341
C     -10.35223719     -0.90292630      5.86262389
H     -18.89185999     -7.18329685     -1.80818867
H       4.66002183     -6.90117578     -6.88353699
C      10.05282907     -1.62905398      7.90120415
H       5.57245346     -8.40906465     -6.30528623
H      -7.56622560     -6.01512687    -16.99155064
H      -7.55851441     -6.78452087    -16.86359197
C      10.43079023      2.43533466      6.53945132
H      11.42435524      2.79669458      7.16385969
C       9.80178443     -2.55500425      6.57396261
H       7.66390083      3.46710620     -4.00126104
H      10.91825266     -2.26910428      6.16017559
H      -0.14361853     -7.37175900     12.68355659
C       8.90043244     -3.87308045      6.67305585
H       7.87312737     -4.08462960      7.32087417
C       6.33574799      5.48848273     -3.43610742
H       9.33004958     -4.99920231      6.92852169
H       6.98816768      6.41723283     -3.92969396
H       5.36796501      6.12581542     -3.86993408
C       6.78453842      4.17058227     -4.48340251
H       7.04805282      4.76538085     -7.07814139
C       6.43398252      4.38140797     -6.10885026
H       6.98566532      2.96894550     -4.63932460
H       5.44108272      4.29343342     -6.79330896
H      -1.67522236     13.86417483     12.14530767
C       8.57539415     -7.65044455     -8.21010738
H     -10.74359595      0.21633235      5.71281672
H     -19.27118577     -7.16726916     -1.12682601
C       0.54903615     -6.43471596      2.01999904
H     -11.01390178     -1.78378982      5.39934946
C      -1.16874105     -7.12676439     13.27563953
H      -0.29239986     -6.89271903      2.68048068
H      -3.40406448     -8.07627460     13.53102231
H      -1.16549184     -5.92035721     13.19153257
C      -3.30368498      0.19501776     -7.26869702
H       6.75726073      6.78723404     -1.46054032
C       4.82034919      5.79937015     -0.70657494
H      -4.19448267      0.76291750     -7.73987513
H       4.75950791      6.61628108      0.23080616
H       4.37744273      4.82998487     -0.07755109
H       3.68391914      6.07580307     -1.10954443
H       8.89290159     -7.42169390     -9.38911572
H       8.45295389     -8.85498751     -8.47352021
H      10.68298457     -8.31862733     -6.75107902
H       8.28173644      0.30401276      9.37584371
H      11.61307069     -0.90213658      8.65459860
H      -2.03612961     -9.35482161     13.92530001
H       8.25188931      1.44325853      6.82147334
H      -8.74032250     -4.14032337     22.51341327
H       8.20294145     13.22024184     11.17403155
H      -2.34916350     13.47718722     24.28698232
H      11.20824230     -0.79492380     11.56502730
H      11.13962474      2.06723736      2.73322624
H      -3.43227189     12.93183102     11.85119647
H      12.93247491      2.45669493      3.55069842
H       1.28497187      1.77933824    -18.00471786
H       8.02033925     -3.22985960      4.51545047
H       6.86654833     -5.96756577     -8.48823510
H      12.10042858      0.57978746     10.83392631
C      -9.02049327     -1.20442128      6.63797963
C      -2.26288189     -8.14491610     13.99515903
C       9.33530885      0.71748615      8.86709856
C      10.51605452     -0.50505541      9.01420033
C       9.32747113      1.52224372      7.39489145
C       9.13832463     13.77367504     11.58991039
C      11.28959799     -0.26051804     10.48147842
C      -2.87735699     14.02780680     11.93502706
C      -1.82981241     14.44151727     23.89388281
C       7.35013631      4.68374445     -0.93333492
C      11.79331407      2.13832305      3.73025022
C      11.13519944      1.99706629      5.15887801
C      10.03125055     -7.52385390     -7.39169263
C       6.24026256      5.67610686     -1.69829756
C       8.97105836     -3.07992243      5.28118489
H       8.44810496      4.87248369     -0.45909658
H       4.97488471     -8.26250502     -8.07059144
H      -8.03208998     -1.42818700      7.21343874
H      -8.61202380     -3.46809988     22.88765254
H      -2.38599005     -7.98006232     15.21178291
H       9.92720526      3.50426126      6.21104236
H       9.15001952      1.64280236      9.67191772
H      10.07370782     14.32710824     12.00578923
H      -1.31046131     15.40584731     23.50078330
H      -3.28989705     -0.86028807     -6.79522160
H       7.33948552      3.50313873     -0.66845358
H      -3.02922606     14.64641905     10.88128340
H       1.32836311     -5.95164393      1.30354371
H       1.22522505      2.55375970    -18.07614389
H       9.39347827     -2.88333666      4.14258518
H      10.81456834     -6.60818850     -7.25615181
H      -3.37270765     14.66880232     12.86232070
