   94

C      -5.70103980     -0.66640555     -0.93506269
C      -4.10202199     -0.98949096     -0.34855136
H      -5.70117961      0.09368673     -1.92334307
C      -6.99255075     -0.25244340      0.14950519
H      -6.01166515     -1.52994253     -1.77704006
H      -3.76012327      0.15579655     -0.03719077
C      -2.47949994     -1.43622914     -0.55877327
H      -4.34885735     -2.00945201      0.30866100
H      -6.00207026     -3.73485085    -11.08087942
H      -5.99435907     -4.50424484    -10.95292075
C      -1.24316156     -1.27357345     -1.69168426
H      -1.82903864     -0.79925874     -2.67688036
C       0.33847995     -0.57551462     -1.50504268
H      -1.24573424     -2.42558661     -2.16138549
H       0.38726634      0.42261527     -2.25050595
H       1.05273610     -1.23583949     -2.28960044
C       1.28988575     -0.18748337     -0.09112772
H       2.45324938      0.09463524     -0.45361168
C       0.88960564      0.86680359      1.24950905
H       1.80305535     -1.24796985      0.31235861
H       0.23200229      1.80813130      0.78188161
H       1.79309798      1.71552579      1.40148242
C       0.33546218      0.45656405      2.85998866
H       1.34538241      0.20893874      3.54894044
C       3.21431921      3.53425931    -10.57049662
H       0.16694146     -0.76831104      2.95608612
H       2.56831241      4.34238680    -11.02987537
H       0.20591932      6.56470461      9.82740475
C      11.52041492     -4.33492676     -8.82318332
H      -6.87567144      0.85954712      0.69246441
H      -7.00957951     -0.81121249      1.25903558
C      -8.60705800     -0.34018981     -0.27264645
H      -9.37961257      0.50934233     -0.65866831
C      -0.87256814      1.24793068      3.85816934
H      -9.38378629     -1.27002275     -0.27678202
H      -0.65088721      2.47379934      3.90227957
H      -0.52620765      1.22564650      5.05406213
C      -2.60002286      1.02343853      3.85289026
H      -3.00081523      1.63227628      2.84519357
C      -3.83607448      1.30251706      5.03006228
H      -2.82942061     -0.15874567      3.55157521
H      -3.86839198      2.36399989      5.66870330
H      -3.97048321      0.51555158      5.98083105
H      -5.04447772      1.34133710      4.74017021
H      11.09865949     -3.25202728     -8.52765745
H      12.05050185     -4.50179959     -9.88574385
H      11.43482219     -5.24442761     -8.04639763
H       6.42786048     -3.06652696     13.09031470
H       3.15720575     -3.01961829     14.55160514
H       6.60289482     -3.66518276     10.21972715
H       9.44724246     -3.40814378     10.98195179
H       2.71588628     -3.37308846     12.94920083
H       6.77255773      6.86525329      0.90200654
H      -1.45140619      7.35397029     13.11952476
H       8.45629225      6.50450489      4.08731674
H      14.71249626     -2.60925512      2.06131343
H      -1.01751236      5.81995578     10.59677316
H      17.46289258     -1.63454104      2.64074699
H      17.05234571     -2.06198139     -0.30298917
H      11.45870891     -1.98301217      4.39942601
H      19.97853178     -1.80993736      0.57355810
H       7.13988410      5.39161164      3.42959169
C       6.09235595     -2.24439624     12.22297181
C       6.94541589     -2.60974834     10.77961431
C       4.43066406     -2.00920566     12.30844314
C       3.32325643     -2.44180517     13.48119337
C       8.61370619     -2.54155277     10.83887765
C       7.37588274      7.23096157      1.88483276
C       7.42789236      6.59059869      3.41449158
C      -0.67939579      7.00728972     10.57347399
C      -1.10256321      7.80762634     12.03704256
C      15.16003394     -1.63351839      2.66858861
C      16.62473062     -1.07663924      1.91238662
C      17.46533765     -1.10450510      0.37881037
C      19.17638586     -0.99465309      0.09040336
C      13.63634104     -1.25464533      3.13726097
C      12.21227664     -1.23266333      3.86656278
H      19.67094260     -1.08023956     -1.04673690
H      -2.03969585     -2.10923993      0.36650595
H       6.51164596     -1.25014988     12.83601668
H       3.02359608     -1.43145386     14.12699161
H       6.62194276     -1.98433456      9.75807441
H       9.37005239     -1.59595451     10.80126729
H       3.87440438     -1.41277487     11.39051537
H       7.91185280      8.21396032      1.42980850
H      -0.52345867      8.64713221     12.72112641
H       6.74578376      7.25742024      4.19726289
H      15.35434963     -1.76072166      3.88074952
H      -0.90885423      7.73394626      9.60261301
H      16.56109163      0.13611779      2.18630863
H      16.92660321     -0.29090063     -0.39807683
H      11.34020936     -0.53027076      4.25778429
H      19.81471994      0.02343214      0.40526579
H      -2.09088186      8.50113308     12.23281834
   94

C      -5.74977359     -0.70328255     -1.10378296
C      -4.15590858     -1.02253269     -0.50326694
H      -5.74488803      0.05863009     -2.09031050
C      -7.05562210     -0.29393407     -0.03615876
H      -6.05659155     -1.56695720     -1.94677388
H      -3.81581177      0.12056535     -0.18190185
C      -2.53398831     -1.46968231     -0.71231855
H      -4.40517122     -2.04432951      0.15015274
H      -6.01521122     -3.75241388    -11.13158585
H      -6.00749303     -4.52178823    -11.00350659
C      -1.29799354     -1.30177950     -1.84335786
H      -1.88233498     -0.82929647     -2.83032232
C       0.27583998     -0.59096467     -1.65405932
H      -1.29200238     -2.45165678     -2.31822690
H       0.32120948      0.41581147     -2.38745420
H       0.99593891     -1.23585435     -2.44688555
C       1.21527994     -0.21008226     -0.23195386
H       2.37655000      0.08792259     -0.59020684
C       0.78293431      0.80723793      1.13034846
H       1.74510220     -1.27493066      0.14040237
H       0.11953752      1.75900463      0.69822401
H       1.68342735      1.65975228      1.28618163
C       0.26341470      0.33175190      2.74010778
H       1.32111819     -0.04146974      3.30483800
C       3.21480798      3.53500096    -10.57166249
H       0.02154864     -0.88173771      2.78619919
H       2.56861375      4.34311323    -11.03080294
H       0.23490547      6.91950498     10.09235837
C      11.52136534     -4.33488244     -8.82327033
H      -6.94338165      0.81889848      0.50541953
H      -7.07976554     -0.85571686      1.07132575
C      -8.66881879     -0.38127349     -0.46180705
H      -9.44422537      0.47192135     -0.83329865
C      -0.68505948      1.31903792      4.84669954
H      -9.44881466     -1.30813689     -0.45160055
H      -0.48601808      2.52726764      4.92547779
H      -0.45603163      1.09005570      6.02579530
C      -2.74627533      0.92806316      3.73016179
H      -3.02320151      1.59337425      2.72445510
C      -4.07506741      1.21760609      4.81415966
H      -2.92264214     -0.25079004      3.41005538
H      -4.21732529      2.27071946      5.45991285
H      -4.30140288      0.42491721      5.74555787
H      -5.25724884      1.24648172      4.43192920
H      11.09881866     -3.25219756     -8.52808692
H      12.05059983     -4.50200671     -9.88621724
H      11.43495918     -5.24461682     -8.04684932
H       6.58376871     -3.13439549     13.18941780
H       3.32665502     -3.09517359     14.65144411
H       6.75478449     -3.73457125     10.31875297
H       9.60101008     -3.47654617     11.07184055
H       2.85044756     -3.43714870     13.05026347
H       6.83952468      6.93015495      0.87403217
H      -1.44027855      7.66535609     13.34510015
H       8.53347840      6.57526978      4.05021694
H      14.72255544     -2.61876488      2.05790784
H      -1.02333952      6.15754547     10.81909169
H      17.47370115     -1.62417331      2.64987984
H      17.05166532     -2.06825989     -0.30038877
H      11.48180573     -2.00380709      4.38674442
H      19.97689392     -1.81622348      0.57281278
H       7.20907420      5.45843333      3.40643483
C       6.24773411     -2.31313510     12.32179675
C       7.09894712     -2.67906578     10.87737966
C       4.58581069     -2.08206670     12.41272465
C       3.47209683     -2.51367659     13.57983696
C       8.76735524     -2.60967976     10.93159088
C       7.44411401      7.29601854      1.85594738
C       7.49904843      6.65683983      3.38591765
C      -0.68609970      7.34516867     10.80250878
C      -1.10426781      8.13927462     12.26610660
C      15.16926284     -1.64490027      2.66863381
C      16.63156392     -1.07862700      1.91687870
C      17.46504353     -1.11004955      0.38006182
C      19.17549944     -0.99957560      0.09069510
C      13.64702052     -1.25937934      3.13334690
C      12.22275897     -1.23612463      3.85920280
H      19.67026513     -1.08383920     -1.04630691
H      -2.10067177     -2.15886611      0.20359782
H       6.66790086     -1.31881006     12.93418741
H       3.15846554     -1.50317784     14.21870671
H       6.77603149     -2.05439460      9.85521108
H       9.52430688     -1.66475157     10.88966538
H       4.03423556     -1.47972369     11.49628348
H       7.98049524      8.27861043      1.40051741
H      -0.50073230      8.97484360     12.93466448
H       6.81411259      7.31911756      4.17009903
H      15.36200568     -1.78711936      3.87933434
H      -0.91738543      8.06212737      9.82485519
H      16.56811283      0.13354108      2.19358934
H      16.92157696     -0.30094363     -0.39821682
H      11.36595192     -0.50857711      4.23970891
H      19.81241731      0.01933669      0.40561524
H      -2.09636524      8.83332437     12.44773503
   94

C      -5.79619840     -0.74580482     -1.27934987
C      -4.20525963     -1.06068445     -0.66877035
H      -5.78761078      0.01407549     -2.26736346
C      -7.11544345     -0.33894921     -0.22808026
H      -6.09800248     -1.61314597     -2.11986156
H      -3.86916912      0.08474195     -0.35134967
C      -2.58204345     -1.50824038     -0.86830970
H      -4.45592682     -2.07640860     -0.00671468
H      -6.02809816     -3.77017201    -11.18253857
H      -6.02037291     -4.53951487    -11.05426753
C      -1.33782095     -1.33260783     -1.98904576
H      -1.91534658     -0.86427192     -2.98204297
C       0.22968134     -0.61334720     -1.78073605
H      -1.32207709     -2.48141381     -2.46621321
H       0.28172993      0.39148993     -2.51658151
H       0.96326129     -1.25359167     -2.56511240
C       1.14087706     -0.22441230     -0.34184149
H       2.30879665      0.06901416     -0.68236644
C       0.67111807      0.80140603      1.00442412
H       1.67036723     -1.28478592      0.04377079
H       0.03415510      1.75999608      0.54938232
H       1.57273093      1.64971937      1.17778813
C       0.07920962      0.36696899      2.61558648
H       1.14523935      0.03359889      3.18725294
C       3.21551249      3.53552849    -10.57266628
H      -0.10190668     -0.85924284      2.65375286
H       2.56922389      4.34361096    -11.03172861
H       0.26300144      7.27368101     10.34088143
C      11.52197203     -4.33467727     -8.82291973
H      -7.00928960      0.77888162      0.30397735
H      -7.14350513     -0.89532338      0.88175508
C      -8.72827438     -0.42560701     -0.65434681
H      -9.50785618      0.43014902     -1.01090194
C      -0.63911062      0.88563604      5.88341476
H      -9.51111765     -1.34944590     -0.62519502
H      -0.53523052      2.09899474      6.01146501
H      -0.84767318      0.58730574      7.04444632
C      -2.75929686      0.91838414      3.54896581
H      -3.00369408      1.60746387      2.54876122
C      -4.18295020      1.23510947      4.52622137
H      -2.98222629     -0.25462900      3.22916314
H      -4.34520897      2.29731688      5.15529132
H      -4.55133280      0.45719676      5.42700833
H      -5.33782898      1.32344080      4.06883510
H      11.09860033     -3.25222444     -8.52806092
H      12.05038518     -4.50205374     -9.88623775
H      11.43472328     -5.24463850     -8.04685807
H       6.75332026     -3.20721199     13.29365523
H       3.50794711     -3.17713043     14.76474968
H       6.91369275     -3.80637785     10.42039473
H       9.76221091     -3.54582040     11.16080202
H       2.99955885     -3.50975922     13.16574869
H       6.90053533      6.99230863      0.84807594
H      -1.42566555      7.97680059     13.56202533
H       8.59940120      6.64029256      4.01551419
H      14.73123704     -2.62765517      2.05451694
H      -1.02510108      6.49836924     11.03248840
H      17.48308436     -1.61367734      2.65907868
H      17.05025198     -2.07442424     -0.29753614
H      11.50316946     -2.02396968      4.37340398
H      19.97448055     -1.82246848      0.57242146
H       7.26555154      5.52055717      3.38538215
C       6.41571119     -2.38632052     12.42678914
C       7.25975775     -2.75098973     10.97792997
C       4.75389331     -2.16289899     12.53080493
C       3.63385814     -2.59270293     13.69214149
C       8.92817109     -2.67895522     11.02384508
C       7.50554221      7.35763006      1.82984106
C       7.55929349      6.71791277      3.35949859
C      -0.68523294      7.68540547     11.02169025
C      -1.10240320      8.47121909     12.48694284
C      15.17706368     -1.65561895      2.66865256
C      16.63723242     -1.08042235      1.92144101
C      17.46398299     -1.11548200      0.38159422
C      19.17387609     -1.00445092      0.09129320
C      13.65621782     -1.26395781      3.12995172
C      12.23132708     -1.23881007      3.85198944
H      19.66892319     -1.08742237     -1.04554336
H      -2.15369223     -2.20112816      0.04708576
H       6.83656875     -1.39172926     13.03832034
H       3.30690269     -1.58204823     14.32418942
H       6.93616400     -2.12664195      9.95576893
H       9.68485894     -1.73410596     10.97711303
H       4.20847686     -1.55164099     11.61734544
H       8.04427231      8.33906685      1.37462604
H      -0.47501633      9.30254693     13.13991351
H       6.87077879      7.37526414      4.14468538
H      15.36837206     -1.81294167      3.87767266
H      -0.92391062      8.39013122     10.03669799
H      16.57409847      0.13117750      2.20088043
H      16.91588601     -0.31089607     -0.39812271
H      11.39013224     -0.48630905      4.22052184
H      19.80940954      0.01526952      0.40626835
H      -2.09864323      9.16523894     12.65428735
   94

C      -5.83552325     -0.78664689     -1.44240338
C      -4.24476136     -1.09893787     -0.82829380
H      -5.82500409     -0.03023029     -2.43319115
C      -7.16310754     -0.37967670     -0.40141822
H      -6.13427728     -1.65830637     -2.27911255
H      -3.91111527      0.04968369     -0.51981273
C      -2.61959504     -1.54734104     -1.01558105
H      -4.49629428     -2.10568436     -0.15331838
H      -6.04077174     -3.78770614    -11.23272749
H      -6.03305151     -4.55702122    -11.10428771
C      -1.36686372     -1.36323663     -2.12532402
H      -1.93620373     -0.89723302     -3.12428675
C       0.19592836     -0.64079701     -1.89040737
H      -1.34382166     -2.51046058     -2.60606186
H       0.25691661      0.36298924     -2.62761257
H       0.94100918     -1.27628850     -2.66801668
C       1.07952160     -0.25496459     -0.43210579
H       2.25551097      0.02620871     -0.75589284
C       0.59287917      0.77858114      0.90315376
H       1.60153184     -1.30952538     -0.02352399
H      -0.00363061      1.74698688      0.41183681
H       1.50499280      1.61181952      1.09083635
C      -0.09723573      0.39908664      2.48899476
H       0.91053414      0.20624644      3.19868313
C       3.21625672      3.53586586    -10.57347590
H      -0.17258999     -0.83447457      2.58423910
H       2.56991321      4.34391256    -11.03252703
H       0.28894984      7.60700666     10.57109486
C      11.52256831     -4.33446138     -8.82248389
H      -7.06172217      0.74394316      0.11927059
H      -7.19213634     -0.92586575      0.71334322
C      -8.77636997     -0.46565663     -0.82672576
H      -9.55923542      0.39058783     -1.17520327
C      -0.95885883      0.38293867      6.84061085
H      -9.56069717     -1.38755493     -0.78366497
H      -0.87735428      1.59715272      6.94054379
H      -1.50101776      0.08959784      7.89035375
C      -2.73517000      0.92125671      3.33384313
H      -2.97031401      1.61936584      2.33517095
C      -4.19171828      1.28952951      4.24769083
H      -3.00155100     -0.25256106      3.04897291
H      -4.31483412      2.35762951      4.87386706
H      -4.66690658      0.53073107      5.11307693
H      -5.32527432      1.46093128      3.75502565
H      11.09837701     -3.25223974     -8.52794713
H      12.05015590     -4.50209073     -9.88617435
H      11.43447833     -5.24464698     -8.04677931
H       6.92154885     -3.27511309     13.38973920
H       3.69494165     -3.25618741     14.87430410
H       7.06791322     -3.87258752     10.51338232
H       9.91865977     -3.61203353     11.24516309
H       3.15426897     -3.58229646     13.27925230
H       6.96156160      7.05330078      0.82390236
H      -1.40663917      8.27887620     13.76653752
H       8.66047886      6.70198558      3.98406696
H      14.73851924     -2.63587304      2.05151366
H      -1.02701030      6.82378081     11.23033617
H      17.49101730     -1.60315221      2.66854021
H      17.04815782     -2.08054208     -0.29420776
H      11.52284230     -2.04351430      4.36024783
H      19.97132704     -1.82871019      0.57255269
H       7.31692685      5.58018897      3.36696464
C       6.58113246     -2.45469260     12.52389226
C       7.41629346     -2.81731487     11.06951043
C       4.91953812     -2.23773550     12.63982496
C       3.79914164     -2.66924104     13.80038765
C       9.08476983     -2.74509035     11.10829789
C       7.56562928      7.41762480      1.80655401
C       7.61527221      6.77627955      3.33563602
C      -0.67898920      8.00898702     11.22922212
C      -1.09585605      8.79206604     12.69498044
C      15.18338421     -1.66558551      2.66899176
C      16.64171329     -1.08209072      1.92628206
C      17.46219988     -1.12086543      0.38363014
C      19.17155280     -1.00931986      0.09236194
C      13.66385334     -1.26848901      3.12761528
C      12.23805131     -1.24073721      3.84582678
H      19.66695458     -1.09103125     -1.04428304
H      -2.19437429     -2.23874130     -0.09760860
H       7.00283329     -1.45970441     13.13426497
H       3.46001567     -1.65890052     14.42662114
H       7.09086607     -2.19302645     10.04787433
H       9.84157240     -1.80051627     11.05902037
H       4.37890230     -1.61885668     11.72929234
H       8.10748930      8.39782561      1.35223350
H      -0.44453507      9.61947035     13.33120236
H       6.92276114      7.42847008      4.12164286
H      15.37347694     -1.83810928      3.87610038
H      -0.92606345      8.70348449     10.23837563
H      16.57909091      0.12896706      2.20838930
H      16.90960373     -0.32082490     -0.39759924
H      11.41284757     -0.46352656      4.20119510
H      19.80573185      0.01119229      0.40738427
H      -2.09562993      9.48720683     12.84785722
   94

C      -5.87189450     -0.81656633     -1.58158027
C      -4.27776134     -1.13244289     -0.97642881
H      -5.86313170     -0.06170324     -2.57372237
C      -7.19520866     -0.40509694     -0.53633253
H      -6.17390547     -1.68998221     -2.41523014
H      -3.94155304      0.01697686     -0.67371061
C      -2.65365310     -1.58572859     -1.16624895
H      -4.52862046     -2.13195840     -0.29081484
H      -6.05389667     -3.80495100    -11.28219496
H      -6.04616221     -4.57424752    -11.15364388
C      -1.39858315     -1.39433753     -2.27209351
H      -1.96589597     -0.92920648     -3.27274035
C       0.16154515     -0.67003120     -2.02338773
H      -1.37230821     -2.53963369     -2.75744677
H       0.22658113      0.33514596     -2.75871656
H       0.91124306     -1.29941348     -2.80196579
C       1.03345539     -0.29159912     -0.55519360
H       2.21356376     -0.01779056     -0.87127896
C       0.54315112      0.73903502      0.78228854
H       1.55356657     -1.34446945     -0.14086327
H      -0.02240019      1.71854243      0.27411114
H       1.46323830      1.55918394      0.98317270
C      -0.18885893      0.37548874      2.34736826
H       0.74940528      0.27755395      3.15877714
C       3.21720291      3.53658874    -10.57540557
H      -0.20135698     -0.85402624      2.49192582
H       2.57062629      4.34460367    -11.03418475
H       0.31482054      7.93119394     10.80052532
C      11.52357548     -4.33441834     -8.82238251
H      -7.09247998      0.72001364     -0.01894448
H      -7.22181372     -0.94557941      0.58132845
C      -8.80967390     -0.49059732     -0.95800528
H      -9.59210117      0.36388811     -1.31179481
C      -1.64310017      0.04778510      7.77550094
H      -9.59309172     -1.41335531     -0.91782998
H      -1.59440925      1.25611231      7.87098135
H      -2.27177210     -0.33673964      8.73708388
C      -2.65434654      0.88876611      3.11550013
H      -2.90485310      1.60393167      2.13126886
C      -4.09702670      1.29830144      4.02403019
H      -2.96152780     -0.28497081      2.87493203
H      -4.16531489      2.36095969      4.66238069
H      -4.60088968      0.54032922      4.86930706
H      -5.23241542      1.52596308      3.55393669
H      11.09863115     -3.25239561     -8.52819699
H      12.05029094     -4.50231294     -9.88646468
H      11.43465063     -5.24481997     -8.04702698
H       7.07061821     -3.33232165     13.47111253
H       3.87164768     -3.32512711     14.96138088
H       7.20855035     -3.93124632     10.59446446
H      10.06108677     -3.67469438     11.32608253
H       3.29558814     -3.64445717     13.37156062
H       7.02489384      7.11533003      0.79966419
H      -1.38625115      8.57671543     13.96843397
H       8.72345444      6.76479376      3.95313961
H      14.74516066     -2.64381507      2.04895609
H      -1.02810978      7.14068822     11.42603107
H      17.49816729     -1.59272150      2.67822231
H      17.04579933     -2.08671428     -0.29049165
H      11.54201344     -2.06311804      4.34788816
H      19.96785341     -1.83500330      0.57308809
H       7.37101431      5.64080807      3.34855810
C       6.72761794     -2.51327482     12.60503020
C       7.55941335     -2.87589402     11.14868840
C       5.06584355     -2.29751383     12.72156815
C       3.95100975     -2.73512083     13.88637354
C       9.22815284     -2.80727105     11.18585514
C       7.62768563      7.47867548      1.78341414
C       7.67342113      6.83574533      3.31196773
C      -0.67193982      8.32398906     11.43551043
C      -1.08773434      9.10776582     12.90048680
C      15.18900335     -1.67522411      2.66973458
C      16.64560861     -1.08379133      1.93140037
C      17.46011540     -1.12630691      0.38608489
C      19.16893584     -1.01424187      0.09379942
C      13.67074600     -1.27328493      3.12631929
C      12.24398446     -1.24267718      3.84106035
H      19.66473728     -1.09471153     -1.04263791
H      -2.22766233     -2.28155348     -0.25196052
H       7.15034150     -1.51791462     13.21419899
H       3.60148352     -1.72588540     14.50854917
H       7.23279429     -2.25206999     10.12713453
H       9.98656340     -1.86394500     11.13657179
H       4.52587404     -1.67787586     11.81134247
H       8.17241117      8.45783947      1.33011531
H      -0.41219929      9.93118103     13.51852209
H       6.97675861      7.48258008      4.09878327
H      15.37810490     -1.86297927      3.87470582
H      -0.92520598      9.00971431     10.43937392
H      16.58361128      0.12673926      2.21613466
H      16.90311404     -0.33082821     -0.39669319
H      11.43550775     -0.44089303      4.18248542
H      19.80177081      0.00705589      0.40886256
H      -2.09063607      9.80460544     13.03805849
   94

C      -5.90923523     -0.83670725     -1.69946211
C      -4.31123867     -1.15901753     -1.10776504
H      -5.90291977     -0.08133155     -2.69132202
C      -7.22003478     -0.41875112     -0.64061684
H      -6.21605030     -1.70989003     -2.53181809
H      -3.97087150     -0.01058688     -0.80602892
C      -2.69114357     -1.61975381     -1.31355262
H      -4.56039275     -2.15433747     -0.41560853
H      -6.06723396     -3.82179104    -11.33057693
H      -6.05947261     -4.59108178    -11.20199283
C      -1.43800608     -1.42352820     -2.42083959
H      -2.00764795     -0.95892610     -3.42039984
C       0.12079338     -0.69759087     -2.16905687
H      -1.41048251     -2.56693999     -2.91067007
H       0.18714897      0.30889258     -2.90265404
H       0.87242547     -1.32153728     -2.95043081
C       0.98887862     -0.32395338     -0.69754085
H       2.17134271     -0.05451216     -1.00911102
C       0.49199476      0.70730913      0.63691201
H       1.51101471     -1.37579525     -0.28312025
H      -0.05503600      1.69540405      0.12505814
H       1.41591523      1.52033383      0.84605723
C      -0.25748263      0.33954477      2.19017711
H       0.64871363      0.29247382      3.04003891
C       3.21795140      3.53738049    -10.57744525
H      -0.22617336     -0.88580741      2.35969815
H       2.57109421      4.34537377    -11.03586561
H       0.33592830      8.24484349     11.03225626
C      11.52466146     -4.33442184     -8.82242107
H      -7.11204267      0.70367437     -0.11809813
H      -7.24377081     -0.95928607      0.47729730
C      -8.83482219     -0.50544072     -1.06136239
H      -9.61357693      0.34566322     -1.43085029
C      -2.58424212     -0.15698450      8.53702568
H      -9.61542048     -1.43123899     -1.03751092
H      -2.46368762      1.03205384      8.67248979
H      -2.77331546     -0.73594008      9.56754044
C      -2.56791333      0.83091883      2.90244353
H      -2.85573976      1.58518303      1.95951642
C      -3.95002086      1.25318541      3.88194551
H      -2.91371958     -0.33837995      2.69739387
H      -3.97458318      2.29967622      4.54392272
H      -4.38924769      0.47979600      4.74445492
H      -5.11547096      1.47562936      3.49018293
H      11.09897033     -3.25259222     -8.52860316
H      12.05050016     -4.50258031     -9.88689612
H      11.43490340     -5.24503945     -8.04741587
H       7.20348258     -3.38544251     13.54955809
H       4.02824727     -3.38528940     15.03113037
H       7.34348785     -3.98915647     10.67596105
H      10.19712350     -3.73707512     11.40941363
H       3.41578904     -3.69497415     13.44598244
H       7.08993827      7.17878347      0.77442260
H      -1.36752599      8.86754124     14.16880217
H       8.78985753      6.83014214      3.92098460
H      14.75214712     -2.65189305      2.04652532
H      -1.03407539      7.44608191     11.62009819
H      17.50541494     -1.58237452      2.68782290
H      17.04361875     -2.09294067     -0.28676784
H      11.56241673     -2.08320176      4.33627407
H      19.96452871     -1.84134172      0.57367989
H       7.42931201      5.70352139      3.32888539
C       6.85991479     -2.56836415     12.68176242
C       7.69605151     -2.93340715     11.22820875
C       5.19744631     -2.35001177     12.79018464
C       4.08396879     -2.79209979     13.95582714
C       9.36514695     -2.86891558     11.26710969
C       7.69176716      7.54140272      1.75898087
C       7.73498160      6.89747335      3.28719639
C      -0.67058400      8.62757991     11.64147722
C      -1.08137878      9.41606881     13.10471354
C      15.19499723     -1.68502287      2.67060078
C      16.64973018     -1.08555429      1.93653959
C      17.45819871     -1.13181583      0.38857043
C      19.16648263     -1.01920873      0.09528001
C      13.67809480     -1.27839597      3.12545803
C      12.25052109     -1.24506823      3.83724309
H      19.66268563     -1.09844346     -1.04094590
H      -2.26220764     -2.32626642     -0.40876901
H       7.28379669     -1.57291971     13.29012689
H       3.72285358     -1.78412391     14.57307348
H       7.37054804     -2.31081791     10.20553620
H      10.12592818     -1.92746993     11.21648558
H       4.65698687     -1.73204272     11.87899247
H       8.23885583      8.51966661      1.30644860
H      -0.38101210     10.23506158     13.70305613
H       7.03422462      7.53885822      4.07488918
H      15.38327676     -1.88791026      3.87323052
H      -0.92619138      9.30653726     10.64053715
H      16.58832919      0.12444673      2.22388242
H      16.89680747     -0.34090024     -0.39571530
H      11.45983547     -0.41877901      4.16428493
H      19.79796524      0.00287639      0.41038380
H      -2.08676515     10.11533266     13.22672304
   94

C      -5.94641409     -0.85450062     -1.81027373
C      -4.34796698     -1.18058593     -1.22355601
H      -5.93951493     -0.09791566     -2.80119252
C      -7.24773251     -0.43171330     -0.74131241
H      -6.25462897     -1.72714134     -2.64298015
H      -4.00528918     -0.03449600     -0.91588469
C      -2.73292970     -1.64819876     -1.44787418
H      -4.59606825     -2.17431496     -0.52882403
H      -6.08032778     -3.83836247    -11.37819075
H      -6.07254873     -4.60765484    -11.24961833
C      -1.48328433     -1.44920673     -2.55841819
H      -2.05513198     -0.98555170     -3.55705067
C       0.07316438     -0.71993141     -2.30424454
H      -1.45357854     -2.59074660     -3.05245007
H       0.14039419      0.28793375     -3.03590073
H       0.82827987     -1.33777081     -3.08732440
C       0.93244980     -0.34871035     -0.82733574
H       2.11691199     -0.08021502     -1.13254635
C       0.41886349      0.68037296      0.50262915
H       1.45920810     -1.39880648     -0.41388191
H      -0.11666356      1.67510169     -0.00779487
H       1.34330073      1.49045463      0.71896382
C      -0.34872387      0.30622889      2.04545728
H       0.53926582      0.30083889      2.91492197
C       3.21819702      3.53781532    -10.57828485
H      -0.27175081     -0.91450562      2.23111766
H       2.57119761      4.34579460    -11.03652798
H       0.35290879      8.55869753     11.26856870
C      11.52540874     -4.33429266     -8.82225104
H      -7.13504476      0.68698388     -0.21138940
H      -7.27115477     -0.97433444      0.37585412
C      -8.86114658     -0.52123788     -1.16716340
H      -9.63593119      0.32652675     -1.55229156
C      -3.36644133     -0.36465247      9.13921872
H      -9.63888027     -1.44993673     -1.16015731
H      -3.16916332      0.81392928      9.15777057
H      -3.17527450     -0.99820205     10.12822770
C      -2.51634633      0.75811620      2.72923221
H      -2.84258764      1.55774110      1.84038859
C      -3.82106229      1.17497495      3.80543556
H      -2.89451885     -0.40498649      2.55138134
H      -3.84396081      2.22028026      4.46782058
H      -4.13532701      0.40832599      4.72539179
H      -5.02319085      1.32333670      3.50550418
H      11.09890935     -3.25268366     -8.52878759
H      12.05041517     -4.50270414     -9.88709879
H      11.43481581     -5.24513298     -8.04760409
H       7.33578933     -3.44197085     13.63336704
H       4.17486232     -3.44513134     15.10102631
H       7.48136877     -4.04990167     10.76288084
H      10.33582808     -3.80077965     11.49521434
H       3.52715660     -3.74301240     13.51997778
H       7.15473407      7.24231846      0.74871845
H      -1.35192105      9.15605994     14.37086197
H       8.85743964      6.89631262      3.88789716
H      14.75928132     -2.66000037      2.04406388
H      -1.04353932      7.75007853     11.81659786
H      17.51258884     -1.57207311      2.69724631
H      17.04145488     -2.09915840     -0.28312121
H      11.58379826     -2.10358291      4.32488781
H      19.96120834     -1.84768856      0.57428671
H       7.48897436      5.76689828      3.30857670
C       6.99296219     -2.62663212     12.76369734
C       7.83499459     -2.99374258     11.31358441
C       5.32967796     -2.40680459     12.86567950
C       4.21019105     -2.84913912     14.02611058
C       9.50442243     -2.93192579     11.35317765
C       7.75603807      7.60439905      1.73374087
C       7.79764398      6.95989525      3.26175451
C      -0.67379173      8.92993415     11.85003224
C      -1.07797113      9.72326885     13.31177473
C      15.20117412     -1.69487467      2.67142708
C      16.65392429     -1.08730556      1.94160256
C      17.45629938     -1.13733144      0.39099786
C      19.16405058     -1.02418172      0.09675962
C      13.68570396     -1.28366840      3.12480572
C      12.25737706     -1.24766364      3.83398360
H      19.66066337     -1.10219017     -1.03924775
H      -2.30214249     -2.36743600     -0.55393167
H       7.41791060     -1.63133648     13.37170130
H       3.83535397     -1.84234874     14.63677850
H       7.51167845     -2.37251773     10.28934757
H      10.26729456     -1.99227264     11.29920871
H       4.79129120     -1.78812316     11.95368990
H       8.30524740      8.58175873      1.28171411
H      -0.35306554     10.53715686     13.89001117
H       7.09304232      7.59597576      4.05036769
H      15.38878661     -1.91277350      3.87151887
H      -0.92993122      9.60297213     10.84450386
H      16.59310774      0.12216323      2.23153982
H      16.89052728     -0.35097708     -0.39474689
H      11.48544219     -0.39704181      4.14601800
H      19.79417812     -0.00131166      0.41190857
H      -2.08595138     10.42448476     13.41785481
   94

C      -5.98345828     -0.87552265     -1.92816280
C      -4.38684741     -1.20196482     -1.33897151
H      -5.97417934     -0.11821726     -2.91842956
C      -7.28141961     -0.45015840     -0.85590586
H      -6.29071659     -1.74831826     -2.76129146
H      -4.04357599     -0.05861780     -1.02217252
C      -2.77629319     -1.67508451     -1.57770865
H      -4.63466550     -2.19471091     -0.64278651
H      -6.09327071     -3.85504095    -11.42608647
H      -6.08548032     -4.62433060    -11.29749925
C      -1.52950556     -1.47389723     -2.69063764
H      -2.10167214     -1.01172772     -3.68966279
C       0.02325862     -0.73982454     -2.43101692
H      -1.49601318     -2.61357297     -3.18863335
H       0.09196934      0.26964397     -3.16031198
H       0.78387073     -1.35070547     -3.21449041
C       0.86760123     -0.37023709     -0.94528539
H       2.05429654     -0.10130065     -1.24204429
C       0.33036621      0.65272354      0.38126420
H       1.39954436     -1.41821780     -0.53252117
H      -0.19433095      1.65393995     -0.12688951
H       1.25470185      1.46056838      0.60542734
C      -0.46236561      0.27568259      1.91295648
H       0.40965666      0.31061398      2.79762296
C       3.21825207      3.53805159    -10.57844548
H      -0.33736265     -0.93867559      2.11305566
H       2.57120611      4.34601787    -11.03664546
H       0.36934210      8.87911505     11.50762004
C      11.52592560     -4.33406782     -8.82189782
H      -7.16640003      0.66626080     -0.32136838
H      -7.30631196     -0.99355767      0.26102628
C      -8.89297398     -0.54256046     -1.28844068
H      -9.66527092      0.30283696     -1.68367719
C      -3.83212940     -0.60803434      9.66031434
H      -9.66883560     -1.47302292     -1.29169233
H      -3.71098369      0.56319877      9.50480172
H      -3.61762093     -1.17790826     10.67702291
C      -2.49495983      0.68206256      2.59010595
H      -2.84209286      1.52159907      1.74978723
C      -3.74068582      1.08526139      3.74127294
H      -2.89777161     -0.47478258      2.43327297
H      -3.77475223      2.13823934      4.39274861
H      -3.97650199      0.34666325      4.70824156
H      -4.96013038      1.18255807      3.49744729
H      11.09857874     -3.25269820     -8.52877582
H      12.05012949     -4.50272838     -9.88710441
H      11.43449270     -5.24513320     -8.04761232
H       7.47310735     -3.50138874     13.72043916
H       4.32372060     -3.50813747     15.17660400
H       7.62236579     -4.11231416     10.85206477
H      10.47777588     -3.86527299     11.58132477
H       3.64227230     -3.79447438     13.60010307
H       7.21895539      7.30553989      0.72304510
H      -1.33748218      9.44745040     14.57534109
H       8.92482218      6.96235104      3.85462197
H      14.76618956     -2.66799353      2.04165945
H      -1.05170887      8.06019365     12.01691081
H      17.51936004     -1.56183216      2.70657580
H      17.03911850     -2.10535693     -0.27943642
H      11.60549766     -2.12407229      4.31358212
H      19.95770354     -1.85403723      0.57501422
H       7.54847639      5.83016034      3.28823856
C       7.13085888     -2.68754307     12.84928603
C       7.97704231     -3.05584332     11.40142183
C       5.46683873     -2.46804678     12.94831732
C       4.33998017     -2.90964108     14.10238450
C       9.64676171     -2.99582822     11.44022141
C       7.81991005      7.66714879      1.70839654
C       7.86012750      7.02217485      3.23624326
C      -0.67635747      9.23845734     12.06138823
C      -1.07542532     10.03445455     13.52239106
C      15.20712357     -1.70460243      2.67228037
C      16.65788206     -1.08902919      1.94666251
C      17.45422335     -1.14284062      0.39348340
C      19.16145117     -1.02915625      0.09833922
C      13.69310731     -1.28905764      3.12450140
C      12.26398399     -1.25026509      3.83132583
H      19.65849694     -1.10594873     -1.03743830
H      -2.34546712     -2.40569179     -0.69298189
H       7.55675539     -1.69236888     13.45695637
H       3.95160771     -1.90410899     14.70646419
H       7.65560667     -2.43580863     10.37581949
H      10.41135596     -2.05774335     11.38236652
H       4.93181743     -1.84720392     12.03588731
H       8.37122010      8.64356244      1.25677955
H      -0.32669057     10.84272831     14.08034772
H       7.15182193      7.65305212      4.02576728
H      15.39423749     -1.93741454      3.86963656
H      -0.93393820      9.90471062     11.05102830
H      16.59769005      0.11990921      2.23917841
H      16.88409956     -0.36104898     -0.39369196
H      11.51164248     -0.37558207      4.12756036
H      19.79022715     -0.00550651      0.41353739
H      -2.08651867     10.73658835     13.61175123
   94

C      -6.02152533     -0.90063313     -2.05582721
C      -4.42664189     -1.22625105     -1.46323587
H      -6.01008932     -0.14324196     -3.04593566
C      -7.31891533     -0.47367249     -0.98335556
H      -6.32757940     -1.77425174     -2.88865882
H      -4.08335251     -0.08495372     -1.13923989
C      -2.81955068     -1.70394943     -1.71196724
H      -4.67426033     -2.21704103     -0.76425238
H      -6.10625362     -3.87197654    -11.47468513
H      -6.09844929     -4.64125454    -11.34602917
C      -1.57392641     -1.49969753     -2.82523985
H      -2.14501346     -1.03929508     -3.82563140
C      -0.02543011     -0.76045098     -2.55757184
H      -1.53569700     -2.63751812     -3.32707217
H       0.04543829      0.25066444     -3.28439989
H       0.74154503     -1.36410430     -3.34076239
C       0.80175298     -0.39270542     -1.06169008
H       1.99101383     -0.12396471     -1.34919243
C       0.23995088      0.62307737      0.26216029
H       1.33803055     -1.43860754     -0.64875536
H      -0.27044792      1.63166589     -0.24535325
H       1.16538356      1.42690508      0.49563505
C      -0.58412069      0.24687204      1.78134107
H       0.26924126      0.32182836      2.68155277
C       3.21839046      3.53830565    -10.57863983
H      -0.41172839     -0.95889035      1.99754351
H       2.57131102      4.34625702    -11.03681903
H       0.38582181      9.20407487     11.74770988
C      11.52640969     -4.33382721     -8.82149183
H      -7.20303205      0.64196057     -0.44714257
H      -7.34535090     -1.01622038      0.13405766
C      -8.92906738     -0.56805026     -1.42086503
H      -9.70009599      0.27577404     -1.82193876
C      -4.21809905     -0.83707722     10.28171576
H      -9.70391911     -1.49941951     -1.42904724
H      -4.14261998      0.28362299      9.92514262
H      -4.03355853     -1.39222692     11.30392669
C      -2.48489609      0.61527472      2.44952240
H      -2.83737075      1.48910478      1.64920265
C      -3.69616013      1.00553703      3.64810733
H      -2.90808619     -0.53553496      2.31034806
H      -3.73756531      2.06405751      4.29268116
H      -3.90929518      0.29350019      4.64242838
H      -4.92205713      1.08866413      3.42973623
H      11.09821114     -3.25269966     -8.52870876
H      12.04981650     -4.50273775     -9.88705414
H      11.43413211     -5.24511601     -8.04756701
H       7.61350243     -3.56213092     13.80875552
H       4.47535811     -3.57312119     15.25572084
H       7.76474266     -4.17534673     10.94186864
H      10.62122105     -3.93004764     11.66725019
H       3.76140951     -3.84868488     13.68437180
H       7.28302358      7.36864198      0.69747295
H      -1.32309137      9.74150276     14.78118110
H       8.99195702      7.02823822      3.82141530
H      14.77283621     -2.67586079      2.03939746
H      -1.05796300      8.37492569     12.21966918
H      17.52569676     -1.55167925      2.71586302
H      17.03660929     -2.11154710     -0.27565469
H      11.62740355     -2.14461453      4.30242454
H      19.95401097     -1.86039279      0.57590428
H       7.60783115      5.89331690      3.26798669
C       7.27152938     -2.74965009     12.93639347
C       8.12055012     -3.11862856     11.48994106
C       5.60684810     -2.53140366     13.03436637
C       4.47304461     -2.97235223     14.18239849
C       9.79053517     -3.06007126     11.52720167
C       7.88363528      7.72979157      1.68314404
C       7.92244404      7.08432539      3.21081916
C      -0.67735181      9.55159719     12.27441787
C      -1.07270317     10.34887936     13.73521785
C      15.21279293     -1.71417789      2.67323455
C      16.66157102     -1.09074004      1.95177191
C      17.45196718     -1.14835350      0.39608714
C      19.15867997     -1.03413852      0.10006102
C      13.70023142     -1.29457644      3.12463724
C      12.27024998     -1.25284736      3.82937422
H      19.65618428     -1.10972413     -1.03547515
H      -2.38954689     -2.44390839     -0.83461825
H       7.69831219     -1.75454959     13.54368856
H       4.07182512     -1.96817556     14.78021712
H       7.80063209     -2.49965580     10.46316872
H      10.55665365     -2.12343546     11.46533766
H       5.07551963     -1.90784748     12.12176786
H       8.43706147      8.70524223      1.23192950
H      -0.30069899     11.15114543     14.27247543
H       7.21047744      7.71002179      4.00122468
H      15.39957986     -1.96179843      3.86766188
H      -0.93737450     10.21025029     11.25902847
H      16.60206128      0.11767030      2.24685384
H      16.87752859     -0.37112593     -0.39249672
H      11.53833829     -0.35443376      4.10899583
H      19.78610708     -0.00971373      0.41531233
H      -2.08726584     11.05114742     13.80707408
   94

C      -6.06429204     -0.93021026     -2.20072026
C      -4.47027535     -1.25519841     -1.60692306
H      -6.05076697     -0.17295448     -3.19082716
C      -7.36229200     -0.50188456     -1.12957950
H      -6.36899940     -1.80611911     -3.03156249
H      -4.12674500     -0.11509185     -1.27899964
C      -2.86793095     -1.74069689     -1.86837111
H      -4.71674342     -2.23942741     -0.89851973
H      -6.11714691     -3.88520723    -11.51204565
H      -6.10943573     -4.65460122    -11.38408698
C      -1.62215670     -1.53085571     -2.97983919
H      -2.19090781     -1.07528638     -3.98370673
C      -0.08113246     -0.78280269     -2.69835126
H      -1.57573999     -2.66612920     -3.48669989
H      -0.00524772      0.23016271     -3.42225074
H       0.69673577     -1.37453380     -3.48051305
C       0.71591116     -0.41850507     -1.18527214
H       1.90987874     -0.15185672     -1.45666011
C       0.11036683      0.58632042      0.13144975
H       1.25989079     -1.45970880     -0.76999033
H      -0.36218560      1.61147725     -0.37890082
H       1.04086727      1.37695412      0.38718587
C      -0.78257940      0.21588906      1.62168956
H       0.02274117      0.36870079      2.55497534
C       3.21431922      3.53425931    -10.57049663
H      -0.52214224     -0.96658793      1.87661617
H       2.56831241      4.34238680    -11.02987537
H       0.40871873      9.57322849     12.03413867
C      11.52596592     -4.33336412     -8.82089930
H      -7.24667983      0.61405489     -0.59376274
H      -7.39021984     -1.04163525     -0.01079608
C      -8.97137742     -0.59826823     -1.57035159
H      -9.74279965      0.24458098     -1.97261668
C      -4.59563443     -1.02388115     11.20173797
H      -9.74583534     -1.52994831     -1.57826894
H      -4.59429912     -0.03339553     10.59373208
H      -4.47635175     -1.75177332     12.09989297
C      -2.42314409      0.53655420      2.23209484
H      -2.75790835      1.46983721      1.49599837
C      -3.62353444      0.93513512      3.45275474
H      -2.88478534     -0.60257747      2.13638903
H      -3.67671068      1.99666338      4.09373990
H      -3.85097009      0.25206983      4.46626890
H      -4.85378623      1.02173751      3.25138641
H      11.09666256     -3.25257562     -8.52846129
H      12.04865113     -4.50248626     -9.88678928
H      11.43288370     -5.24491278     -8.04737216
H       7.76481643     -3.63025930     13.90954740
H       4.64823458     -3.64890629     15.34400763
H       7.91861323     -4.24604736     11.04441416
H      10.77654782     -4.00216162     11.76334162
H       3.87383768     -3.90573209     13.78420682
H       7.36194978      7.44532172      0.66829901
H      -1.30638532     10.03892604     15.00075293
H       9.07864418      7.11222572      3.77739469
H      14.78373935     -2.68509765      2.03555967
H      -1.07497657      8.72228184     12.43523763
H      17.53433114     -1.52978934      2.73169665
H      17.03020451     -2.11857340     -0.27021176
H      11.67374080     -2.18727312      4.28166868
H      19.94529236     -1.86959618      0.57893533
H       7.68071752      5.97114144      3.24982338
C       7.42357089     -2.81977222     13.03547523
C       8.27613954     -3.18903128     11.59056398
C       5.75782823     -2.60592755     13.13528522
C       4.61131264     -3.04488795     14.27259302
C       9.94647978     -3.13140546     11.62438346
C       7.96269244      7.80536124      1.65417410
C       7.99994087      7.16037218      3.18203307
C      -0.68523881      9.89590941     12.50953743
C      -1.07768873     10.68973202     13.97233894
C      15.22052902     -1.72493879      2.67382515
C      16.66650551     -1.08945759      1.95977707
C      17.44655357     -1.15479899      0.39991478
C      19.15262865     -1.04030505      0.10389861
C      13.71031905     -1.29877875      3.12309771
C      12.28018582     -1.25738263      3.82849622
H      19.65223942     -1.11370523     -1.03060975
H      -2.43985009     -2.49629398     -1.00348626
H       7.85176805     -1.82495344     13.64248465
H       4.18693029     -2.04290413     14.85796685
H       7.95965598     -2.57173435     10.56165679
H      10.71482341     -2.19683300     11.55801371
H       5.23476029     -1.97666778     12.22228967
H       8.51711194      8.78078598      1.20397634
H      -0.26098891     11.47817631     14.46820354
H       7.28033758      7.77557244      3.97385761
H      15.40704475     -1.99830277      3.86276255
H      -0.95319299     10.53915603     11.48500342
H      16.61091573      0.11782696      2.26077176
H      16.86492136     -0.38570827     -0.39141806
H      11.59026693     -0.31453940      4.07523280
H      19.77753261     -0.01461249      0.41989429
H      -2.10023086     11.38979190     14.00631205
