   94

C      -3.36512565     -0.03688148      0.53856688
C      -1.66194786     -0.06235365      0.46831023
H      -3.83723644      0.75957966     -0.30674380
C      -4.05055182      0.21707183      2.08105776
H      -3.85435888     -1.04940919     -0.01597520
H      -1.15271689      0.93377163      1.03597186
C      -1.03766460     -0.31201349     -1.10067535
H      -1.16643207     -0.84617313      1.31334024
H      -1.52672192      0.48253025     -1.93801851
H      -1.53123609     -1.32525606     -1.64974775
C       0.65940591     -0.33026653     -1.20760275
H       1.13697268      0.68244025     -0.64152083
C       1.31700144     -0.57627381     -2.76966105
H       1.13516563     -1.12110416     -0.35770584
H       0.84135738      0.17689351     -3.64964229
H       0.84185785     -1.56491716     -3.37354327
C       3.02032963     -0.57630804     -2.78224950
H       3.41847026      0.48254680     -2.24395622
C       3.91984345     -0.80194377     -4.20849483
H       3.41992367     -1.41565046     -1.94250253
H       3.65872466     -0.10417790     -5.20521523
H       3.65842829     -1.77309205     -4.94131985
C       5.50837515     -0.72628242     -3.72839313
H       6.19103717      0.26579091     -3.58101953
C       7.89573802     -1.20903326     -6.72562771
H       6.19003969     -1.62440897     -3.28041273
H       7.21400849     -0.34064107     -7.22386791
H       7.21110318     -2.18689994     -6.93093501
C       9.37103314     -1.09210727     -5.97431909
H      -3.53333397      1.21077591      2.64322983
H      -3.56225352     -0.57425612      2.92165859
C      -5.76213127      0.25918599      2.15177952
H      -6.22419773      1.04827934      1.29629003
C      -6.50187406      0.51636118      3.67686432
H      -6.25592975     -0.74032534      1.58145283
H      -5.98466702      1.51596416      4.22292663
H      -6.02176174     -0.28708078      4.50687434
C      -8.21392609      0.57791928      3.83148243
H      -8.75571915      1.34611099      3.00702382
C      -8.85135606      0.83891108      5.39857128
H      -8.79278683     -0.38314372      3.27957391
H      -8.57643682      1.89458874      5.99083428
H      -8.61551692      0.00701726      6.28913911
H     -10.07425023      0.88908238      5.55569657
H       9.64470864     -0.05029109     -5.37124784
H      10.26758213     -1.22350026     -6.80611364
H       9.64271948     -1.89917649     -5.08056521
H       7.45362397      0.27980104      8.67384188
H       5.05074587      0.54534586     10.23429568
H       7.09291718     -0.19007986      5.71532214
H       9.77795862      0.03135116      7.07489745
H       4.78767162      0.06617049      7.27784721
H       9.38398011     -0.44140984      4.12104780
H       2.46697874      1.06521640     11.65544233
H      12.08410338     -0.22443887      5.41498568
H      11.71162687     -0.69343354      2.45819882
H       2.35435798      0.36522250      8.84912099
H      14.41319048     -0.50601423      3.68904370
H      14.19547077     -0.93933936      0.69314977
H      -0.25761584      1.15295003     13.94198014
H      16.98352890     -0.83510597      1.90102740
H      -0.89895237      0.56578689     10.73959650
C       6.97168635      1.07158810      7.82761160
C       7.58743722      0.82447036      6.26559047
C       5.27464731      1.08323564      7.82832479
C       4.60834161      1.33730271      9.36569885
C       9.28461505      0.81826098      6.23080716
C       9.89121424      0.57106333      4.66147150
C      11.59097911      0.55838896      4.56854391
C       2.90840759      1.40458642      9.28920691
C       2.32410893      1.93894213     10.77438483
C      12.22782380      0.31055870      3.00102461
C      13.93249045      0.28622116      2.84818336
C      14.66014237      0.04370132      1.31066936
C      16.36996088      0.03340943      1.26067637
C      -0.81146708      1.24689741     11.70213476
C      -0.75844381      1.95096198     13.15256508
H      16.93916532     -0.13686185      0.17971772
H      -1.95413292      2.15205687     13.19959762
H       7.46822141      2.07662843      8.39240071
H       5.12833916      2.31924807      9.94887931
H       7.09767638      1.62020005      5.42672981
H       9.77948233      1.82580984      6.79217337
H       4.81339061      1.88483433      6.98042110
H       9.38328787      1.36640834      3.83449570
H       2.67645436      2.83611409     11.54668120
H      12.08257542      1.56562939      5.13097410
H      11.71143221      1.09823802      2.17516728
H       2.41024062      2.12629935      8.39320731
H      14.41389516      1.29851729      3.40431310
H      14.19747164      0.79140955      0.42156805
H      -0.27529615      3.03138267     13.51030535
H      16.98628774      1.05450933      1.60465006
H       1.32254653      2.56985140     10.42797972
   94

C      -3.50069939     -0.10688346      0.30750604
C      -1.80260185     -0.12887457      0.30053564
H      -3.95526399      0.70766282     -0.52867016
C      -4.16208288      0.14691141      1.85014325
H      -3.97938195     -1.12837225     -0.23629553
H      -1.31337760      0.87965733      0.86446194
C      -1.20730063     -0.37998031     -1.27619657
H      -1.32290614     -0.91906901      1.15006689
H      -1.67988787      0.41254102     -2.12398809
H      -1.68043989     -1.39571584     -1.83632022
C       0.48240162     -0.38274330     -1.30746123
H       0.88233656      0.67815305     -0.77223890
C       1.23100656     -0.59876188     -2.81973139
H       0.90258946     -1.21410387     -0.46659581
H       0.78784966      0.13280674     -3.73443279
H       0.80744229     -1.58734958     -3.46130781
C       2.91632927     -0.53828255     -2.63502281
H       3.24446244      0.52947712     -2.06936218
C       3.95460573     -0.72318170     -3.96965431
H       3.26654751     -1.37490923     -1.77219228
H       3.73464409      0.01721340     -4.93983230
H       3.76353611     -1.73052301     -4.66600201
C       5.50372346     -0.61956612     -3.36006477
H       6.08238479      0.42016115     -3.12431934
C       8.05565231     -1.22832949     -6.85187475
H       6.08632073     -1.52948864     -2.80872286
H       7.37981503     -0.36259752     -7.36398281
H       7.37400082     -2.20697427     -7.06659470
C       9.51836927     -1.10779419     -6.07118263
H      -3.65052104      1.16283555      2.37322511
H      -3.68530978     -0.67270477      2.66915787
C      -5.85407264      0.18914894      1.83153859
H      -6.34875302      0.99549864      1.01882699
C      -6.31410715      0.57834750      3.87231622
H      -6.38789682     -0.81327452      1.31678649
H      -5.79297830      1.61248662      4.33071045
H      -5.82555392     -0.24876709      4.66519234
C      -8.01433076      0.63330409      4.00053563
H      -8.56768051      1.45561317      3.24459127
C      -8.63973880      0.89598261      5.56953544
H      -8.61334281     -0.36014271      3.54410365
H      -8.38793507      1.95375778      6.16447490
H      -8.43055520      0.06012240      6.46119751
H      -9.85859789      0.95259927      5.74668776
H       9.80080663     -0.06366822     -5.47529972
H      10.42024674     -1.24080096     -6.89806222
H       9.79494336     -1.91801946     -5.18119642
H       7.44577951      0.27780167      8.67508411
H       5.02243647      0.53367420     10.23587015
H       7.10329101     -0.19076849      5.71968346
H       9.78899686      0.03159126      7.07399774
H       4.77637430      0.06401311      7.28452654
H       9.41259763     -0.44116408      4.12403546
H       2.43719580      1.10945857     11.68270898
H      12.11250492     -0.22549002      5.40827974
H      11.75473252     -0.69395909      2.45498926
H       2.32124255      0.37614115      8.88745320
H      14.45552173     -0.50843850      3.67537281
H      14.24550330     -0.94166196      0.68178377
H      -0.30647658      1.14582554     13.98064468
H      17.03404022     -0.83829571      1.87965092
H      -0.96724147      0.54990132     10.77876460
C       6.96373686      1.06842804      7.82824612
C       7.59631462      0.82352665      6.27073341
C       5.26428636      1.07990514      7.83557295
C       4.58713679      1.33269046      9.37048379
C       9.29553519      0.81733663      6.22949609
C       9.91860026      0.57122422      4.66466193
C      11.61964792      0.55729177      4.56229346
C       2.88575151      1.41516201      9.31291804
C       2.31361756      1.97828900     10.79509293
C      12.26944755      0.31001244      2.99837421
C      13.97460116      0.28412235      2.83542544
C      14.70836763      0.04185148      1.29963178
C      16.41851820      0.03029324      1.24149115
C      -0.88034594      1.22405536     11.74548835
C      -0.81729681      1.93690964     13.19083885
H      16.98736093     -0.14006319      0.15996762
H      -2.01002231      2.15147343     13.26371349
H       7.45982144      2.07263583      8.39426220
H       5.11553927      2.30937695      9.95339014
H       7.10735790      1.61931412      5.43210027
H       9.78960565      1.82438374      6.79159261
H       4.80259700      1.88021377      6.98728124
H       9.41164031      1.36669930      3.83793430
H       2.68264003      2.87234763     11.56344042
H      12.11072949      1.56448757      5.12428217
H      11.75458922      1.09767536      2.17212840
H       2.37812176      2.11289832      8.40416689
H      14.45622054      1.29643441      3.39061899
H      14.24757573      0.78998630      0.41010691
H      -0.32521892      3.01890708     13.52748200
H      17.03682030      1.05076435      1.58338756
H       1.32176599      2.63307551     10.46508197
   94

C      -3.70360041     -0.19666657      0.01248788
C      -2.00741444     -0.21762665      0.07602225
H      -4.13912207      0.63525278     -0.81482928
C      -4.38837937      0.05334699      1.54032160
H      -4.17288737     -1.22463445     -0.52245944
H      -1.53900390      0.79828129      0.64765727
C      -1.40973565     -0.46824392     -1.50276179
H      -1.54671388     -1.00851635      0.93807749
H      -1.85542620      0.31788093     -2.36991509
H      -1.85069006     -1.48572740     -2.08267039
C       0.27303657     -0.45518285     -1.46540471
H       0.56911771      0.66540104     -0.98803880
C       1.16843867     -0.63194578     -2.89143258
H       0.61921165     -1.34648300     -0.65176152
H       0.76699224      0.06852232     -3.84975355
H       0.81318302     -1.62055424     -3.57466490
C       2.80730197     -0.49258755     -2.46841306
H       3.05134597      0.57820118     -1.86630760
C       4.02876748     -0.61236948     -3.65040858
H       3.10201511     -1.32425230     -1.58032566
H       3.86238182      0.18062543     -4.58353765
H       3.93340272     -1.66265187     -4.29225563
C       5.52480514     -0.47224888     -2.90352152
H       5.98585513      0.61434842     -2.62778525
C       8.16549425     -1.24484305     -6.94414418
H       6.00699281     -1.40593499     -2.29918684
H       7.49207044     -0.38133061     -7.46387122
H       7.48241006     -2.22230163     -7.16149253
C       9.62364622     -1.12330290     -6.15157187
H      -3.89239109      1.10948658      1.98865378
H      -3.94011309     -0.81908903      2.31765368
C      -6.06264947      0.11084904      1.48975137
H      -6.58835308      0.93273701      0.72030275
C      -5.97954245      0.66034788      4.08976368
H      -6.64105250     -0.88391022      1.02171813
H      -5.46026021      1.72494914      4.45753525
H      -5.47548595     -0.18313905      4.84680140
C      -7.67109582      0.69939463      4.21622170
H      -8.20735675      1.59115484      3.53573090
C      -8.35124809      0.96537197      5.76458609
H      -8.24897672     -0.34946586      3.88078031
H      -8.15033883      2.02875800      6.36358205
H      -8.19127493      0.13094212      6.66515636
H      -9.57378062      1.01984867      5.92046220
H       9.91503555     -0.07723858     -5.56293421
H      10.52831453     -1.25863155     -6.97604761
H       9.90403457     -1.93601942     -5.26473982
H       7.43684093      0.27588360      8.67898434
H       4.99276147      0.52149828     10.23654888
H       7.11757079     -0.19114740      5.72802253
H       9.80310586      0.03271424      7.08143603
H       4.76469354      0.06180922      7.28984954
H       9.45074192     -0.44032528      4.13816631
H       2.40947254      1.15439445     11.70983825
H      12.14899866     -0.22559348      5.41098777
H      11.80762220     -0.69387493      2.46196027
H       2.28791043      0.38741823      8.92494955
H      14.50654326     -0.51057582      3.66642667
H      14.30064204     -0.94370974      0.67403245
H      -0.34953153      1.14046185     14.02521785
H      17.09013222     -0.84177745      1.85824874
H      -1.02775013      0.52911934     10.82792947
C       6.95530203      1.06540233      7.83121379
C       7.60858942      0.82292576      6.28016554
C       5.25333366      1.07632156      7.84204724
C       4.56504382      1.32772163      9.37434202
C       9.31008175      0.81732767      6.23634219
C       9.95474103      0.57244441      4.67852862
C      11.65684427      0.55720569      4.56544160
C       2.86256244      1.42591363      9.33593562
C       2.30456270      2.01763378     10.81548737
C      12.32034964      0.31039369      3.00559148
C      14.02531582      0.28243958      2.82765744
C      14.76207050      0.04020036      1.29207706
C      16.47234689      0.02708355      1.22293219
C      -0.94359577      1.20109456     11.79564626
C      -0.87102799      1.92391662     13.23499409
H      17.03948583     -0.14343359      0.14017017
H      -2.05998025      2.15202127     13.33451022
H       7.45044002      2.06887523      8.39876453
H       5.10172260      2.29897632      9.95733410
H       7.12107754      1.61890804      5.44157275
H       9.80286997      1.82395418      6.79929867
H       4.79146522      1.87517551      6.99306506
H       9.44975702      1.36901014      3.85257128
H       2.69056010      2.90834778     11.57972511
H      12.14700114      1.56441891      5.12699287
H      11.80775167      1.09875733      2.17933373
H       2.34515236      2.09943358      8.41533309
H      14.50719947      1.29482012      3.38165159
H      14.30285173      0.78882714      0.40232871
H      -0.37010137      3.00767349     13.54814328
H      17.09288897      1.04693848      1.56208966
H       1.32288346      2.69591413     10.50260358
   94

C      -3.99680886     -0.30469577     -0.35097137
C      -2.30137178     -0.32234559     -0.22149841
H      -4.42133820      0.52766419     -1.18242927
C      -4.72654555     -0.04428905      1.15613540
H      -4.45737599     -1.34055075     -0.87427120
H      -1.85434405      0.69848282      0.36161367
C      -1.68364599     -0.57995286     -1.80091850
H      -1.85782913     -1.10485747      0.65977433
H      -2.09533812      0.18837576     -2.69987145
H      -2.08111297     -1.59930107     -2.40538898
C      -0.00368454     -0.54634385     -1.70210237
H       0.15905092      0.64903443     -1.34943561
C       1.09094322     -0.67576159     -2.98695849
H       0.24795575     -1.53119637     -0.95832387
H       0.76433421     -0.01565324     -4.00185924
H       0.84147390     -1.66444587     -3.71668868
C       2.62657124     -0.44492754     -2.27833973
H       2.74159180      0.62285523     -1.63229479
C       4.06653628     -0.45417723     -3.20760965
H       2.82979547     -1.29511751     -1.38156933
H       3.97625331      0.41441244     -4.07667624
H       4.10859662     -1.54970660     -3.76582169
C       5.46520881     -0.26745231     -2.27244069
H       5.76108651      0.86538475     -1.95955289
C       8.18470808     -1.25045465     -6.96043992
H       5.81718995     -1.23522411     -1.63281447
H       7.50969120     -0.38849558     -7.48073320
H       7.49575766     -2.22482518     -7.17324271
C       9.64313069     -1.12922799     -6.16724129
H      -4.30279945      1.08491149      1.48272798
H      -4.34154019     -0.99499335      1.87421059
C      -6.39585650      0.01869567      1.09795507
H      -6.97347470      0.86432556      0.41082333
C      -5.31470339      0.75075360      4.31015677
H      -7.03459183     -0.96782514      0.72706920
H      -4.79884630      1.84557615      4.51765272
H      -4.79651243     -0.15603630      4.95533679
C      -7.02452680      0.75893102      4.40519934
H      -7.42988817      1.78292587      3.81862481
C      -7.91478398      1.02687023      5.85519740
H      -7.42731262     -0.41410779      4.26393313
H      -7.85568510      2.09934224      6.46317366
H      -7.89106384      0.22014137      6.79187408
H      -9.15067718      1.04975078      5.84188672
H       9.93613786     -0.08173287     -5.58199557
H      10.55218893     -1.26559557     -6.98748878
H       9.92150434     -1.94299570     -5.28078323
H       7.43608017      0.27535053      8.70011267
H       4.96857150      0.51019700     10.24876884
H       7.14900752     -0.19002010      5.75744081
H       9.83372580      0.03607545      7.11207387
H       4.76272561      0.06088608      7.30649425
H       9.51169465     -0.43822537      4.18021146
H       2.38845106      1.20255908     11.74879827
H      12.20707087     -0.22458461      5.42945106
H      11.87470827     -0.69297851      2.48369004
H       2.26372938      0.40079019      8.97421764
H      14.57300387     -0.51329860      3.65944569
H      14.35996017     -0.94599330      0.66688095
H      -0.38739626      1.13964706     14.08607643
H      17.15347612     -0.84646870      1.83092846
H      -1.07202326      0.49778792     10.90250340
C       6.95608840      1.06397659      7.85112702
C       7.63747836      0.82408108      6.31042253
C       5.25143979      1.07382430      7.86072900
C       4.55007643      1.32395622      9.38943575
C       9.34139506      0.81964083      6.26663128
C      10.01306453      0.57578081      4.71873817
C      11.71513379      0.55842117      4.58508030
C       2.84718504      1.43895688      9.37113617
C       2.30262514      2.05917229     10.84716847
C      12.38639861      0.31152361      3.02671357
C      14.08977531      0.28051738      2.82319904
C      14.82206560      0.03791969      1.28421761
C      16.53226375      0.02287044      1.19985331
C      -0.99764429      1.17930233     11.86330304
C      -0.92046714      1.91399892     13.29496495
H      17.09511415     -0.14792890      0.11458910
H      -2.10520343      2.15478864     13.41925804
H       7.44952819      2.06688985      8.42042857
H       5.09404514      2.28973642      9.97327701
H       7.15235188      1.62124067      5.47244919
H       9.83270584      1.82590477      6.83011222
H       4.79041480      1.87118299      7.01049657
H       9.51128001      1.37576785      3.89544757
H       2.70489381      2.94673951     11.60702414
H      12.20473844      1.56567174      5.14548575
H      11.87545174      1.10137253      2.20164465
H       2.32142940      2.08837748      8.43901369
H      14.57342436      1.29294477      3.37469375
H      14.36233343      0.78709546      0.39534533
H      -0.41142655      3.00020452     13.58032081
H      17.15608633      1.04193609      1.53493190
H       1.33138004      2.76000430     10.55160477
   94

C      -5.17441305     -1.00432636     -2.52374019
C      -3.48267168     -1.15043294     -2.81099173
H      -5.61520779     -0.18271412     -3.35965907
C      -6.07265120     -0.71074395     -1.08882951
H      -5.70059694     -2.03071118     -3.00256083
H      -2.98648454     -0.08714237     -2.38532871
C      -2.55691269     -1.43339405     -4.26496065
H      -3.01783066     -1.93577766     -1.95339468
H      -3.09598664     -0.73242569     -5.15469012
H      -3.03487789     -2.46579165     -4.78494834
C      -0.75121206     -1.37846514     -4.23603051
H      -0.80570019     -0.12819399     -4.20363994
C       1.11261727     -1.20377787     -4.12310873
H      -0.68612090     -2.42902815     -3.54616657
H       1.53057458     -0.60784052     -5.14434108
H       1.63292221     -2.18156005     -4.70691714
C    -227.56031125   -124.81240598    149.87302367
H       3.55739453      0.08242895     -3.41103112
C     228.24839328    125.79419818   -146.84643957
H       3.61815906     -1.61113163     -2.87443036
H     -61.83301832     19.35919344    -11.00084909
H     -54.65018676    368.66000306    -27.53205455
C      -8.51400067      1.32446536      8.63858108
H      -6.22743989      6.65440030      7.80867650
C       8.16460289     -1.25537062     -6.95289763
H      -8.42690277      0.11740185      8.81384230
H       7.50390044     -0.39733912     -7.49357288
H       7.50917581     -2.24101508     -7.20595516
C       9.59286542     -1.12505476     -6.11867116
H      -5.64353597      0.38914082     -0.70098583
H      -5.67315361     -1.52121671     -0.22879655
C      -7.73848386     -0.58321793     -1.02612768
H      -8.39860385      0.44015954     -0.87087915
C      -0.08870633      1.23706380      2.04199454
H      -8.49367131     -1.37303067     -0.47119972
H       0.12225458      2.44679187      1.90164394
H       0.10911396      0.06620208      2.39162106
C      -1.29915766      1.50774401      3.29127190
H      62.13317025    -14.18688598     18.13487757
C      -2.98294192      1.09181369      3.06257822
H      56.17358193   -369.56839337     36.90698630
H      -3.34231330      2.26842383      2.68720708
H      -2.98950699     -0.11758085      3.50047693
H      -4.19127808      0.99360719      3.29136995
H       9.82143060     -0.07635197     -5.51031009
H      10.53849592     -1.24738135     -6.89858375
H       9.82095485     -1.93605270     -5.21728262
H       7.86001148      0.23011755      8.97328327
H       5.21314328      0.47681958     10.69799799
H       7.54885150     -0.21725007      6.04270520
H      10.27603788     -0.00342270      7.12643270
H       5.15197110      0.04883122      7.81803704
H       9.82514705     -0.46462487      4.18024880
H       2.54971881      1.48730237     12.33806391
H      12.56941352     -0.26798069      5.24912640
H      12.16023327     -0.72564517      2.30801870
H       2.47664125      0.50574609      9.66395352
H      14.89882239     -0.55641046      3.41130053
H      14.67906753     -0.98473890      0.43796395
H      -0.01868653      1.27766439     15.23861609
H      17.49567676     -0.88800227      1.56442653
H      -0.54093538     -0.05297928     12.34100726
C       7.35913684      1.02187845      8.14265592
C       8.05223710      0.79144820      6.59014785
C       5.65377174      1.05462879      8.36942286
C       4.83065030      1.31957788      9.85213808
C       9.74431208      0.77684335      6.30297911
C      10.35075504      0.53980181      4.71389520
C      12.04294824      0.51403295      4.42377906
C       3.13055471      1.52770281      9.98364764
C       2.54061187      2.28245443     11.38232420
C      12.69155492      0.27125599      2.84645603
C      14.39505814      0.23667008      2.58551666
C      15.14976663     -0.00275055      1.05194755
C      16.86289926     -0.02052529      0.94104757
C      -0.72835574      0.83015882     13.10355985
C      -0.69895144      1.82113279     14.37026789
H      17.42153218     -0.19111255     -0.14762733
H      -1.85471228      2.00652310     14.69755524
H       7.87300941      2.01452327      8.70896352
H       5.42437271      2.24779506     10.44466005
H       7.54767210      1.59742231      5.77381258
H      10.25824773      1.77966791      6.85184247
H       5.19893693      1.87043252      7.53603338
H       9.81671871      1.33490339      3.90626467
H       3.00621398      3.17738212     12.09361353
H      12.55574044      1.51919212      4.96866719
H      12.15590129      1.05534210      2.03155024
H       2.61599235      2.13584245      9.02184546
H      14.89461997      1.24673889      3.12850029
H      14.67936861      0.74586617      0.16819708
H      -0.26161637      2.97216940     14.34194679
H      17.49673627      0.99510802      1.26999137
H       1.58973403      3.01792288     11.10796024
   94

C      -3.96214039     -0.31811891     -0.40098418
C      -2.26380565     -0.30757432     -0.19115569
H      -4.36714843      0.53381351     -1.22674023
C      -4.90089689     -0.10892642      0.98827712
H      -4.38922081     -1.36238938     -0.94033465
H      -1.86069853      0.72921120      0.37979145
C      -1.58518252     -0.54949002     -1.74234835
H      -1.81983443     -1.09152689      0.68063828
H      -2.03805310      0.22069663     -2.62137486
H      -1.99603619     -1.57236264     -2.33353177
C       0.09626265     -0.52963515     -1.82273492
H       0.23160733      0.64399253     -1.43697432
C       1.09913820     -0.49178183     -3.17043704
H       0.35049594     -1.57105048     -1.17624044
H       0.76591692      0.08320645     -4.22455614
H       0.96837914     -1.49551182     -3.90910520
C       8.22624062    -21.47348551    -34.32519636
H       2.20215421      2.22359396     -2.66523646
C      -2.70885376     20.77206918     29.42725750
H       6.68788515     -3.68842700     -0.91115236
H       4.05611720      0.76793121     -3.45683202
H      -0.56931317     -2.53973214     -6.95439491
C       4.36035955     -0.18948451     -1.03706590
H       4.99170796      0.83813180     -1.10506263
C       8.13239716     -1.28999787     -6.94102438
H       4.58452470     -1.33304043     -0.72096207
H       7.46455255     -0.45443247     -7.50989551
H       7.43590319     -2.26542965     -7.11467401
C       9.61538879     -1.11899553     -6.21031631
H      -4.57843720      1.05419182      1.29704390
H      -4.58631652     -1.09732871      1.68717529
C      -6.56601509     -0.06587787      0.82612971
H      -7.16664756      0.80080993      0.20160847
C      -4.61375237      0.83826477      4.52099637
H      -7.22080373     -1.05147260      0.51637631
H      -4.28199349      2.01156432      4.58776116
H      -4.23730245     -0.18154983      5.07645168
C      -6.36856171      0.80620462      4.58846576
H      -6.65071971      1.91190568      4.07504951
C      -7.71818702      0.98951935      5.68049408
H      -6.58395977     -0.42615220      4.59489864
H      -7.94317070      2.04159617      6.28942432
H      -7.97514936      0.19114286      6.59273743
H      -8.91577827      0.96010687      5.37733887
H       9.87097407     -0.07361995     -5.60555239
H      10.52666377     -1.21674586     -7.03519953
H       9.92849395     -1.93725378     -5.34106315
H       7.44632426      0.29121320      8.73800308
H       4.92870709      0.49013568     10.25520534
H       7.22917240     -0.17120015      5.80988142
H       9.89929573      0.07435672      7.17082137
H       4.77955062      0.06308716      7.32401341
H       9.63421398     -0.39397082      4.25153300
H       2.34442296      1.26746284     11.78236947
H      12.31615902     -0.17440549      5.47764147
H      11.99891254     -0.63711433      2.53626729
H       2.22418252      0.41489955      9.02921418
H      14.69143803     -0.47521315      3.67366750
H      14.46082035     -0.91403555      0.68098330
H      -0.45197270      1.13292672     14.14380159
H      17.25902481     -0.83326688      1.81011314
H      -1.18387346      0.45339790     10.97797254
C       6.96962010      1.07649229      7.88497440
C       7.70186608      0.84863640      6.36328435
C       5.26043445      1.07605840      7.88311846
C       4.52581525      1.31623545      9.40095825
C       9.40935636      0.85483539      6.32246502
C      10.12081788      0.62800605      4.78656642
C      11.82416516      0.60777685      4.63365857
C       2.82172649      1.45115848      9.40456821
C       2.29691710      2.11723836     10.87372756
C      12.50494857      0.37242436      3.07436400
C      14.20631742      0.31988829      2.84030074
C      14.92495714      0.07171781      1.29361973
C      16.63456580      0.03864562      1.18607559
C      -1.10738959      1.13410672     11.93738393
C      -1.00066714      1.89584804     13.35230683
H      17.18756159     -0.13670681      0.09601483
H      -2.17185741      2.17847946     13.52294988
H       7.45206438      2.08035933      8.46040797
H       5.07651442      2.27492101      9.98748736
H       7.22070482      1.64293592      5.52209729
H       9.88920174      1.86184466      6.89175854
H       4.80145698      1.87035437      7.03031509
H       9.61883671      1.42012872      3.95724672
H       2.73099051      2.99232537     11.63146610
H      12.30911639      1.61548069      5.19422273
H      11.98945197      1.15338848      2.24430853
H       2.27927253      2.05603097      8.45396331
H      14.69635644      1.33120743      3.38617026
H      14.46268090      0.81825386      0.40397688
H      -0.46654880      2.97902368     13.59137085
H      17.26882592      1.05397472      1.51167972
H       1.35461799      2.86783718     10.60745417
   94

C      -4.37495865     -0.50164729     -0.94271823
C      -2.67441845     -0.55671170     -0.98387670
H      -4.79489023      0.34879656     -1.75587571
C      -5.21329561     -0.24904848      0.51289534
H      -4.84570488     -1.54388209     -1.43661152
H      -2.25442553      0.51033144     -0.49398266
C      -1.98228427     -0.84021022     -2.52421740
H      -2.22613703     -1.34197587     -0.11800267
H      -2.45175093     -0.11708074     -3.43290389
H      -2.41232360     -1.85414627     -3.11220427
C      -0.27391669     -0.81663365     -2.58045996
H      -0.27352063      0.43766786     -2.55660376
C       1.19844976     -0.83775702     -3.44247314
H      -0.10163571     -1.92297071     -1.99884886
H       1.10046886     -0.24577410     -4.54944876
H       1.15717866     -1.79174972     -4.26393859
C       2.57208866     -0.52271624     -2.45104492
H       3.37169634      0.07676179     -3.21609385
C       2.85859153      0.13890380     -0.81879694
H       3.27452691     -1.53684208     -2.69389417
H       2.96491388      1.31835831     -1.22705575
H       3.38856509     -0.92898330     -0.45873139
C       2.27617120      0.59224598      0.79631419
H       2.70332368      1.71744694      0.99806569
C       8.00749247     -1.22251208     -6.81053212
H       2.50777735     -0.38156807      1.49039670
H       7.33853401     -0.36475984     -7.34047924
H       7.33814168     -2.20106295     -7.05241224
C       9.46058449     -1.09937937     -6.01993090
H      -4.89260512      0.92156274      0.77822971
H      -4.91030666     -1.22788565      1.22613881
C      -6.86409307     -0.12553490      0.71272533
H      -7.53054373      0.77018060      0.21758424
C      -3.21286615      0.80665417      3.69832916
H      -7.60461860     -1.08309255      0.57516176
H      -2.84498140      1.97334015      3.75370556
H      -2.72865169     -0.17353741      4.24897017
C      -4.85541042      0.89052298      4.44751840
H      -5.07248157      2.07158893      4.10071326
C      -6.49716033      0.94437564      5.16984666
H      -4.91357213     -0.33103144      4.69951182
H      -6.90967502      1.94491924      5.78261289
H      -6.96005207      0.09696578      5.95755843
H      -7.63508535      0.93044916      4.68690377
H       9.69260186     -0.04966468     -5.41508029
H      10.40272353     -1.22317101     -6.80509949
H       9.69150946     -1.91352332     -5.12246300
H       7.53614880      0.27871878      8.82956203
H       4.96643044      0.49302895     10.41440391
H       7.26171171     -0.18806042      5.90658309
H       9.95631040      0.03064319      7.11923766
H       4.84775248      0.06570068      7.52089104
H       9.57185616     -0.44019534      4.17269994
H       2.32553503      1.35417594     11.94690426
H      12.28808741     -0.24235747      5.33088439
H      11.92030710     -0.70330915      2.38303236
H       2.25662749      0.44390804      9.23508961
H      14.63976218     -0.53203734      3.54036015
H      14.44269473     -0.96205872      0.56227639
H      -0.55762062      1.13004918     14.23576250
H      17.24512428     -0.85989554      1.72709078
H      -1.26252206      0.43792635     11.06664759
C       7.04867316      1.06577127      7.98716332
C       7.75222821      0.82737411      6.44970599
C       5.34043230      1.07860025      8.06672613
C       4.57146847      1.32803876      9.56773417
C       9.45189047      0.81292227      6.28206259
C      10.08448718      0.56832438      4.70911337
C      11.78329931      0.54232588      4.49610282
C       2.86699858      1.47976273      9.58850050
C       2.31276693      2.18888429     11.02543522
C      12.44164493      0.29576607      2.92607853
C      14.14859631      0.26299345      2.70991522
C      14.90400585      0.02206580      1.17897688
C      16.61742044      0.00731551      1.09875109
C      -1.20028155      1.11686759     12.02680827
C      -1.11612766      1.88069781     13.43987386
H      17.18643337     -0.16310974      0.01575914
H      -2.28558317      2.16663340     13.62093545
H       7.54733866      2.06550387      8.55239274
H       5.13779281      2.27844867     10.14807257
H       7.26735773      1.63885974      5.62920963
H       9.95133189      1.81687992      6.83957440
H       4.87976277      1.88728992      7.23071205
H       9.57127334      1.36660629      3.89243677
H       2.75401013      3.06801306     11.77171652
H      12.28361297      1.54888420      5.04768373
H      11.91994136      1.08026094      2.10316541
H       2.31780043      2.05984546      8.62762699
H      14.63962646      1.27482846      3.25587208
H      14.44463351      0.77152752      0.29078142
H      -0.58448537      2.96862869     13.65486363
H      17.24770414      1.02346038      1.43199459
H       1.37802716      2.95101264     10.76294819
   94

C      -4.43366213     -0.52317655     -0.98900390
C      -2.73282364     -0.58141714     -1.03429400
H      -4.83227110      0.33871286     -1.80021578
C      -5.32941363     -0.28024420      0.43003617
H      -4.88767950     -1.57029892     -1.48725919
H      -2.32861489      0.49430800     -0.55352422
C      -1.99347162     -0.86227908     -2.55429423
H      -2.30102957     -1.37453013     -0.16784297
H      -2.45271706     -0.14869387     -3.47489892
H      -2.40743735     -1.87625733     -3.15370557
C      -0.28699707     -0.82705181     -2.58412215
H      -0.31212822      0.42510583     -2.62336655
C       1.25822346     -0.80135792     -3.29727404
H      -0.12898258     -1.95224796     -2.03572545
H       1.25969869     -0.23893813     -4.42317457
H       1.34171519     -1.74931921     -4.12099991
C       2.46372433     -0.41603913     -2.11806616
H       3.31873288      0.23025196     -2.77446732
C       2.46878078      0.20816927     -0.44854697
H       3.25957550     -1.37017820     -2.29783812
H       2.58481434      1.39341184     -0.81634121
H       3.10533786     -0.78853749     -0.07643081
C       1.74456093      0.54436306      1.14162730
H       2.13848352      1.68321146      1.35472467
C       7.95974682     -1.21586160     -6.77012947
H       2.00267349     -0.48362340      1.75082775
H       7.28020491     -0.35720965     -7.28439116
H       7.27837917     -2.18992808     -6.99475765
C       9.42647393     -1.09682017     -6.00453448
H      -5.03359120      0.88270051      0.74036043
H      -5.05277146     -1.23579756      1.18119971
C      -6.97964368     -0.16151170      0.56492330
H      -7.66149310      0.76323058      0.16482253
C      -2.74657718      0.79105995      3.45344406
H      -7.74509229     -1.10220531      0.52933099
H      -2.46067872      1.98073518      3.54971878
H      -2.33161978     -0.18746285      4.06599049
C      -4.37096517      0.87648017      4.25178310
H      -4.58866171      2.06556200      3.94876641
C      -6.01836549      0.91668805      4.94922902
H      -4.41747496     -0.33202507      4.54685894
H      -6.45583809      1.90717012      5.56125809
H      -6.49433788      0.05874452      5.71735945
H      -7.16835377      0.90631957      4.49400710
H       9.66313005     -0.04632969     -5.40292288
H      10.36492922     -1.22176300     -6.79442946
H       9.66151257     -1.91242414     -5.10953044
H       7.51062701      0.27329876      8.78446256
H       4.93572653      0.48039677     10.39029228
H       7.23488770     -0.19080181      5.85601811
H       9.93269926      0.02755762      7.07157598
H       4.81652178      0.06195729      7.49700443
H       9.56694429     -0.44314318      4.12669576
H       2.29377310      1.39656534     11.96235855
H      12.28300996     -0.24562192      5.29385060
H      11.94096883     -0.70675081      2.34909975
H       2.21927582      0.45570068      9.26572527
H      14.65784376     -0.53555482      3.51208868
H      14.47883427     -0.96607913      0.53623748
H      -0.61774226      1.11992197     14.25143294
H      17.27963417     -0.86330281      1.70072925
H      -1.35269158      0.43229572     11.07564305
C       7.02091342      1.05880335      7.94175916
C       7.72545219      0.82346359      6.40125978
C       5.31134219      1.07379519      8.04248554
C       4.54495547      1.32167170      9.54812572
C       9.42768430      0.80816932      6.23309606
C      10.07809655      0.56494460      4.66500144
C      11.78003146      0.53827810      4.45748780
C       2.84111559      1.48965215      9.60223710
C       2.30205828      2.22390253     11.03530186
C      12.45945957      0.29227458      2.89458870
C      14.16848251      0.25908492      2.68054331
C      14.93672832      0.01860519      1.15452997
C      16.65084554      0.00341360      1.07288891
C      -1.28046010      1.09244601     12.04740134
C      -1.18601219      1.86352036     13.45581181
H      17.22234038     -0.16697164     -0.00924106
H      -2.34789137      2.16659401     13.66172836
H       7.52061817      2.05743792      8.50798468
H       5.12127372      2.26592742     10.12717497
H       7.23761646      1.62994010      5.57752923
H       9.92683572      1.81154864      6.79186918
H       4.84719930      1.87923977      7.20558818
H       9.56496861      1.36040706      3.84569734
H       2.76140725      3.09680951     11.77790495
H      12.27875101      1.54465961      5.01036912
H      11.94051028      1.07541654      2.06887747
H       2.27771410      2.04637367      8.63643546
H      14.65804442      1.27083095      3.22745576
H      14.48088724      0.76794593      0.26444965
H      -0.64490568      2.95005059     13.64791212
H      17.28237229      1.01885873      1.40573171
H       1.37950812      3.00751075     10.79213942
   94

C      -4.46244984     -0.52505512     -0.99147819
C      -2.76020349     -0.58522385     -1.03899190
H      -4.84551275      0.35030063     -1.79551350
C      -5.40407543     -0.29297164      0.39740422
H      -4.90617314     -1.57475709     -1.49347340
H      -2.36170968      0.49244636     -0.55910338
C      -2.00014815     -0.86282107     -2.55198844
H      -2.33772645     -1.38439637     -0.17299378
H      -2.44687208     -0.14767165     -3.47729889
H      -2.40861457     -1.86831790     -3.16956389
C      -0.29575986     -0.83475596     -2.56942328
H      -0.33235030      0.41221342     -2.66133433
C       1.30398321     -0.76964612     -3.13547996
H      -0.15444130     -1.97816478     -2.05720842
H       1.40153597     -0.22728459     -4.26666169
H       1.49397801     -1.70445767     -3.95554836
C       2.35604605     -0.34141753     -1.82501534
H       3.25560449      0.33917267     -2.37518213
C       2.08261355      0.23595016     -0.15725357
H       3.22466502     -1.23880940     -1.93526449
H       2.19295499      1.42519988     -0.50419871
H       2.77117800     -0.70896677      0.24820194
C       1.26538962      0.51434507      1.41014262
H       1.67930881      1.65179206      1.61721980
C       7.93255068     -1.21216715     -6.74769811
H       1.56225821     -0.54103060      1.95953126
H       7.24564624     -0.35330259     -7.25119698
H       7.24355619     -2.18295815     -6.96181237
C       9.40744490     -1.09564101     -5.99759729
H      -5.12842011      0.86152627      0.74854312
H      -5.14945001     -1.23081604      1.17707494
C      -7.05530334     -0.18396207      0.45869532
H      -7.74796923      0.76574501      0.15730149
C      -2.31526155      0.77171287      3.26277791
H      -7.83801559     -1.10455723      0.52371032
H      -2.11064814      1.97902276      3.37574655
H      -1.97645488     -0.21089537      3.91895604
C      -3.95252592      0.84677891      4.03888717
H      -4.16874116      2.03862413      3.76217849
C      -5.59378873      0.88781401      4.73687783
H      -3.99735794     -0.35203449      4.35761575
H      -6.05453249      1.87535469      5.33548767
H      -6.07700975      0.02960611      5.49950147
H      -6.75625189      0.87036373      4.31085245
H       9.64484549     -0.04430804     -5.39788809
H      10.34602496     -1.22070134     -6.78793112
H       9.64323716     -1.91264138     -5.10416126
H       7.47367237      0.26824149      8.73975058
H       4.88908686      0.46589026     10.35098001
H       7.20912337     -0.19344136      5.80831248
H       9.90877679      0.02534841      7.03332176
H       4.77554486      0.05800530      7.45640591
H       9.56641851     -0.44561029      4.09057132
H       2.25264643      1.43583273     11.95755277
H      12.28166727     -0.24841372      5.26410560
H      11.96324253     -0.70956816      2.32185498
H       2.16896622      0.46690326      9.27257807
H      14.67811806     -0.53891864      3.48675023
H      14.51463864     -0.96973778      0.51315188
H      -0.67738910      1.10715031     14.25496033
H      17.31468047     -0.86663933      1.67523834
H      -1.44959531      0.43095748     11.06968949
C       6.98361943      1.05202062      7.89542871
C       7.69887263      0.81964918      6.35652934
C       5.27170131      1.06807488      8.00393486
C       4.50444280      1.31369032      9.51255810
C       9.40436037      0.80409315      6.19277929
C      10.07579802      0.56202757      4.63107363
C      11.78052434      0.53467521      4.42622133
C       2.80146877      1.49856707      9.59392416
C       2.28082147      2.25591572     11.02535560
C      12.47924726      0.28926985      2.86970018
C      14.18997585      0.25542641      2.65455578
C      14.96965436      0.01540663      1.13277421
C      16.68446418     -0.00036466      1.04829782
C      -1.36443692      1.06626585     12.05635287
C      -1.25572756      1.84425424     13.46041059
H      17.25785913     -0.17072391     -0.03327223
H      -2.40842169      2.16573722     13.69354473
H       7.48314918      2.04946789      8.46397425
H       5.08971449      2.25139745     10.09215910
H       7.20989038      1.62215857      5.52948728
H       9.90247740      1.80669451      6.75369260
H       4.80527077      1.86931299      7.16435318
H       9.56375068      1.35541393      3.80925380
H       2.75796233      3.12164805     11.76548341
H      12.27764422      1.54079404      4.98046347
H      11.96278611      1.07117186      2.04146616
H       2.22475115      2.03159070      8.62311175
H      14.67854694      1.26705920      3.20202888
H      14.51677102      0.76466759      0.24115554
H      -0.70459667      2.92858293     13.63000940
H      17.31751581      1.01433595      1.38036963
H       1.37175126      3.06122329     10.80167381
   94

C      -4.48233189     -0.50494486     -0.92317408
C      -2.77717632     -0.57435010     -0.99639935
H      -4.84486379      0.39508700     -1.70821291
C      -5.45730940     -0.27714292      0.44557599
H      -4.91583710     -1.56052270     -1.42005206
H      -2.38060528      0.50423784     -0.51506658
C      -2.00418791     -0.84709192     -2.51053275
H      -2.36187779     -1.38434172     -0.13364409
H      -2.42586364     -0.12289922     -3.43904185
H      -2.41138854     -1.83266838     -3.15976450
C      -0.30435045     -0.83723525     -2.51329995
H      -0.34904315      0.39706019     -2.67658249
C       1.36091923     -0.68763245     -2.77392325
H      -0.18620660     -2.01272121     -2.07997558
H       1.63377086     -0.16714737     -3.88730993
H       1.73702309     -1.58029817     -3.57797142
C       2.05872387     -0.21222972     -1.22988431
H       3.02070802      0.50714695     -1.58630749
C       1.26453819      0.25002669      0.33621221
H       3.02280055     -1.00819403     -1.18335906
H       1.43131076      1.44259303      0.04487814
H       1.92702646     -0.65135223      0.85239533
C       0.09909488      0.49036452      1.74536628
H       0.53641180      1.61957304      1.98071269
C       7.90329037     -1.20878399     -6.72420884
H       0.47503761     -0.54595915      2.28905815
H       7.20787497     -0.35104218     -7.21682770
H       7.20502416     -2.17474513     -6.92752007
C       9.38796368     -1.09513618     -5.99325436
H      -5.19616440      0.86270135      0.85240691
H      -5.22464953     -1.19302061      1.26099637
C      -7.11207581     -0.18267856      0.42757889
H      -7.80838574      0.78667563      0.22425806
C      -1.40928919      0.67427130      2.80663274
H      -7.90454802     -1.08146816      0.57660168
H      -1.31569406      1.89493014      2.90861718
H      -1.18512561     -0.33342890      3.47094111
C      -3.07679514      0.75463445      3.56761398
H      -3.26085259      1.95790195      3.37259145
C      -4.71991329      0.81339198      4.28263030
H      -3.09933452     -0.40753979      3.97398079
H      -5.24336739      1.79281993      4.84520249
H      -5.23137965     -0.03521433      5.04043253
H      -5.90330535      0.77414896      3.90073524
H       9.62173640     -0.04191972     -5.39576765
H      10.33185065     -1.21950501     -6.77869298
H       9.62031989     -1.91454430     -5.10135847
H       7.38709900      0.26085886      8.65800345
H       4.77913681      0.43399431     10.25088754
H       7.15704306     -0.19846612      5.72617026
H       9.85760315      0.02303702      6.97809448
H       4.68214814      0.04931610      7.35292480
H       9.56182158     -0.44932445      4.04014489
H       2.17109682      1.49741901     11.90849100
H      12.27358247     -0.25238124      5.22365102
H      11.99413604     -0.71332386      2.28485012
H       2.05675755      0.48331468      9.23679618
H      14.70524949     -0.54393861      3.45152528
H      14.56669585     -0.97500132      0.48170688
H      -0.77068257      1.07939211     14.23719168
H      17.36537611     -0.87100189      1.64040223
H      -1.62172212      0.42997043     11.03524792
C       6.89823459      1.04077710      7.80906204
C       7.64404857      0.81306669      6.27954377
C       5.18019019      1.05531554      7.90676139
C       4.40821409      1.29446946      9.41906905
C       9.35608294      0.79829165      6.13295519
C      10.06704529      0.55789103      4.58447079
C      11.77629816      0.52955379      4.38322439
C       2.70658455      1.51016583      9.53413896
C       2.23200138      2.30574325     10.96910913
C      12.50563011      0.28514538      2.83684922
C      14.21909166      0.25025994      2.61873542
C      15.01650139      0.01102920      1.10347581
C      16.73253894     -0.00547938      1.01521745
C      -1.51018236      1.01617909     12.04906604
C      -1.36554915      1.80698038     13.44543256
H      17.30940465     -0.17574021     -0.06525779
H      -2.49551840      2.17055838     13.73212115
H       7.39584347      2.03644152      8.38254303
H       5.00851487      2.21991884     10.00144281
H       7.15559953      1.61050855      5.44726310
H       9.85116219      1.79944341      6.69847871
H       4.71012076      1.84810518      7.06096948
H       9.55873079      1.34870649      3.75835777
H       2.74270850      3.15463436     11.70807924
H      12.27007076      1.53537607      4.93971738
H      11.99381464      1.06504330      2.00431167
H       2.10516055      1.99676531      8.55439824
H      14.70598711      1.26189463      3.16662789
H      14.56893870      0.76034578      0.20938328
H      -0.79246971      2.88387589     13.57545134
H      17.36831542      1.00791388      1.34578994
H       1.35430170      3.15488802     10.78335747
