   94

C      -6.05580950     -0.95190235     -2.26848481
C      -4.46635141     -1.28244059     -1.66732990
H      -6.02925586     -0.20057022     -3.26279990
C      -7.36046043     -0.50031031     -1.21456790
H      -6.35584892     -1.84222580     -3.08502381
H      -4.11003521     -0.14699729     -1.34064221
C      -2.88715974     -1.81229547     -1.98321258
H      -4.71452336     -2.20571887     -0.88200397
H      -6.13027122     -3.90229797    -11.56012359
H      -6.12256003     -4.67169196    -11.43216492
C      -1.62551428     -1.53393619     -3.06341625
H      -2.18528420     -1.08843095     -4.07750071
C      -0.11830945     -0.74639150     -2.70590012
H      -1.52711082     -2.64151794     -3.62125702
H      -0.06010213      0.29635235     -3.38661622
H       0.71166693     -1.26443213     -3.48405979
C       0.64146258     -0.42853933     -1.16394546
H       1.85651609     -0.19940623     -1.34889914
C       0.07701630      0.61295730      0.12849471
H       1.08313864     -1.50483148     -0.72358528
H      -0.43277613      1.60300265     -0.41733956
H       0.95975073      1.44978256      0.40064754
C      -0.73595692      0.21710792      1.63798174
H      -0.04023306      0.51471998      2.62706992
C       3.21431922      3.53425932    -10.57049664
H      -0.43690930     -0.94889264      1.94924129
H       2.56831241      4.34238680    -11.02987537
H       0.47475267      9.63478640     12.19138421
C      11.33522949     -4.45454334     -9.20267678
H      -7.24634276      0.62246726     -0.69214163
H      -7.40398409     -1.01412695     -0.08407411
C      -8.96338532     -0.60586414     -1.67487705
H      -9.73086146      0.23045146     -2.09767577
C      -7.57516110     -0.19589393     10.57194905
H      -9.73392377     -1.54080534     -1.68352921
H      -7.62826812      0.69289312      9.82270058
H      -7.50828160     -1.05466878     11.35436152
C      -2.39255703      0.52282156      2.11366731
H      -2.72378621      1.46078725      1.37314212
C      -3.45752629      0.94198429      3.41652956
H      -2.89575407     -0.58645981      1.89226473
H      -3.33659237      2.01512590      4.02604767
H      -3.55129518      0.23941402      4.43533697
H      -4.68914193      1.03807212      3.23692523
H      10.90581847     -3.37379558     -8.91024478
H      11.85782466     -4.62372082    -10.26860321
H      11.24204696     -5.36611069     -8.42918578
H       3.57135584     -3.55588928     17.00570251
H       1.29952779     -4.11497891     18.97843774
H      10.79632553     -4.62449081     10.73419045
H      13.75405748     -4.43370029     11.28567527
H       0.28860159     -4.22704996     17.38123871
H       7.36687438      7.45103612      0.66696302
H      -1.26836001     10.01911979     14.99487326
H       9.09497116      7.12971711      3.74094815
H      15.40658100     -2.52160636      1.11978355
H      -1.15085903      8.75444357     12.33922044
H      18.13268220     -1.10356914      1.93332937
H      17.55629984     -1.89741201     -1.12103072
H      12.30251486     -1.91562157      3.28860110
H      20.45248073     -1.64752439     -0.32257528
H       7.66388128      5.97652393      3.27767433
C      10.74146625     -2.92773117     12.35297488
C      11.32800962     -3.54390712     10.98795078
C       2.41723457     -3.20710945     16.90795941
C       1.13756882     -3.50931477     17.91746937
C      12.97761115     -3.53088493     11.08534115
C       7.96538922      7.80760987      1.65516259
C       7.99589744      7.16026844      3.18210029
C      -0.69467129      9.89470949     12.50621901
C      -1.06842421     10.68895734     13.97183111
C      15.84265510     -1.57591067      1.77923690
C      17.24510079     -0.82306491      1.11113539
C      17.97106852     -0.92152789     -0.46853334
C      19.66870849     -0.80418779     -0.78749719
C      14.35700128     -1.07398242      2.20413008
C      12.91643901     -0.97636678      2.86484947
H      20.15459136     -0.86462987     -1.92782769
H      -2.49094653     -2.66698740     -1.19808243
H      10.48294060     -2.34285896     13.33689096
H       0.62188074     -2.47721176     18.35551456
H      10.82332589     -2.93577889     10.04554984
H      13.73631898     -2.59288742     11.01523895
H       2.42462908     -2.57740921     15.87411337
H       8.52884687      8.77955049      1.20807308
H      -0.24264642     11.48603010     14.43916680
H       7.26127317      7.75059311      3.97901439
H      16.02775782     -2.02712107      2.91370707
H      -1.00993963     10.46158351     11.44993435
H      17.14930372      0.38047447      1.41746281
H      17.35070526     -0.18463691     -1.26144819
H      12.31455747      0.03878258      3.04389111
H      20.28756450      0.22729080     -0.48017067
H      -2.08841366     11.39184780     14.01963969
   94

C      -6.05498745     -0.95419250     -2.27318875
C      -4.46565587     -1.28447595     -1.67155698
H      -6.02784549     -0.20381565     -3.26820040
C      -7.36010561     -0.50057767     -1.22068841
H      -6.35483337     -1.84588454     -3.08827724
H      -4.10846609     -0.14907953     -1.34591932
C      -2.88785048     -1.81682113     -1.99039224
H      -4.71350775     -2.20336371     -0.88099178
H      -6.13086315     -3.90307441    -11.56231541
H      -6.12315192     -4.67246792    -11.43435381
C      -1.62506857     -1.53397713     -3.06828741
H      -2.18439578     -1.08841885     -4.08260513
C      -0.11986617     -0.74425114     -2.70680294
H      -1.52327279     -2.63966435     -3.62922512
H      -0.06361670      0.30076458     -3.38409646
H       0.71239979     -1.25706596     -3.48588148
C       0.63864012     -0.43026957     -1.16348143
H       1.85524840     -0.20650250     -1.34440554
C       0.07721394      0.61439291      0.12736281
H       1.07356391     -1.50907925     -0.72277664
H      -0.43299006      1.60401777     -0.41880526
H       0.95908364      1.45292730      0.39708472
C      -0.73297318      0.21915251      1.63798795
H      -0.03767082      0.52025661      2.62629983
C       3.21244619      3.53617726    -10.57088289
H      -0.43174259     -0.94496700      1.95444690
H       2.56643465      4.34430542    -11.03025361
H       0.47577428      9.63594955     12.19474950
C      11.32443061     -4.46284921     -9.22333995
H      -7.24595350      0.62282620     -0.69958224
H      -7.40465665     -1.01236275     -0.08931672
C      -8.96266584     -0.60662564     -1.68219606
H      -9.72980351      0.22919126     -2.10660087
C      -7.62895951     -0.16918082     10.54433635
H      -9.73309984     -1.54165884     -1.69069620
H      -7.68137797      0.71890399      9.79424429
H      -7.56482956     -1.03021297     11.32445412
C      -2.39047878      0.52350446      2.10922948
H      -2.72635534      1.45817722      1.36645024
C      -3.44787384      0.94323796      3.41741097
H      -2.89609351     -0.58362312      1.88237293
H      -3.32084415      2.01642300      4.02555017
H      -3.53638762      0.23926783      4.43564510
H      -4.68014685      1.04068877      3.24392881
H      10.89501899     -3.38210051     -8.93091217
H      11.84702082     -4.63203092    -10.28926818
H      11.23126021     -5.37441064     -8.44984049
H       3.67954491     -3.52467288     16.98823922
H       1.62310689     -4.19381452     19.10381094
H      10.93283753     -4.65138757     10.73019736
H      13.89124061     -4.46324799     11.27448286
H      -0.75627292     -4.15352288     17.82346317
H       7.36698468      7.45120579      0.66691903
H      -1.26657285     10.01945558     14.99444174
H       9.09532399      7.13008070      3.74012947
H      15.43363606     -2.51309078      1.07124370
H      -1.15302883      8.75648873     12.33600944
H      18.15681547     -1.07619862      1.89121341
H      17.57793647     -1.88331438     -1.16604842
H      12.32671795     -1.89551574      3.23572108
H      20.47285483     -1.63320029     -0.37069912
H       7.66357857      5.97664060      3.27832397
C      10.87856385     -2.95315682     12.34346690
C      11.46607170     -3.57057998     10.97946130
C       2.51263823     -3.20846745     16.94905519
C       1.36576993     -3.58610424     18.06910529
C      13.11582688     -3.55945003     11.07444956
C       7.96542746      7.80769176      1.65518806
C       7.99582196      7.16026544      3.18209227
C      -0.69479034      9.89551003     12.50581458
C      -1.06811609     10.68986192     13.97146381
C      15.86970815     -1.56806274      1.73160319
C      17.26851470     -0.80693976      1.06602454
C      17.99229054     -0.90674405     -0.51438402
C      19.68939391     -0.78929043     -0.83509397
C      14.38566130     -1.06209912      2.15619609
C      12.94424817     -0.95813999      2.81325620
H      20.17392687     -0.84910867     -1.97601715
H      -2.49415399     -2.67748113     -1.21049140
H      10.61116919     -2.37560943     13.32928482
H      -0.44450841     -2.51011386     18.73855290
H      10.96195073     -2.96410359     10.03566314
H      13.87612385     -2.62301228     11.00113849
H       2.44186086     -2.56242138     15.92962002
H       8.52908957      8.77955567      1.20817448
H      -0.24298839     11.48808095     14.43801837
H       7.26088229      7.75003470      3.97912472
H      16.05573609     -2.03033857      2.86148519
H      -1.01009822     10.46073825     11.44867380
H      17.16857136      0.39640775      1.37165299
H      17.37008149     -0.17121503     -1.30712694
H      12.34675733      0.06017198      2.98883344
H      20.30827509      0.24240058     -0.52866016
H      -2.08829408     11.39239342     14.02003386
   94

C      -6.05413150     -0.95648773     -2.27777808
C      -4.46493334     -1.28649405     -1.67565095
H      -6.02640505     -0.20706614     -3.27348530
C      -7.35970993     -0.50085917     -1.22668807
H      -6.35378157     -1.84954586     -3.09141513
H      -4.10687519     -0.15114909     -1.35104585
C      -2.88853057     -1.82131674     -1.99747936
H      -4.71241960     -2.20098854     -0.87988753
H      -6.13145142     -3.90384790    -11.56448877
H      -6.12374021     -4.67324101    -11.43652472
C      -1.62462169     -1.53401766     -3.07305864
H      -2.18349562     -1.08841050     -4.08761741
C      -0.12143608     -0.74211786     -2.70760069
H      -1.51942980     -2.63779786     -3.63707214
H      -0.06715125      0.30514868     -3.38147383
H       0.71311886     -1.24969959     -3.48756046
C       0.63578135     -0.43200087     -1.16291296
H       1.85390600     -0.21360835     -1.33981332
C       0.07738745      0.61579553      0.12635615
H       1.06394106     -1.51329249     -0.72188215
H      -0.43324259      1.60500595     -0.42012084
H       0.95839834      1.45602803      0.39362726
C      -0.72998178      0.22115864      1.63813630
H      -0.03506876      0.52572323      2.62564821
C       3.21056979      3.53809122    -10.57125581
H      -0.42657577     -0.94106361      1.95975288
H       2.56455409      4.34622000    -11.03061944
H       0.47683780      9.63659519     12.19827986
C      11.31363008     -4.47115500     -9.24400149
H      -7.24552208      0.62316554     -0.70689405
H      -7.40528515     -1.01061767     -0.09444573
C      -8.96190086     -0.60739563     -1.68940732
H      -9.72869035      0.22791766     -2.11543921
C      -7.68066973     -0.14293108     10.51761888
H      -9.73222862     -1.54252218     -1.69777329
H      -7.73304051      0.74434838      9.76660577
H      -7.61841275     -1.00619902     11.29537309
C      -2.38836828      0.52410918      2.10502738
H      -2.72891596      1.45549849      1.36006641
C      -3.43809988      0.94433647      3.41856738
H      -2.89638657     -0.58083639      1.87272106
H      -3.30499928      2.01754733      4.02530535
H      -3.52133663      0.23895697      4.43619887
H      -4.67100259      1.04313235      3.25122835
H      10.88421855     -3.39040532     -8.95157706
H      11.83621275     -4.64034168    -10.30993267
H      11.22047335     -5.38270993     -8.47049269
H       3.78880210     -3.51407812     17.01421254
H       1.69908636     -4.16389702     19.10678018
H      11.06981150     -4.67828407     10.72594786
H      14.02881898     -4.49282695     11.26313685
H      -1.67071813     -4.18020853     18.40966033
H       7.36710563      7.45135476      0.66687928
H      -1.26468429     10.01925813     14.99415718
H       9.09570319      7.13041624      3.73930450
H      15.46068529     -2.50455209      1.02272349
H      -1.15507751      8.75794616     12.33303210
H      18.18079610     -1.04888997      1.84903730
H      17.59956142     -1.86921406     -1.21108117
H      12.35102722     -1.87540925      3.18299515
H      20.49320896     -1.61887667     -0.41879819
H       7.66330783      5.97672606      3.27896789
C      11.01624651     -2.97857697     12.33375044
C      11.60457868     -3.59726577     10.97071194
C       2.62577614     -3.19179721     16.96452401
C       1.46689889     -3.56162697     18.06938348
C      13.25447632     -3.58804055     11.06331209
C       7.96548124      7.80775059      1.65521553
C       7.99577098      7.16023330      3.18208332
C      -0.69486143      9.89575016     12.50558352
C      -1.06774353     10.69024993     13.97125038
C      15.89676799     -1.56017950      1.68396344
C      17.29190033     -0.79081872      1.02090183
C      18.01349763     -0.89196514     -0.56023800
C      19.71006519     -0.77439478     -0.88267569
C      14.41434600     -1.05024070      2.10835501
C      12.97211848     -0.93993050      2.76175353
H      20.19325791     -0.83358792     -2.02418556
H      -2.49738732     -2.68791499     -1.22284713
H      10.74009163     -2.40859478     13.32150659
H      -1.37657283     -2.64462088     19.26273119
H      11.10105114     -2.99244628     10.02550370
H      14.01634685     -2.65317038     10.98677690
H       2.53824070     -2.54570985     15.94852858
H       8.52934161      8.77954213      1.20827989
H      -0.24328255     11.48964491     14.43699674
H       7.26051579      7.74944266      3.97923680
H      16.08378692     -2.03340804      2.80916613
H      -1.01023227     10.45932573     11.44759365
H      17.18784416      0.41232219      1.32584628
H      17.38945196     -0.15779255     -1.35280499
H      12.37901078      0.08151311      2.93378926
H      20.32896738      0.25750819     -0.57712747
H      -2.08811384     11.39241511     14.02058155
   94

C      -6.05325891     -0.95878602     -2.28230898
C      -4.46419614     -1.28849525     -1.67967880
H      -6.02495237     -0.21031976     -3.27871079
C      -7.35929365     -0.50115317     -1.23262682
H      -6.35271164     -1.85320826     -3.09449248
H      -4.10527582     -0.15320331     -1.35609804
C      -2.88920763     -1.82578043     -2.00452821
H      -4.71127301     -2.19859374     -0.87875823
H      -6.13203688     -3.90461957    -11.56665155
H      -6.12432575     -4.67401231    -11.43868529
C      -1.62417094     -1.53405810     -3.07777382
H      -2.18257885     -1.08840761     -4.09258319
C      -0.12301446     -0.73999569     -2.70833645
H      -1.51557937     -2.63592074     -3.64483849
H      -0.07069726      0.30949819     -3.37879528
H       0.71383007     -1.24234184     -3.48913505
C       0.63289780     -0.43373213     -1.16228828
H       1.85250136     -0.22072478     -1.33516649
C       0.07754763      0.61718331      0.12540919
H       1.05427850     -1.51746791     -0.72094207
H      -0.43351280      1.60598577     -0.42136005
H       0.95770726      1.45909833      0.39021717
C      -0.72699507      0.22315139      1.63834802
H      -0.03244803      0.53114783      2.62504114
C       3.20869440      3.54000097    -10.57161878
H      -0.42142636     -0.93715733      1.96508682
H       2.56267492      4.34813015    -11.03097629
H       0.47789682      9.63699009     12.20190001
C      11.30283532     -4.47945464     -9.26464060
H      -7.24507129      0.62348830     -0.71413954
H      -7.40588923     -1.00888974     -0.09952100
C      -8.96111316     -0.60817386     -1.69656170
H      -9.72754902      0.22663337     -2.12422860
C      -7.73099003     -0.11719274     10.49193220
H      -9.73133439     -1.54339380     -1.70480046
H      -7.78381766      0.76911204      9.73982209
H      -7.66971169     -0.98249693     11.26747193
C      -2.38624518      0.52467860      2.10094497
H      -2.73146793      1.45278937      1.35385880
C      -3.42827480      0.94535720      3.41983012
H      -2.89665164     -0.57805927      1.86320112
H      -3.28913546      2.01858204      4.02513563
H      -3.50624508      0.23856299      4.43682822
H      -4.66177668      1.04548378      3.25863545
H      10.87342481     -3.39870385     -8.97221851
H      11.82540755     -4.64864707    -10.33057602
H      11.20969366     -5.39100228     -8.49112135
H       3.88343094     -3.51886200     17.07306715
H       1.66873527     -4.11815458     19.11349025
H      11.20663618     -4.70507666     10.72175285
H      14.16623640     -4.52234259     11.25175273
H      -2.51600626     -4.20535000     18.96950807
H       7.36724040      7.45146893      0.66686399
H      -1.26276752     10.01876317     14.99396795
H       9.09610404      7.13070151      3.73849971
H      15.48768425     -2.49599853      0.97429816
H      -1.15708442      8.75912375     12.33017539
H      18.20458474     -1.02166865      1.80685992
H      17.62113692     -1.85512516     -1.25606736
H      12.37539286     -1.85532459      3.13051700
H      20.51350779     -1.60456667     -0.46682026
H       7.66306343      5.97676187      3.27963108
C      11.15371703     -3.00393696     12.32411587
C      11.74291425     -3.62385883     10.96203526
C       2.73013261     -3.17760158     16.99063457
C       1.54594189     -3.52792877     18.05989115
C      13.39295827     -3.61656319     11.05218663
C       7.96555288      7.80776947      1.65526698
C       7.99574204      7.16015264      3.18209526
C      -0.69492627      9.89571709     12.50545214
C      -1.06735855     10.69035737     13.97114294
C      15.92378617     -1.55226533      1.63639035
C      17.31521504     -0.77472066      0.97582834
C      18.03465334     -0.87720578     -0.60603366
C      19.73068554     -0.75951440     -0.93018862
C      14.44300136     -1.03841990      2.06068091
C      12.99999864     -0.92176120      2.71042936
H      20.21254784     -0.81808003     -2.07227957
H      -2.50065601     -2.69828499     -1.23520100
H      10.86851672     -2.44182213     13.31376718
H      -2.24284810     -2.77709122     19.76145246
H      11.24001507     -3.02072007     10.01538546
H      14.15640868     -2.68329057     10.97232322
H       2.64870118     -2.53531649     15.97357958
H       8.52960465      8.77949405      1.20841212
H      -0.24357298     11.49093821     14.43607372
H       7.26017173      7.74880009      3.97937132
H      16.11186084     -2.03632957      2.75682716
H      -1.01037084     10.45764538     11.44662243
H      17.20708562      0.42819918      1.28010658
H      17.40878072     -0.14438372     -1.39842104
H      12.41126244      0.10277968      2.87885343
H      20.34960522      0.27259979     -0.62551878
H      -2.08792337     11.39215111     14.02124041
   94

C      -6.05237332     -0.96108810     -2.28678359
C      -4.46344814     -1.29048081     -1.68364216
H      -6.02349057     -0.21357699     -3.28387875
C      -7.35886118     -0.50146025     -1.23850791
H      -6.35162706     -1.85687225     -3.09751165
H      -4.10367220     -0.15524333     -1.36107749
C      -2.88988500     -1.83021296     -2.01153841
H      -4.71007259     -2.19618225     -0.87760696
H      -6.13261976     -3.90538960    -11.56880342
H      -6.12490874     -4.67478201    -11.44083517
C      -1.62371931     -1.53409911     -3.08243219
H      -2.18164813     -1.08841119     -4.09750202
C      -0.12460491     -0.73788473     -2.70900852
H      -1.51172432     -2.63403405     -3.65252274
H      -0.07425816      0.31381286     -3.37605968
H       0.71453020     -1.23499325     -3.49060295
C       0.62998434     -0.43546269     -1.16160497
H       1.85102923     -0.22785012     -1.33046219
C       0.07768801      0.61855659      0.12452409
H       1.04457169     -1.52160411     -0.71995288
H      -0.43380608      1.60695754     -0.42252192
H       0.95700350      1.46213848      0.38685809
C      -0.72402139      0.22513163      1.63862418
H      -0.02981945      0.53653169      2.62448149
C       3.20681912      3.54190652    -10.57197114
H      -0.41630255     -0.93324753      1.97045035
H       2.56079634      4.35003591    -11.03132352
H       0.47892678      9.63715638     12.20562019
C      11.29204470     -4.48774867     -9.28526051
H      -7.24460600      0.62379402     -0.72132216
H      -7.40647391     -1.00717978     -0.10454595
C      -8.96030710     -0.60896089     -1.70366244
H      -9.72638374      0.22533807     -2.13297188
C      -7.78026384     -0.09197913     10.46731992
H      -9.73042158     -1.54427420     -1.71178059
H      -7.83392665      0.79315907      9.71390393
H      -7.71921830     -0.95903328     11.24091019
C      -2.38411910      0.52521514      2.09697940
H      -2.73401740      1.45005263      1.34782262
C      -3.41841644      0.94630674      3.42118803
H      -2.89689790     -0.57528987      1.85381037
H      -3.27327187      2.01953405      4.02503011
H      -3.49113676      0.23809237      4.43752117
H      -4.65248649      1.04775065      3.26613474
H      10.86263608     -3.40699672     -8.99283972
H      11.81460380     -4.65694758    -10.35120140
H      11.19891938     -5.39928833     -8.51172982
H       3.97830361     -3.52073089     17.12571467
H       1.64826683     -4.08302430     19.13713639
H      11.34356917     -4.73176571     10.71735537
H      14.30374114     -4.55180926     11.24019290
H      -3.37014937     -4.21308899     19.50016363
H       7.36738518      7.45155199      0.66686876
H      -1.26085519     10.01799433     14.99388677
H       9.09652141      7.13094244      3.73771054
H      15.51464793     -2.48742994      0.92594979
H      -1.15908186      8.76005598     12.32744045
H      18.22819744     -0.99453530      1.76466458
H      17.64267289     -1.84104416     -1.30102386
H      12.39981771     -1.83525315      3.07823039
H      20.53376210     -1.59026699     -0.51478114
H       7.66283985      5.97675366      3.28030976
C      11.29131112     -3.02917404     12.31427490
C      11.88135293     -3.65036362     10.95314752
C       2.83239999     -3.16767827     17.02339750
C       1.64599927     -3.51086819     18.07573063
C      13.53154368     -3.64503668     11.04083193
C       7.96563786      7.80775310      1.65533809
C       7.99572975      7.16002902      3.18212415
C      -0.69500822      9.89544067     12.50542926
C      -1.06698688     10.69020589     13.97115423
C      15.95077510     -1.54431724      1.58886356
C      17.33847251     -0.75864185      0.93078788
C      18.05576798     -0.86246243     -0.65178817
C      19.75126540     -0.74464581     -0.97764778
C      14.47163888     -1.02662706      2.01314189
C      13.02789538     -0.90361972      2.65924030
H      20.23180654     -0.80258086     -2.12031435
H      -2.50396322     -2.70859050     -1.24755154
H      10.99706658     -2.47504296     13.30574513
H      -3.11900614     -2.89265686     20.23164825
H      11.37909534     -3.04892834     10.00503866
H      14.29657783     -2.71338328     10.95762020
H       2.74487632     -2.52680150     16.00760821
H       8.52987524      8.77941520      1.20856616
H      -0.24388220     11.49197645     14.43526655
H       7.25984477      7.74811243      3.97952448
H      16.13996602     -2.03909560      2.70445257
H      -1.01053297     10.45572939     11.44576887
H      17.22631068      0.44404234      1.23442000
H      17.42807711     -0.13098464     -1.44399103
H      12.44351932      0.12398339      2.82398509
H      20.37019864      0.28767890     -0.67384839
H      -2.08774613     11.39162651     14.02202254
   94

C      -6.05148235     -0.96339391     -2.29120416
C      -4.46269593     -1.29245122     -1.68754601
H      -6.02202802     -0.21683744     -3.28899127
C      -7.35841857     -0.50178155     -1.24433101
H      -6.35053583     -1.86053750     -3.10047504
H      -4.10207127     -0.15726926     -1.36599012
C      -2.89056894     -1.83461345     -2.01851562
H      -4.70882449     -2.19375572     -0.87643916
H      -6.13320101     -3.90615817    -11.57094494
H      -6.12549014     -4.67555028    -11.44297487
C      -1.62327297     -1.53414025     -3.08703986
H      -2.18070987     -1.08842144     -4.10238009
C      -0.12621330     -0.73578418     -2.70962526
H      -1.50787082     -2.63213791     -3.66013019
H      -0.07783977      0.31809286     -3.37327670
H       0.71521328     -1.22765417     -3.49197200
C       0.62703436     -0.43718879     -1.16087155
H       1.84948280     -0.23497993     -1.32570973
C       0.07779881      0.61991970      0.12369081
H       1.03481484     -1.52569654     -0.71892190
H      -0.43413142      1.60792529     -0.42361775
H       0.95627728      1.46515289      0.38353992
C      -0.72107562      0.22710662      1.63895340
H      -0.02719914      0.54188327      2.62395859
C       3.20494357      3.54380839    -10.57231440
H      -0.41121810     -0.92932696      1.97583270
H       2.55891784      4.35193784    -11.03166245
H       0.47989304      9.63714849     12.20943204
C      11.28125813     -4.49603747     -9.30586400
H      -7.24413279      0.62408176     -0.72844180
H      -7.40704453     -1.00548884     -0.10952009
C      -8.95948910     -0.60975753     -1.71070762
H      -9.72520126      0.22403102     -2.14166622
C      -7.82872109     -0.06742541     10.44416799
H      -9.72949662     -1.54516411     -1.71871012
H      -7.88349217      0.81628341      9.68914707
H      -7.76732749     -0.93576984     11.21629045
C      -2.38200512      0.52572694      2.09312432
H      -2.73657645      1.44729576      1.34194866
C      -3.40854833      0.94719330      3.42262979
H      -2.89713938     -0.57252082      1.84454250
H      -3.25743513      2.02041253      4.02497757
H      -3.47604170      0.23755543      4.43826790
H      -4.64315566      1.04994172      3.27371266
H      10.85185226     -3.41528426     -9.01344352
H      11.80380150     -4.66524360    -10.37181152
H      11.18815040     -5.40756853     -8.53232099
H       4.08159015     -3.51630415     17.16348776
H       1.67359990     -4.05960060     19.16810892
H      11.48067666     -4.75836601     10.71270412
H      14.44138622     -4.58123597     11.22844635
H      -4.26539411     -4.20986290     20.02342630
H       7.36754082      7.45161008      0.66688390
H      -1.25898979     10.01699463     14.99390904
H       9.09695778      7.13114779      3.73692613
H      15.54158740     -2.47884895      0.87767418
H      -1.16110862      8.76079990     12.32481327
H      18.25164640     -0.96749367      1.72244503
H      17.66417447     -1.82697028     -1.34595687
H      12.42430666     -1.81519271      3.02610562
H      20.55397810     -1.57597644     -0.56268834
H       7.66263912      5.97670998      3.28099292
C      11.42912156     -3.05429797     12.30418088
C      12.01995843     -3.67679447     10.94399639
C       2.93984234     -3.15846840     17.05346914
C       1.77247505     -3.50758675     18.10911098
C      13.67029140     -3.67346931     11.02922337
C       7.96573744      7.80770830      1.65541854
C       7.99573618      7.15987099      3.18216003
C      -0.69514183      9.89497546     12.50550695
C      -1.06666558     10.68983958     13.97128139
C      15.97774385     -1.53633551      1.54137686
C      17.36168189     -0.74258232      0.88577509
C      18.07684729     -0.84773433     -0.69750810
C      19.77181030     -0.72978782     -1.02505956
C      14.50026683     -1.01485754      1.96572222
C      13.05581475     -0.88550075      2.60816432
H      20.25103856     -0.78708844     -2.16829668
H      -2.50731432     -2.71882901     -1.25990331
H      11.12589915     -2.50823888     13.29739459
H      -4.03529700     -2.99738430     20.69516038
H      11.51835200     -3.07707905      9.99441814
H      14.43690660     -2.74345142     10.94265688
H       2.83318120     -2.51659208     16.04190812
H       8.53015479      8.77931224      1.20873180
H      -0.24424726     11.49280170     14.43457586
H       7.25953689      7.74738849      3.97968592
H      16.16810820     -2.04170232      2.65204072
H      -1.01075010     10.45363621     11.44502596
H      17.24552978      0.45985159      1.18878319
H      17.44734571     -0.11759427     -1.48952031
H      12.47578791      0.14512919      2.76916357
H      20.39075281      0.30274685     -0.72212236
H      -2.08761915     11.39088553     14.02292473
   94

C      -6.05059205     -0.96570268     -2.29558309
C      -4.46194408     -1.29440633     -1.69140611
H      -6.02057127     -0.22010033     -3.29406076
C      -7.35797168     -0.50211676     -1.25010805
H      -6.34944448     -1.86420323     -3.10339487
H      -4.10047786     -0.15928034     -1.37085347
C      -2.89126294     -1.83898064     -2.02547357
H      -4.70753351     -2.19131496     -0.87527100
H      -6.13378148     -3.90692563    -11.57307834
H      -6.12607082     -4.67631746    -11.44510660
C      -1.62283368     -1.53418101     -3.09160921
H      -2.17976576     -1.08843835     -4.10723001
C      -0.12784075     -0.73369417     -2.71020034
H      -1.50402093     -2.63023251     -3.66767220
H      -0.08144265      0.32233751     -3.37046123
H       0.71587802     -1.22032615     -3.49325521
C       0.62404834     -0.43890854     -1.16010290
H       1.84786257     -0.24211244     -1.32092410
C       0.07788000      0.62127791      0.12289105
H       1.02500830     -1.52974257     -0.71786225
H      -0.43448666      1.60889424     -0.42466791
H       0.95552902      1.46814598      0.38024546
C      -0.71816301      0.22908404      1.63931495
H      -0.02459471      0.54721126      2.62345312
C       3.20306820      3.54570718    -10.57265048
H      -0.40617875     -0.92538807      1.98121458
H       2.55703977      4.35383654    -11.03199482
H       0.48078398      9.63705794     12.21330191
C      11.27047600     -4.50432112     -9.32645155
H      -7.24365802      0.62435218     -0.73551104
H      -7.40760629     -1.00381638     -0.11445516
C      -8.95866580     -0.61056379     -1.71770657
H      -9.72400931      0.22271264     -2.15031800
C      -7.87688113     -0.04346332     10.42243279
H      -9.72856651     -1.54606325     -1.72559539
H      -7.93280640      0.83855807      9.66550062
H      -7.81499462     -0.91261265     11.19363838
C      -2.37990995      0.52622560      2.08935338
H      -2.73914692      1.44452922      1.33620608
C      -3.39868869      0.94803650      3.42411823
H      -2.89738242     -0.56974150      1.83537350
H      -3.24164495      2.02123876      4.02493890
H      -3.46098484      0.23697391      4.43903239
H      -4.63380210      1.05207757      3.28132799
H      10.84107381     -3.42356655     -9.03403042
H      11.79300095     -4.67353525    -10.39240691
H      11.17738712     -5.41584296     -8.55289532
H       4.18933491     -3.50862684     17.19362604
H       1.72628546     -4.04104776     19.19932606
H      11.61788825     -4.78487956     10.70786433
H      14.57910298     -4.61062044     11.21655462
H      -5.18320860     -4.20228287     20.54528135
H       7.36770934      7.45164472      0.66690629
H      -1.25719409     10.01586334     14.99400162
H       9.09741530      7.13131919      3.73614358
H      15.56850573     -2.47025846      0.82947860
H      -1.16318313      8.76145617     12.32225098
H      18.27493661     -0.94054963      1.68020405
H      17.68564105     -1.81290438     -1.39086350
H      12.44885675     -1.79514458      2.97413487
H      20.57415638     -1.56169513     -0.61054229
H       7.66246304      5.97663292      3.28167740
C      11.56705363     -3.07933078     12.29391049
C      12.15865508     -3.70315221     10.93465619
C       3.05015516     -3.14910148     17.08114347
C       1.91144183     -3.50994734     18.14920434
C      13.80912658     -3.70185817     11.01742810
C       7.96585389      7.80763651      1.65550509
C       7.99576362      7.15968050      3.18219979
C      -0.69533826      9.89441812     12.50564968
C      -1.06641152     10.68935267     13.97148904
C      16.00469330     -1.52832089      1.49393593
C      17.38484486     -0.72654470      0.84079359
C      18.09789128     -0.83302241     -0.74319084
C      19.79232000     -0.71494063     -1.07242324
C      14.52888455     -1.00310993      1.91842082
C      13.08375498     -0.86740376      2.55719824
H      20.27024280     -0.77160224     -2.21622623
H      -2.51071236     -2.72899773     -1.27226872
H      11.25486698     -2.54145879     13.28879056
H      -4.97343174     -3.09793495     21.15765656
H      11.65771308     -3.10517221      9.98359648
H      14.57732040     -2.77349401     10.92748307
H       2.91817865     -2.50531111     16.07567684
H       8.53044538      8.77918675      1.20890596
H      -0.24468439     11.49350579     14.43396936
H       7.25925043      7.74663074      3.97985216
H      16.19628527     -2.04414737      2.59960171
H      -1.01102931     10.45146221     11.44435658
H      17.26474616      0.47562437      1.14320166
H      17.46658570     -0.10421331     -1.53500542
H      12.50806660      0.16621702      2.71438808
H      20.41126733      0.31780352     -0.77033981
H      -2.08756042     11.39002108     14.02391050
   94

C      -6.04970450     -0.96801373     -2.29993552
C      -4.46119383     -1.29634604     -1.69523929
H      -6.01912248     -0.22336507     -3.29910240
C      -7.35752380     -0.50246470     -1.25585583
H      -6.34835565     -1.86786887     -3.10628589
H      -4.09889334     -0.16127605     -1.37568567
C      -2.89196706     -1.84331393     -2.03242553
H      -4.70620171     -2.18886085     -0.87411996
H      -6.13436171     -3.90769237    -11.57520613
H      -6.12665127     -4.67708394    -11.44723278
C      -1.62239986     -1.53422141     -3.09615200
H      -2.17881389     -1.08846224     -4.11206382
C      -0.12948518     -0.73161545     -2.71074587
H      -1.50017357     -2.62831859     -3.67515954
H      -0.08506419      0.32654576     -3.36762625
H       0.71652624     -1.21301115     -3.49446434
C       0.62103074     -0.44062193     -1.15931249
H       1.84617303     -0.24924784     -1.31611880
C       0.07793766      0.62263472      0.12210838
H       1.01515618     -1.53374166     -0.71678592
H      -0.43486351      1.60986804     -0.42569068
H       0.95476521      1.47112032      0.37695966
C      -0.71527953      0.23106793      1.63969060
H      -0.02200479      0.55252031      2.62294856
C       3.20119367      3.54760341    -10.57298102
H      -0.40118192     -0.92142704      1.98657938
H       2.55516265      4.35573249    -11.03232216
H       0.48161026      9.63695705     12.21719567
C      11.25969864     -4.51259973     -9.34702332
H      -7.24318504      0.62460680     -0.74254740
H      -7.40816194     -1.00216102     -0.11936790
C      -8.95784107     -0.61137916     -1.72467407
H      -9.72281299      0.22138393     -2.15893887
C      -7.92526495     -0.01981336     10.40154917
H      -9.72763559     -1.54697075     -1.73244859
H      -7.98217312      0.86036005      9.64250671
H      -7.86317734     -0.88946457     11.17221388
C      -2.37783125      0.52671957      2.08563719
H      -2.74172221      1.44176077      1.33056180
C      -3.38884224      0.94885574      3.42561430
H      -2.89762493     -0.56694446      1.82627757
H      -3.22590541      2.02203369      4.02487246
H      -3.44597413      0.23636845      4.43977603
H      -4.62443000      1.05417870      3.28893701
H      10.83030111     -3.43184366     -9.05460057
H      11.78220243     -4.68182265    -10.41298774
H      11.16662983     -5.42411171     -8.57345297
H       4.29842505     -3.49958184     17.22074031
H       1.78789757     -4.02287755     19.22839649
H      11.75515322     -4.81130666     10.70288105
H      14.71684343     -4.63996098     11.20454608
H      -6.10720587     -4.19340794     21.06618275
H       7.36789235      7.45165608      0.66693509
H      -1.25546318     10.01469413     14.99412674
H       9.09789500      7.13145663      3.73536259
H      15.59540577     -2.46166096      0.78136901
H      -1.16529939      8.76210673     12.31971272
H      18.29807302     -0.91370834      1.63794404
H      17.70707230     -1.79884718     -1.43574134
H      12.47346386     -1.77510941      2.92230805
H      20.59429771     -1.54742312     -0.65834369
H       7.66231238      5.97652285      3.28236281
C      11.70503776     -3.10428659     12.28351654
C      12.29738925     -3.72943645     10.92517824
C       3.16103653     -3.13980696     17.10819138
C       2.05582812     -3.51486312     18.19255921
C      13.94799679     -3.73020155     11.00549011
C       7.96598873      7.80753778      1.65559700
C       7.99581326      7.15945777      3.18224280
C      -0.69558630      9.89384794     12.50582006
C      -1.06621738     10.68883161     13.97173510
C      16.03162411     -1.52027385      1.44654540
C      17.40796309     -0.71053127      0.79584644
C      18.11890018     -0.81832742     -0.78883426
C      19.81279444     -0.70010439     -1.11973844
C      14.55749107     -0.99138252      1.87123566
C      13.11171374     -0.84932765      2.50633740
H      20.28941844     -0.75612168     -2.26410302
H      -2.51415719     -2.73909460     -1.28465966
H      11.38387224     -2.57472540     13.27997982
H      -5.91762210     -3.19727374     21.61932015
H      11.79712630     -3.13320730      9.97262419
H      14.71776766     -2.80351110     10.91213326
H       3.00077485     -2.49390408     16.11013400
H       8.53074852      8.77903884      1.20908794
H      -0.24518503     11.49417354     14.43340595
H       7.25898662      7.74583976      3.98002237
H      16.22449471     -2.04642868      2.54714444
H      -1.01135635     10.44928346     11.44372060
H      17.28396289      0.49135855      1.09768024
H      17.48579652     -0.09084238     -1.58044350
H      12.54035341      0.18724745      2.65965705
H      20.43174201      0.33284883     -0.81850022
H      -2.08756319     11.38911901     14.02493645
   94

C      -6.04881912     -0.97032652     -2.30427528
C      -4.46044432     -1.29827031     -1.69905978
H      -6.01768086     -0.22663129     -3.30413009
C      -7.35707588     -0.50282385     -1.26159063
H      -6.34726920     -1.87153396     -3.10916161
H      -4.09731688     -0.16325617     -1.38050155
C      -2.89267944     -1.84761320     -2.03938209
H      -4.70482934     -2.18639442     -0.87300107
H      -6.13494194     -3.90845876    -11.57733059
H      -6.12723178     -4.67785006    -11.44935567
C      -1.62196854     -1.53426176     -3.10067776
H      -2.17785102     -1.08849364     -4.11689125
C      -0.13114332     -0.72954890     -2.71127154
H      -1.49632633     -2.62639712     -3.68260087
H      -0.08870081      0.33071663     -3.36478200
H       0.71716083     -1.20571100     -3.49560897
C       0.61798713     -0.44232970     -1.15851121
H       1.84441971     -0.25638694     -1.31130489
C       0.07797976      0.62399223      0.12132973
H       1.00526388     -1.53769417     -0.71570277
H      -0.43525241      1.61084893     -0.42670042
H       0.95399404      1.47407735      0.37367072
C      -0.71241703      0.23305965      1.64006625
H      -0.01942336      0.55781212      2.62243236
C       3.19932058      3.54949752    -10.57330741
H      -0.39622090     -0.91744281      1.99191432
H       2.55328702      4.35762612    -11.03264576
H       0.48239194      9.63688920     12.22108693
C      11.24892615     -4.52087354     -9.36757995
H      -7.24271455      0.62484735     -0.74956773
H      -7.40871208     -1.00052117     -0.12427455
C      -8.95701629     -0.61220285     -1.73162517
H      -9.72161465      0.22004610     -2.16754136
C      -7.97415208      0.00384329     10.38078689
H      -9.72670568     -1.54788551     -1.73928313
H      -8.03177640      0.88213376      9.61958368
H      -7.91233737     -0.86626136     11.15100438
C      -2.37576215      0.52721380      2.08195050
H      -2.74429260      1.43899520      1.32498822
C      -3.37900461      0.94966598      3.42708656
H      -2.89786068     -0.56412563      1.81723316
H      -3.21021047      2.02281341      4.02474448
H      -3.43100539      0.23575456      4.44046755
H      -4.61503449      1.05626098      3.29650436
H      10.81953433     -3.44011579     -9.07515462
H      11.77140601     -4.69010605    -10.43355466
H      11.15587865     -5.43237501     -8.59399456
H       4.40760897     -3.48990758     17.24661558
H       1.85154058     -4.00320380     19.25408337
H      11.89245082     -4.83764939     10.69777519
H      14.85458767     -4.66925819     11.19243612
H      -7.03114016     -4.18456619     21.58690560
H       7.36809114      7.45164440      0.66696964
H      -1.25377651     10.01355259     14.99425329
H       9.09839754      7.13156040      3.73458289
H      15.62229170     -2.45305837      0.73334802
H      -1.16743932      8.76280161     12.31716957
H      18.32106206     -0.88697375      1.59566527
H      17.72846925     -1.78479892     -1.48059022
H      12.49812486     -1.75508665      2.87061007
H      20.61440407     -1.53316008     -0.70609507
H       7.66218758      5.97638034      3.28304885
C      11.84304322     -3.12917581     12.27302547
C      12.43613842     -3.75564884     10.91558741
C       3.27147133     -3.13081490     17.13563404
C       2.20312766     -3.52153900     18.23847013
C      14.08688003     -3.75850015     10.99343154
C       7.96614306      7.80741239      1.65569371
C       7.99588588      7.15920330      3.18228861
C      -0.69586547      9.89331400     12.50598888
C      -1.06606321     10.68833607     13.97198451
C      16.05853839     -1.51219453      1.39920675
C      17.43103977     -0.69454347      0.75093437
C      18.13987552     -0.80364958     -0.83443853
C      19.83323494     -0.68527883     -1.16700667
C      14.58608713     -0.97967289      1.82416146
C      13.13969016     -0.83127014      2.45557295
H      20.30856603     -0.74064586     -2.31192889
H      -2.51764672     -2.74911817     -1.29708542
H      11.51288096     -2.60804301     13.27098186
H      -6.86186122     -3.29658507     22.08070837
H      11.93656860     -3.16118518      9.96152686
H      14.85822641     -2.83350404     10.89662715
H       3.08118956     -2.48290113     16.14609905
H       8.53106537      8.77886876      1.20927720
H      -0.24572797     11.49486389     14.43284976
H       7.25874631      7.74501624      3.98019599
H      16.25273541     -2.04854440      2.49467453
H      -1.01170922     10.44714531     11.44308635
H      17.30318431      0.50705281      1.05222125
H      17.50497897     -0.07748158     -1.62583402
H      12.57264806      0.20822236      2.60496507
H      20.45217802      0.34788314     -0.86660497
H      -2.08760744     11.38823929     14.02596641
   94

C      -6.04876163     -0.97332899     -2.31028994
C      -4.46039386     -1.30138311     -1.70500681
H      -6.01680712     -0.23033353     -3.31062385
C      -7.35767231     -0.50353558     -1.26938994
H      -6.34698928     -1.87627246     -3.11323362
H      -4.09545341     -0.16655077     -1.38834073
C      -2.89534834     -1.85555755     -2.05068825
H      -4.70358915     -2.18115383     -0.86966874
H      -6.13559214     -3.90918666    -11.57942659
H      -6.12788095     -4.67858065    -11.45146792
C      -1.62223042     -1.53497049     -3.10726474
H      -2.17713809     -1.08986306     -4.12432776
C      -0.13528055     -0.72626364     -2.71079311
H      -1.49033504     -2.62375018     -3.69398838
H      -0.09645204      0.33735152     -3.35885320
H       0.71729716     -1.19337377     -3.49575408
C       0.61131281     -0.44438645     -1.15591367
H       1.83981211     -0.26727971     -1.30163752
C       0.07662494      0.62692233      0.12139363
H       0.98688886     -1.54336113     -0.71242842
H      -0.43729781      1.61306297     -0.42721112
H       0.95062277      1.48031312      0.36959961
C      -0.70879301      0.23673400      1.64204877
H      -0.01691007      0.56707275      2.62330235
C       3.19743468      3.55126767    -10.57346766
H      -0.38886660     -0.91008665      2.00301441
H       2.55142786      4.35939515    -11.03284638
H       0.48380671      9.63930139     12.22786023
C      11.23813650     -4.52928911     -9.38837256
H      -7.24339635      0.62482686     -0.75879625
H      -7.41078015     -0.99850634     -0.13094792
C      -8.95710993     -0.61358062     -1.74099082
H      -9.72165604      0.21827398     -2.17774894
C      -8.02688020      0.02824383     10.35802414
H      -9.72672885     -1.54932221     -1.74789125
H      -8.08557670      0.90508467      9.59520836
H      -7.96555354     -0.84285470     11.12718577
C      -2.37367454      0.52853064      2.07603118
H      -2.75049510      1.43388479      1.31498733
C      -3.36422337      0.95174857      3.42931408
H      -2.90015463     -0.55811894      1.80027801
H      -3.18514639      2.02495154      4.02378505
H      -3.40782672      0.23499631      4.44095684
H      -4.60090345      1.06076926      3.30893663
H      10.80872444     -3.44854237     -9.09593824
H      11.76073179     -4.69846858    -10.45429869
H      11.14495341     -5.44085601     -8.61488124
H       4.52283427     -3.48261867     17.27522904
H       1.91171841     -3.97389852     19.26557614
H      12.03428773     -4.86476649     10.69783191
H      14.99661799     -4.70141472     11.18301383
H      -7.96749127     -4.12665008     22.15599554
H       7.36815504      7.45229353      0.66648610
H      -1.25141238     10.01295673     14.99392907
H       9.09837363      7.13305038      3.73290092
H      15.65222982     -2.44765750      0.68459825
H      -1.17118569      8.76569972     12.31193286
H      18.34372716     -0.85078773      1.55760410
H      17.74916005     -1.77129953     -1.52340639
H      12.52459432     -1.73258187      2.81153048
H      20.63258415     -1.52066465     -0.75334837
H       7.66067600      5.97760073      3.28422217
C      11.98385823     -3.15545574     12.26429126
C      12.58024035     -3.78259110     10.90841622
C       3.39036522     -3.12194956     17.16127724
C       2.38491797     -3.53897936     18.29300530
C      14.23120870     -3.78898224     10.98261285
C       7.96603748      7.80798128      1.65532603
C       7.99511711      7.16008439      3.18204950
C      -0.69656501      9.89406429     12.50584987
C      -1.06587981     10.68904112     13.97207922
C      16.08762764     -1.50663429      1.35074312
C      17.45474245     -0.67681378      0.70772201
C      18.16019275     -0.78920933     -0.87862518
C      19.85271044     -0.67130269     -1.21369503
C      14.61798147     -0.96587922      1.77329156
C      13.17028788     -0.81065069      2.39901396
H      20.32612595     -0.72545537     -2.35944311
H      -2.52589292     -2.76783336     -1.31873604
H      11.64250109     -2.64367815     13.26337712
H      -7.83919257     -3.45442660     22.53023481
H      12.08285208     -3.19084937      9.95144821
H      15.00529618     -2.86662031     10.88299349
H       3.15025865     -2.47103761     16.18826016
H       8.53145082      8.77920525      1.20901116
H      -0.24654727     11.49724779     14.43183857
H       7.25732289      7.74508431      3.97994005
H      16.28311184     -2.06108761      2.43705385
H      -1.01341503     10.44430102     11.44140046
H      17.32189176      0.52422231      1.00883178
H      17.52261403     -0.06514583     -1.66981034
H      12.60969646      0.23301483      2.54337033
H      20.47196136      0.36197415     -0.91452032
H      -2.08736312     11.38886595     14.02737861
