   94
energy=      0.00000000
C       6.63308386     -6.77052254    -12.39786048
C      -3.35569144    -13.02556211    -10.14009783
H       7.31306708     -6.04332059    -11.72949264
C      -0.22274628     -0.78835104      8.35107716
H      -5.69420875      8.54935342     -2.38439514
H      -3.58951429    -12.23746093     -9.31644218
C       0.81358302     -0.66232352      9.64698305
H       6.29850558     -7.83961085    -11.97002203
H      -8.99345267     -6.98429966    -19.16300426
H      -8.98574148     -7.75369366    -19.03504559
C       3.95737243     -0.10540374     -3.30591869
H      16.72312776      5.80269951     13.90358024
C       8.37738649     -9.93600037      5.30935113
H       8.17639050     10.96535530     -2.14131145
H       8.47402770     -9.20706402      4.41033397
H       2.50425844    -10.90118632     17.33758517
C       6.96653596    -10.64611677      7.55811616
H       5.82616901    -10.74230059      7.09148799
C       7.50362091     11.09883565      0.04023125
H       6.34533815    -10.45449566      8.59830087
H      11.29799310     15.62402638      8.92462761
H       6.74806122     11.71214516      0.69616439
C       8.24168812     10.27820570     -1.12686720
H      16.85665692      2.91566089     -5.08201493
C      15.75282822      2.69569544     -4.97145247
H       2.04321060      1.01595818     -2.68030635
H       7.67750397      9.19295872     -1.23012334
H      -2.55067627     10.61270788     11.84234469
C      17.07986024    -10.73849430     -8.03878360
H      -1.43090370     -0.72101742      8.50000963
H      -5.60044781      8.35040481     -0.46187760
C       0.91866815     -2.25941339     -2.34308376
H       0.80976727     -1.82337462     10.06538338
C       1.47819573    -10.71751696     17.93036419
H       0.34841366     -2.15283344     -1.28405413
H     -10.96213609    -12.27297242     15.66815272
H       1.07348491     -9.60107587     18.09678088
C      -0.21967459     -0.49483014     -4.05607950
H      -2.52529319      8.61927460     -1.01487319
C      -3.21393614     10.87939775     -1.58792346
H      -1.22546174     -0.01185906     -4.42661637
H      -3.43189893     11.56809328     -0.58605282
H      -2.08156890     11.21389046     -1.94442631
H      -3.82187787     11.47570482     -2.47925387
H      17.50792179    -10.25627304     -9.05905299
H      17.16197733    -11.86961980     -8.45173835
H      16.86427353    -10.80611090     -5.61071172
H       3.56551075      1.38698437      7.85620611
H       0.26318051      0.14170876     10.40298726
H       0.85684386    -11.65028868     18.35672652
H       4.55437501     -0.36212767     -4.31516682
H      -9.42675544     -2.95204824     23.99740376
H       4.85874616     15.53074882     20.74869519
H      10.43738687     13.90097816      9.63708503
H       3.24097268     -0.22768277     12.20351765
H      26.59648769      7.39426669     -2.17327341
H      -4.58447432      9.53358348     11.50190833
H      27.28666125      7.54264242     -1.84154386
H       0.47726930     -2.06478355      6.27417187
H       8.49949482    -12.15172171      6.33072457
H       6.28778690     -6.42841219    -13.49406081
H       4.54533415     -0.83677634     10.99826675
C       0.05220669     -1.05514858      6.77315437
C     -10.36016020    -12.21606716     16.66242232
C       3.06356207      0.72775348      8.67779169
C       2.38970821     -0.16638460      9.79461193
C       5.02368236      0.20338342     -2.18879463
C       9.42307722     15.95433182     10.39782347
C       3.42304355     -0.40889465     11.02742384
C      -3.56757530     10.07314568     11.67212651
C      10.44589310     15.09458445      9.57431399
C      -4.89462020      8.31825007     -1.47492409
C       1.16264351     -1.15108860     -3.54652842
C       2.34422639     -0.05196360     -3.16630822
C      16.62248178    -10.08670689     -6.58171679
C      -3.51393141      9.25192072     -1.35789228
C       8.05835125    -11.02613121      6.40637476
H       9.43397113     10.01095113     -1.00646402
H      -3.12186862    -13.81366329    -10.96375348
H      15.43584648     -9.80475218     -6.38823394
H      -9.29845674     -2.27982476     24.37164303
H      -9.75818431    -12.15916191     17.65669192
H      16.54729336      6.55615262     13.80463281
H       5.81634149      0.50722985     -1.38824461
H       5.55496421     15.73735782     21.03328813
H       8.79188292     16.59502987     11.13836340
H       1.40130277     -1.71402904     -4.61573870
H      -4.75980283      7.11527917     -1.71095687
H      -7.60795336     21.24264704      9.77839831
H       1.27122960     -3.41101705     -2.25805516
H      -0.13462330     -0.27716068      5.87384099
H       8.08343637    -10.42732922      7.99270832
H      17.18289552     -9.02055566     -6.32100913
H      -7.74116489     21.25126624     10.54689060
   94
energy=      0.00000000
C       6.73683464     -6.93192143    -12.66255459
C      -3.33980010    -13.05152339    -10.13445385
H       7.41682211     -6.20477757    -11.99412098
C      -0.94585504     -0.86088582      8.32201843
H      -5.69615984      8.55460446     -2.38794014
H       1.89800292     -2.62422955      7.36979442
C       0.40776048     -1.42019148      9.09156253
H       6.40222979     -8.00101769    -12.23476905
H      -9.00629938     -6.97077983    -19.18209263
H      -8.99858819     -7.74017383    -19.05413396
C       3.97063502     -0.02135476     -3.81054580
H      16.72363321      5.80198554     13.90388221
C       8.58237021    -10.34228883      5.13910824
H       8.19960904     10.91726134     -2.20135047
H       8.75081065     -9.51101966      4.33781149
H       2.50425844    -10.90118632     17.33758517
C       7.23772447    -10.94272308      7.55285880
H       6.10659783    -11.01633295      7.07130541
C       7.46435132     11.10245094     -0.01362052
H       6.57597681    -10.83782082      8.57292119
H      11.29563373     15.62083628      8.91487288
H       6.82676253     11.71161643      0.76072069
C       8.23486207     10.27530800     -1.15572306
H      16.85665692      2.91566089     -5.08201493
C      15.75282822      2.69569544     -4.97145247
H       2.05562769      1.10877271     -3.20168027
H       7.70431141      9.17611190     -1.28712596
H      -2.55067572     10.61270638     11.84234489
C      17.10329621    -10.74601716     -8.03602738
H      -1.97551356     -0.49136991      8.86457136
H      -5.60623022      8.35010615     -0.46121888
C       0.93825619     -2.18241762     -2.83296339
H       0.14076384     -2.32149993      9.90807751
C       1.47819573    -10.71751696     17.93036419
H       0.36199693     -2.07295429     -1.77754567
H     -10.96213609    -12.27297242     15.66815272
H       1.07348491     -9.60107587     18.09678088
C      -0.20201321     -0.42790132     -4.54594654
H      -2.53092818      8.61680501     -1.01355955
C      -3.22324074     10.87754378     -1.58838790
H      -1.21202664      0.05528787     -4.90380078
H      -3.44257574     11.56553127     -0.58632377
H      -2.09268045     11.21562223     -1.94699828
H      -3.83297650     11.47174103     -2.47992055
H      17.49807023    -10.21490133     -9.04760615
H      17.13593471    -11.89525256     -8.40946682
H      16.89414180    -10.79555033     -5.59054735
H       2.98701484      0.54119174      7.17703927
H       0.38903640     -0.53135732      9.95159662
H       0.85684386    -11.65028868     18.35672652
H       4.56788854     -0.26036477     -4.82418196
H      -9.42675544     -2.95204824     23.99740376
H       4.85331557     15.53096836     20.76089637
H      10.43490143     13.90855438      9.62745870
H       3.09993434     -1.27003026     10.50803078
H      26.59648769      7.39426669     -2.17327341
H      -4.58447377      9.53358198     11.50190853
H      27.28666125      7.54264242     -1.84154386
H      -0.87689899     -1.74989165      6.03926699
H       8.72669066    -12.43757123      6.09412320
H       6.39146719     -6.58993912    -13.75877323
H       4.05253961     -1.68449426      9.93919104
C      -0.91453148     -0.75133782      6.70987288
C     -10.36016020    -12.21606716     16.66242232
C       2.53937771     -0.53642860      7.34569195
C       1.85816133     -1.71016896      8.22870720
C       5.02920381      0.26083665     -2.67960691
C       9.46291532     15.96356143     10.44955885
C       2.99594357     -1.71841876      9.41061607
C      -3.56757474     10.07314418     11.67212671
C      10.46433894     15.10305605      9.59986932
C      -4.90173794      8.31843575     -1.47522463
C       1.18405690     -1.07762960     -4.03931007
C       2.35794635      0.03328768     -3.67060779
C      16.65588364    -10.09490235     -6.57709157
C      -3.51948735      9.24955745     -1.35706268
C       8.20020562    -11.36502936      6.28289639
H       9.42160791     10.05155274     -0.93483569
H      -3.11177660    -13.81826260    -10.93541594
H      15.45473995     -9.83784012     -6.45868373
H      -9.29845674     -2.27982476     24.37164303
H      -9.75818431    -12.15916191     17.65669192
H      16.54779880      6.55543865     13.80493478
H       5.81244158      0.54428796     -1.86279704
H       5.54953362     15.73757736     21.04548932
H       8.76176623     16.60515248     11.12392755
H       1.43075963     -1.64581733     -5.10399525
H      -4.77530963      7.11455124     -1.71085470
H      -7.60795419     21.24264930      9.77839801
H       1.28892664     -3.33418981     -2.74215757
H      -0.74597587      0.22989296      6.03209049
H       8.11487572    -10.53968480      8.31322912
H      17.20269842     -9.02895730     -6.28460286
H      -7.74116572     21.25126849     10.54689030
