   94
energy=      0.00000000
C      -4.53205268     -0.43906908     -0.65326787
C      -2.84057114     -0.48143788     -0.57556631
H      -4.84268028      0.40200361     -1.51773383
C      -5.49916408     -0.19646327      0.73090951
H      -4.90516887     -1.47582730     -1.22777248
H      -2.41994077      0.62171391     -0.22363341
C      -1.78543827     -0.71865798     -1.77214078
H      -2.40927952     -1.35782854      0.18380231
H      -3.55186346     -2.47344322    -10.65328387
H      -3.54415227     -3.24283722    -10.52532521
C      -0.23802057     -0.73509585     -2.20197010
H      -0.51989576      0.41602450     -2.55331722
C       1.43464039     -0.56396880     -2.32183999
H      -0.30287567     -1.94375439     -1.92945157
H       1.75251622     -0.02154820     -3.40644584
H       1.87223965     -1.46446526     -3.07766319
C       2.10429222     -0.09508175     -0.77507753
H       3.04073231      0.66965478     -1.10026537
C       1.32081452      0.36411574      0.77499924
H       3.04212607     -0.91588858     -0.67848884
H       1.41706164      1.55889683      0.46188026
H       1.99331521     -0.51891051      1.31348021
C       0.19071945      0.59306185      2.18434792
H       0.65161168      1.71063125      2.44549804
C       7.96527833     -1.20731748     -6.73129679
H       0.51391539     -0.48488571      2.68334961
H       7.26969789     -0.34962494     -7.22375941
H       7.26684710     -2.17318197     -6.93447881
C       9.45001673     -1.09368941     -6.00046158
H      -5.22879424      0.92651021      1.17599163
H      -5.26412172     -1.08251800      1.57573971
C      -7.15584387     -0.10269671      0.76339797
H      -7.87352158      0.85697716      0.59278652
C      -1.29013608      0.79057901      3.23870884
H      -7.96377335     -0.98270794      0.94299842
H      -1.19618554      2.01518823      3.31607726
H      -1.04513785     -0.19479022      3.93314380
C      -2.94877491      0.86255511      3.96588180
H      -3.13650622      2.05406280      3.70629792
C      -4.55719218      0.93352486      4.71954114
H      -2.97170618     -0.32017924      4.31176363
H      -5.01729695      1.92433241      5.31429538
H      -5.02423966      0.07576375      5.49325549
H      -5.72842674      0.90365226      4.30546438
H       9.68351101     -0.04014226     -5.40344507
H      10.39454077     -1.21794424     -6.78514424
H       9.68210694     -1.91355303     -5.10891245
H       7.37492168      0.25461639      8.65214217
H       4.74659985      0.41769671     10.25606845
H       7.16251332     -0.20033631      5.72567805
H       9.86493821      0.02187300      6.96524532
H       4.66464273      0.04791665      7.36286107
H       9.58359818     -0.45045168      4.02986726
H       2.14031637      1.55701095     11.94578077
H      12.29608944     -0.25564004      5.20093291
H      12.02927010     -0.71582277      2.26483446
H       2.02813378      0.49954495      9.28983100
H      14.74139332     -0.54803289      3.42399155
H      14.61095701     -0.97928740      0.45715067
H      -0.83799204      1.06765965     14.27245014
H      17.41126698     -0.87541955      1.60821673
H      -1.68615546      0.42379362     11.06809568
C       6.88588147      1.03546461      7.80472249
C       7.64834855      0.81079817      6.27977004
C       5.16587816      1.05102397      7.91833082
C       4.38647555      1.28824940      9.43049722
C       9.36227237      0.79555789      6.11991727
C      10.08787776      0.55635351      4.57491608
C      11.79830524      0.52624269      4.36125082
C       2.68749514      1.52565124      9.56681829
C       2.21763761      2.34580108     10.99176487
C      12.53963853      0.28229356      2.81793254
C      14.25416766      0.24612484      2.59212212
C      15.05909886      0.00721295      1.07918123
C      16.77577586     -0.01021064      0.98530584
C      -1.57588319      1.00841945     12.08253946
C      -1.43464930      1.79445796     13.48140191
H      17.35258077     -0.18055048     -0.09562313
H      -2.56249309      2.14816766     13.78989406
H       7.38245153      2.03123793      8.37799156
H       4.99711508      2.20218766     10.01842555
H       7.15991543      1.60863723      5.44852694
H       9.85693291      1.79619262      6.68592422
H       4.69288551      1.84159364      7.07279011
H       9.58020014      1.34701349      3.74883612
H       2.74557910      3.19803830     11.71474100
H      12.29229751      1.53198655      4.91695472
H      12.02896163      1.06155371      1.98448099
H       2.08134297      2.00075785      8.58488208
H      14.74217184      1.25741162      3.13915995
H      14.61324018      0.75688732      0.18467305
H      -0.86258226      2.87400046     13.58984497
H      17.41423977      1.00215374      1.31382226
H       1.33938471      3.19616954     10.81170954
   94
energy=      0.00000000
C      -4.59409611     -0.46576396     -0.72749055
C      -2.90171695     -0.48606725     -0.55424609
H      -4.90320870      0.31578499     -1.64677620
C      -5.58380183     -0.21279953      0.64575362
H      -4.95535829     -1.47540316     -1.35687579
H      -2.49971197      0.63449365     -0.23348920
C      -1.72601691     -0.69932651     -1.63382592
H      -2.49574508     -1.38969913      0.18795000
H      -5.95424153     -3.69409186    -11.07920866
H      -5.94653034     -4.46348585    -10.95125000
C      -0.24944095     -0.74279623     -2.26877412
H      -0.62413015      0.30202991     -2.81113670
C       1.43435352     -0.54195127     -2.25906991
H      -0.38726818     -1.96839126     -2.17121228
H       1.81003518      0.03888594     -3.30285276
H       1.94591692     -1.44771699     -2.95773735
C       2.09882892     -0.07809144     -0.71507941
H       3.02259403      0.71473050     -1.01102678
C       1.32334799      0.38445302      0.82172577
H       3.01205723     -0.92124038     -0.58248222
H       1.32089444      1.57299657      0.46791907
H       2.02423458     -0.46708570      1.37805210
C       0.23352591      0.59265421      2.24410242
H       0.75066849      1.67779318      2.55024074
C       3.69780863      3.05027801    -10.34491686
H       0.47976720     -0.53973870      2.66577200
H       3.05180188      3.85840561    -10.80429584
H      11.00172860     -3.07898185     -5.64314726
C      12.07661157     -2.69844546     -5.16000344
H      -5.31594679      0.90184591      1.11157008
H      -5.35500140     -1.08093091      1.50809593
C      -7.24172424     -0.12116506      0.70804568
H      -7.97283563      0.83284352      0.56443946
C      -1.21775089      0.81513453      3.30532330
H      -8.05666709     -0.98963124      0.91428868
H      -1.12173174      2.04282974      3.37010743
H      -0.93562292     -0.10586734      4.07703172
C      -2.88732308      0.86601506      3.96685639
H      -3.09967902      2.03095485      3.61466455
C      -4.45478976      0.95504617      4.77808038
H      -2.93426624     -0.34404716      4.20667700
H      -4.84842418      1.94758855      5.41482080
H      -4.88341873      0.09974721      5.57470916
H      -5.61699111      0.93590692      4.33739068
H      12.16732100     -1.56935593     -4.68427354
H      12.97559934     -2.68362468     -5.99705760
H      12.34820212     -3.43233358     -4.21492636
H       7.34379230      0.27143588      8.72913486
H       4.69583079      0.42468674     10.34620892
H       7.14886955     -0.17811808      5.80829092
H       9.85324592      0.04478080      7.03557840
H       4.62815977      0.07063167      7.45777593
H       9.58748231     -0.42735498      4.10310797
H       2.09855998      1.64493921     12.06729995
H      12.30052343     -0.23454008      5.26193276
H      12.04719625     -0.69406046      2.32877324
H       1.98295784      0.54201621      9.42778783
H      14.76029202     -0.52774355      3.48016580
H      14.63799943     -0.95936581      0.51663490
H      -0.91039391      1.05491546     14.31081169
H      17.44002579     -0.85564305      1.65890577
H      -1.75325357      0.41858633     11.10163148
C       6.85478399      1.05392717      7.88378333
C       7.63366291      0.83245784      6.36329386
C       5.13309513      1.07073801      8.01462369
C       4.34760270      1.30588159      9.52732910
C       9.34951384      0.81694851      6.19007386
C      10.09060575      0.57910370      4.64893963
C      11.80228726      0.54725710      4.42294346
C       2.65210135      1.56688363      9.68366537
C       2.18810407      2.41247789     11.09758000
C      12.55624170      0.30380853      2.88294828
C      14.27187499      0.26632985      2.64925543
C      15.08441473      0.02776807      1.13864534
C      16.80170089      0.00928775      1.03852064
C      -1.64639488      0.99995677     12.11795263
C      -1.51062354      1.77966552     13.52057041
H      17.37813855     -0.16117355     -0.04303779
H      -2.63634471      2.12121307     13.85007817
H       7.34999866      2.05016567      8.45647935
H       4.96961827      2.20589991     10.12294933
H       7.14498831      1.63051441      5.53306276
H       9.84346387      1.81725188      6.75648560
H       4.65696833      1.85936950      7.16973998
H       9.58376988      1.36975069      3.82290915
H       2.73188012      3.27056884     11.80167111
H      12.29642519      1.55293122      4.97790014
H      12.04690783      1.08253667      2.04856578
H       2.04200580      2.03194743      8.69985485
H      14.76112794      1.27719759      3.19542445
H      14.64026081      0.77788404      0.24379345
H      -0.94638803      2.86459487     13.61131034
H      17.44304443      1.02056440      1.36473746
H       1.30827878      3.26247953     10.92096873
