   94

C       7.13315482     -6.85308127     -7.67394344
C       5.64336903     -7.60666897     -7.24740197
H       7.40593088     -6.05644643     -6.75792952
C     -10.35223719     -0.90292630      5.86262389
H     -18.89185999     -7.18329685     -1.80818867
H       4.66450805     -6.93608449     -6.88082262
C      10.10102916     -1.65603137      7.92774378
H       5.61755023     -8.41726866     -6.30914860
H      -7.56622560     -6.01512687    -16.99155064
H      -7.55851441     -6.78452087    -16.86359197
C      10.42513084      2.48532745      6.57834651
H      11.42573243      2.81935208      7.20643351
C       9.86515392     -2.60314835      6.61908822
H       7.80201936      3.65928495     -4.19663786
H      11.00207536     -2.38197155      6.21576307
H      -0.14324904     -7.37312948     12.68691252
C       8.93315810     -3.89825465      6.72875863
H       7.92268761     -4.10074054      7.40465131
C       6.34484560      5.54720796     -3.47416733
H       9.33762964     -5.03452719      6.97833805
H       7.02309269      6.48682813     -3.92800475
H       5.30185222      6.04858703     -3.91752295
C       6.76461233      4.23474959     -4.52896536
H       7.11216692      4.79027243     -7.09468776
C       6.42951300      4.42555461     -6.16182232
H       6.65309508      3.00855510     -4.47301802
H       5.41082468      4.27567002     -6.80422576
H      -2.99588326     13.84804180     10.97118645
C       8.56236693     -7.65542890     -8.21813807
H     -10.74359595      0.21633235      5.71281672
H     -19.27118577     -7.16726916     -1.12682601
C       0.53742589     -6.42772164      1.99522494
H     -11.01390178     -1.78378982      5.39934946
C      -1.16836905     -7.12813458     13.27899969
H      -0.28353211     -6.89453769      2.67513554
H      -3.40369176     -8.07764626     13.53438050
H      -1.16511742     -5.92172713     13.19489680
C      -3.56001328      0.05579044     -7.29964687
H       6.78657430      6.81204900     -1.49921050
C       4.82837540      5.80419133     -0.78252365
H      -4.21769162      0.86115883     -7.81950559
H       4.75496770      6.60953366      0.16171379
H       4.35864577      4.82729439     -0.18488564
H       3.70967579      6.09595905     -1.22161713
H       8.86452239     -7.46188249     -9.40724713
H       8.43927532     -8.86060771     -8.47825751
H      10.63968532     -8.31639665     -6.71942095
H       8.27490818      0.28603320      9.32569295
H      11.65139000     -0.78983494      8.60177479
H      -2.03575607     -9.35619166     13.92866274
H       8.27740226      1.41135181      6.77551823
H      -8.74524341     -4.13752919     22.51985742
H       5.56424646     13.79100716     17.31910960
H       3.17616564     13.86981265     20.42726557
H      11.15995911     -0.91801085     11.55628547
H      11.14709673      1.99338734      2.76233605
H      -4.75293279     12.91569800     10.67707525
H      12.94307311      2.38345781      3.59447252
H       1.28497187      1.77933824    -18.00471786
H       7.97802438     -3.10373147      4.63631076
H       6.88642073     -5.91504306     -8.45689076
H      12.10589159      0.47248277     10.89335700
C      -9.02049327     -1.20442128      6.63797963
C      -2.26250987     -8.14628629     13.99851921
C       9.34214574      0.70594632      8.85267994
C      10.53699766     -0.50198003      9.01232046
C       9.32933758      1.52293490      7.38688151
C       5.05301094     14.06376153     18.37687362
C      11.28125964     -0.33595680     10.50246736
C      -4.19801789     14.01167378     10.76090584
C       3.96442394     13.81357947     19.54127846
C       7.36721927      4.70141411     -0.94829195
C      11.78906080      2.11660355      3.76159905
C      11.10976682      2.06249622      5.18451552
C      10.01042433     -7.52757529     -7.38883913
C       6.27235726      5.69960221     -1.73503902
C       8.98028021     -3.07983820      5.34842291
H       8.46311764      4.89641822     -0.47051459
H       5.01161911     -8.26784447     -8.08535653
H      -8.03208998     -1.42818700      7.21343874
H      -8.61694471     -3.46530571     22.89409669
H      -2.38562017     -7.98143118     15.21514269
H       9.94169942      3.58141329      6.31137797
H       9.15733821      1.61411651      9.67598584
H       6.05444322     14.13079757     17.71623468
H       4.71655100     15.05728366     18.94122376
H      -3.22127425     -0.92683135     -6.77895270
H       7.34929247      3.52795780     -0.64740006
H      -4.34988696     14.63028602      9.70716218
H       1.33834327     -5.95281666      1.29725338
H       1.22522505      2.55375970    -18.07614389
H       9.40414554     -2.93256776      4.20227605
H      10.79721076     -6.61353424     -7.26634117
H      -4.69336856     14.65266930     11.68819948
   94

C       7.13329220     -6.85236529     -7.67411195
C       5.64414675     -7.60711147     -7.24761474
H       7.40586713     -6.05518444     -6.75850093
C     -10.35225398     -0.90292849      5.86261603
H     -18.89186586     -7.18330080     -1.80818743
H       4.66459906     -6.93777129     -6.88073328
C      10.06957970     -1.68183327      7.96880751
H       5.61939019     -8.41779794     -6.30939770
H      -7.56625318     -6.01515322    -16.99158432
H      -7.55853924     -6.78454651    -16.86362158
C      10.37691053      2.48019933      6.64893984
H      11.37445670      2.81745341      7.27920589
C       9.83567222     -2.62834562      6.65967958
H       7.77939401      3.67690543     -4.22488539
H      10.97475735     -2.41183964      6.25986042
H      -0.14351099     -7.37326989     12.68696767
C       8.90293684     -3.92325158      6.76618550
H       7.89300647     -4.12643663      7.44267574
C       6.31473770      5.55857379     -3.49395289
H       9.30637444     -5.06022069      7.01428685
H       6.99218201      6.49914298     -3.94717958
H       5.27042135      6.05693205     -3.93759558
C       6.73461157      4.24550816     -4.54755493
H       7.08716390      4.79850789     -7.11314933
C       6.40290753      4.43443262     -6.18121132
H       6.60857959      3.02083297     -4.48113215
H       5.38491063      4.28315338     -6.82433404
H      -2.99676808     13.84806371     10.97043632
C       8.56162483     -7.65585986     -8.21877585
H     -10.74361391      0.21633003      5.71281185
H     -19.27119114     -7.16727257     -1.12682451
C       0.53715828     -6.42743482      1.99478885
H     -11.01391741     -1.78379308      5.39934223
C      -1.16861273     -7.12826269     13.27907664
H      -0.28328757     -6.89450202      2.67514810
H      -3.40390415     -8.07778463     13.53445618
H      -1.16538705     -5.92185794     13.19496391
C      -3.58198065      0.04400320     -7.30708817
H       6.75537884      6.82481791     -1.51922199
C       4.79817851      5.81391944     -0.80130040
H      -4.23283586      0.85455921     -7.82759112
H       4.72493794      6.61805438      0.14389581
H       4.32843745      4.83595852     -0.20540196
H       3.67996184      6.10607178     -1.24098818
H       8.86305461     -7.46362113     -9.40827150
H       8.43857197     -8.86105764     -8.47883299
H      10.63730119     -8.31660986     -6.71793917
H       8.23616484      0.25095138      9.36832117
H      11.61784769     -0.80749918      8.64136731
H      -2.03595538     -9.35632658     13.92873954
H       8.23951697      1.38387337      6.81807613
H      -8.74527945     -4.13753373     22.51988175
H       5.54037715     13.77579364     17.31674129
H       3.17733420     13.85548747     20.42484710
H      11.12510055     -0.95474421     11.59773319
H      11.95492818      2.24743750      2.19502192
H      -4.75381746     12.91571725     10.67632336
H      13.48749676      2.61184184      3.25652789
H       1.28489364      1.77931082    -18.00488082
H       7.94657225     -3.11572404      4.67801913
H       6.88701403     -5.91322309     -8.45588434
H      12.07169042      0.43816170     10.94057889
C      -9.02050870     -1.20442337      6.63796840
C      -2.26272742     -8.14642639     13.99860379
C       9.30328616      0.67574899      8.89967234
C      10.50236460     -0.52866815      9.05553190
C       9.28510048      1.50076293      7.43882830
C       5.05407912     14.07467648     18.37998711
C      11.24648487     -0.36814370     10.54652628
C      -4.19890277     14.01169306     10.76015431
C       3.96593037     13.80703355     19.53957589
C       7.33373275      4.71289799     -0.96862402
C      11.88916254      2.00335745      3.95335215
C      11.05201024      2.04933575      5.25898479
C      10.00937166     -7.52816423     -7.38903478
C       6.24090415      5.71252926     -1.75534301
C       8.95045726     -3.10091032      5.38805311
H       8.42824196      4.91290354     -0.49049649
H       5.01294707     -8.26821105     -8.08603888
H      -8.03210497     -1.42819059      7.21342574
H      -8.61698076     -3.46531029     22.89412112
H      -2.38582658     -7.98156572     15.21522620
H       9.89451248      3.57264658      6.36864792
H       9.11555036      1.57889715      9.72790808
H       6.06629303     14.13196844     17.73378896
H       4.72883793     15.08193915     18.93131255
H      -3.23520024     -0.93554979     -6.78578564
H       7.31807923      3.54036233     -0.66473472
H      -4.35077161     14.63030514      9.70641057
H       1.33863514     -5.95269557      1.29734392
H       1.22514480      2.55373168    -18.07631188
H       9.37525902     -2.95455736      4.24210249
H      10.79668636     -6.61445223     -7.26765953
H      -4.69425391     14.65268803     11.68744803
   94

C       7.13351971     -6.85146463     -7.67408306
C       5.64501125     -7.60741519     -7.24772360
H       7.40586173     -6.05375538     -6.75884934
C     -10.35229437     -0.90293032      5.86261633
H     -18.89187574     -7.18330505     -1.80818742
H       4.66476092     -6.93933976     -6.88055138
C      10.04127983     -1.70767958      8.00580546
H       5.62129910     -8.41821167     -6.30956409
H      -7.56626959     -6.01517246    -16.99161070
H      -7.55855388     -6.78456523    -16.86364489
C      10.34867291      2.45593029      6.68460383
H      11.34563085      2.79333461      7.31595976
C       9.80761001     -2.65590392      6.69816130
H       7.75999097      3.69182665     -4.24977303
H      10.94767676     -2.44311692      6.29889391
H      -0.14370547     -7.37335693     12.68705779
C       8.87313560     -3.94947909      6.80541152
H       7.86418832     -4.15214616      7.48349376
C       6.28939451      5.56722832     -3.50938056
H       9.27524339     -5.08709820      7.05261267
H       6.96607629      6.50879948     -3.96182961
H       5.24392143      6.06320927     -3.95312258
C       6.70840963      4.25419930     -4.56301523
H       7.06368218      4.80595403     -7.12840251
C       6.37845285      4.44194700     -6.19712515
H       6.56737348      3.03135794     -4.48634012
H       5.36076872      4.28993139     -6.84058017
H      -2.99763966     13.84806960     10.96968410
C       8.56098364     -7.65609034     -8.21921218
H     -10.74365271      0.21632871      5.71281250
H     -19.27120049     -7.16727635     -1.12682421
C       0.53661110     -6.42738125      1.99432777
H     -11.01395576     -1.78379544      5.39934087
C      -1.16880024     -7.12834090     13.27917194
H      -0.28329508     -6.89466089      2.67519263
H      -3.40406824     -8.07788067     13.53454058
H      -1.16558512     -5.92193747     13.19505859
C      -3.60400331      0.03218187     -7.31450787
H       6.73166549      6.83197497     -1.53422009
C       4.77301988      5.82100733     -0.81824986
H      -4.24781006      0.84802303     -7.83564591
H       4.69935161      6.62436630      0.12750784
H       4.30219196      4.84234252     -0.22438983
H       3.65554258      6.11416502     -1.25909760
H       8.86169735     -7.46514483     -9.40908753
H       8.43799154     -8.86130630     -8.47922377
H      10.63498582     -8.31656439     -6.71621146
H       8.20539315      0.22619571      9.40141043
H      11.58902641     -0.82463746      8.67376845
H      -2.03611005     -9.35641883     13.92882376
H       8.21091757      1.35898988      6.85220509
H      -8.74530103     -4.13753405     22.51989997
H       5.51607727     13.76066283     17.31504086
H       3.17877442     13.84129834     20.42217330
H      11.09067394     -0.98648489     11.63264918
H      12.74918341      2.54280502      1.86376201
H      -4.75468964     12.91572298     10.67557051
H      14.01971386      2.80158080      3.06067678
H       1.28485569      1.77929448    -18.00495646
H       7.91299597     -3.13329533      4.72119993
H       6.88771094     -5.91120631     -8.45466647
H      12.03986793      0.40738704     10.98066645
C      -9.02055232     -1.20442657      6.63797275
C      -2.26289507     -8.14652223     13.99869457
C       9.27323173      0.65112535      8.93456220
C      10.47277888     -0.55278750      9.09081953
C       9.25597888      1.47639035      7.47380811
C       5.05510228     14.08559712     18.38274783
C      11.21460867     -0.39717385     10.58331306
C      -4.19977428     14.01169844     10.75940138
C       3.96766216     13.80025557     19.53765613
C       7.30822716      4.71934598     -0.98366415
C      11.75638558      1.99144032      3.92408397
C      11.03544753      2.02517954      5.29993224
C      10.00840109     -7.52850337     -7.38900078
C       6.21660897      5.72002805     -1.77080815
C       8.91933044     -3.12590908      5.42789091
H       8.40135578      4.92004517     -0.50277412
H       5.01438761     -8.26842664     -8.08664690
H      -8.03215218     -1.42819637      7.21343488
H      -8.61700166     -3.46531047     22.89413884
H      -2.38598635     -7.98165963     15.21531656
H       9.86659934      3.54942650      6.40751380
H       9.08549333      1.55359322      9.76348003
H       6.07805631     14.13307484     17.75154512
H       4.74138557     15.10622946     18.92104337
H      -3.24898820     -0.94417218     -6.79262098
H       7.29332636      3.54717948     -0.67824049
H      -4.35164361     14.63031065      9.70565781
H       1.33861406     -5.95285586      1.29734097
H       1.22510537      2.55371496    -18.07639044
H       9.34373535     -2.98378423      4.28121188
H      10.79617532     -6.61507867     -7.26861801
H      -4.69512504     14.65269326     11.68669539
   94

C       7.13379520     -6.85048631     -7.67398659
C       5.64592346     -7.60766761     -7.24781179
H       7.40588119     -6.05225097     -6.75912101
C     -10.35233470     -0.90293183      5.86262054
H     -18.89188698     -7.18330947     -1.80818746
H       4.66495888     -6.94087089     -6.88035950
C      10.01433336     -1.73282699      8.04085095
H       5.62324560     -8.41858375     -6.30971908
H      -7.56628273     -6.01518965    -16.99163567
H      -7.55856558     -6.78458194    -16.86366707
C      10.32333940      2.42939833      6.71097565
H      11.32335089      2.76392884      7.33918257
C       9.78056187     -2.68346457      6.73527145
H       7.74213114      3.70634200     -4.27381969
H      10.92135224     -2.47426587      6.33591870
H      -0.14384379     -7.37340600     12.68713667
C       8.84392720     -3.97529330      6.84420521
H       7.83606530     -4.17705484      7.52413551
C       6.26578630      5.57551874     -3.52395818
H       9.24456986     -5.11355289      7.09073220
H       6.94174379      6.51805373     -3.97564174
H       5.21918962      6.06919977     -3.96780342
C       6.68394192      4.26253620     -4.57769430
H       7.04102547      4.81315339     -7.14286927
C       6.35503334      4.44907460     -6.21214774
H       6.52802656      3.04178198     -4.49080211
H       5.33752311      4.29645988     -6.85576168
H      -2.99849831     13.84806317     10.96892822
C       8.56041300     -7.65621939     -8.21955879
H     -10.74369127      0.21632768      5.71281633
H     -19.27121112     -7.16728031     -1.12682393
C       0.53601007     -6.42737979      1.99388946
H     -11.01399427     -1.78379733      5.39934337
C      -1.16893572     -7.12838433     13.27925132
H      -0.28335140     -6.89486135      2.67527155
H      -3.40418647     -8.07794263     13.53460980
H      -1.16572508     -5.92198157     13.19513933
C      -3.62612192      0.02031159     -7.32192152
H       6.71020162      6.83860875     -1.54828111
C       4.74956065      5.82786052     -0.83504817
H      -4.26266755      0.84152196     -7.84368150
H       4.67522390      6.63045092      0.11124789
H       4.27746096      4.84850157     -0.24336593
H       3.63283808      6.12207709     -1.27715550
H       8.86041818     -7.46656098     -9.40980900
H       8.43750058     -8.86145468     -8.47952975
H      10.63272712     -8.31635975     -6.71437150
H       8.17689835      0.20507035      9.43052865
H      11.56179704     -0.84077823      8.70352182
H      -2.03622090     -9.35647663     13.92889194
H       8.18447246      1.33444168      6.88154985
H      -8.74531304     -4.13753210     22.51991195
H       5.49135058     13.74574490     17.31398846
H       3.18046093     13.82726421     20.41927316
H      11.05615179     -1.01600526     11.66481468
H      13.38858809      2.78870848      1.68920924
H      -4.75554936     12.91571778     10.67481504
H      14.60175927      3.03270354      2.76718892
H       1.28483602      1.77928213    -18.00500100
H       7.87949107     -3.15130061      4.76395516
H       6.88846208     -5.90911101     -8.45337860
H      12.00856322      0.37845346     11.01790177
C      -9.02059595     -1.20442917      6.63798156
C      -2.26301530     -8.14658251     13.99876738
C       9.24564185      0.62879105      8.96463849
C      10.44479270     -0.57518155      9.12284974
C       9.22985628      1.45213752      7.50272168
C       5.05604468     14.09652025     18.38515681
C      11.18331407     -0.42437639     10.61722107
C      -4.20063290     14.01169269     10.75864588
C       3.96961726     13.79327522     19.53555855
C       7.28601064      4.72623197     -0.99775100
C      11.66639004      1.98243376      3.91827947
C      11.00973605      1.99943765      5.32538400
C      10.00749055     -7.52869253     -7.38886209
C       6.19457797      5.72700831     -1.78534042
C       8.88846607     -3.15111138      5.46694130
H       8.37894604      4.92542076     -0.51570258
H       5.01589250     -8.26858873     -8.08724845
H      -8.03219915     -1.42820052      7.21344857
H      -8.61701286     -3.46530831     22.89415016
H      -2.38610075     -7.98171943     15.21538930
H       9.84320194      3.52538879      6.43988030
H       9.05876105      1.53190973      9.79294381
H       6.08972578     14.13413778     17.76958496
H       4.75416440     15.13016980     18.91040606
H      -3.26269180     -0.95271125     -6.79947040
H       7.27054372      3.55413742     -0.69192260
H      -4.35250342     14.63030553      9.70490284
H       1.33852797     -5.95308316      1.29733941
H       1.22508435      2.55370229    -18.07643734
H       9.31201939     -3.01353075      4.31935208
H      10.79567959     -6.61552654     -7.26939335
H      -4.69598277     14.65268735     11.68594048
   94

C       7.13409482     -6.84946620     -7.67383933
C       5.64685908     -7.60788363     -7.24786320
H       7.40591747     -6.05070493     -6.75933963
C     -10.35236667     -0.90293224      5.86262281
H     -18.89189654     -7.18331330     -1.80818727
H       4.66517921     -6.94236846     -6.88013424
C       9.98727110     -1.75773216      8.07585579
H       5.62521220     -8.41891972     -6.30983862
H      -7.56629317     -6.01520531    -16.99165763
H      -7.55857468     -6.78459714    -16.86368638
C      10.29668002      2.40404702      6.73791127
H      11.29960187      2.73590621      7.36293322
C       9.75361269     -2.71053760      6.77213780
H       7.72467596      3.72076913     -4.29756725
H      10.89519222     -2.50491753      6.37293627
H      -0.14398249     -7.37345416     12.68720804
C       8.81479690     -4.00063361      6.88233511
H       7.80800712     -4.20157496      7.56406749
C       6.24278170      5.58372597     -3.53816979
H       9.21401167     -5.13951825      7.12820156
H       6.91801563      6.52720387     -3.98912678
H       5.19505432      6.07512079     -3.98208085
C       6.66001867      4.27077672     -4.59204206
H       7.01861193      4.82030815     -7.15702857
C       6.33194298      4.45612159     -6.22681107
H       6.48940694      3.05234978     -4.49496966
H       5.31455819      4.30291412     -6.87051335
H      -2.99934956     13.84805008     10.96816683
C       8.55987227     -7.65629997     -8.21984887
H     -10.74372163      0.21632773      5.71281827
H     -19.27122015     -7.16728370     -1.12682345
C       0.53548266     -6.42732457      1.99347288
H     -11.01402503     -1.78379804      5.39934467
C      -1.16907076     -7.12842780     13.27932520
H      -0.28334410     -6.89501686      2.67535358
H      -3.40430468     -8.07800475     13.53467552
H      -1.16586547     -5.92202573     13.19521335
C      -3.64832697      0.00838789     -7.32931151
H       6.68944462      6.84522651     -1.56201037
C       4.72684327      5.83453887     -0.85154449
H      -4.27741052      0.83503681     -7.85167991
H       4.65178542      6.63633298      0.09530763
H       4.25355633      4.85444200     -0.26205840
H       3.61083510      6.12975392     -1.29486589
H       8.85916917     -7.46792771     -9.41047187
H       8.43704517     -8.86155515     -8.47977990
H      10.63049146     -8.31608196     -6.71246449
H       8.14801529      0.18393161      9.45924125
H      11.53428476     -0.85676915      8.73354684
H      -2.03633138     -9.35653400     13.92895630
H       8.15808891      1.30955574      6.90988281
H      -8.74532566     -4.13753032     22.51992382
H       5.46620569     13.73116143     17.31356113
H       3.18237030     13.81339326     20.41617908
H      11.02147910     -1.04555876     11.69698871
H      13.97252358      3.01724920      1.53659859
H      -4.75640191     12.91570659     10.67405436
H      15.18265917      3.27165201      2.41867012
H       1.28482210      1.77927118    -18.00503168
H       7.84648493     -3.16824842      4.80613240
H       6.88923949     -5.90697657     -8.45204028
H      11.97702421      0.34954593     11.05518193
C      -9.02063036     -1.20443031      6.63798713
C      -2.26313512     -8.14664228     13.99883601
C       9.21769779      0.60656681      8.99451494
C      10.41650360     -0.59738146      9.15497154
C       9.20319359      1.42801987      7.53151339
C       5.05688341     14.10743916     18.38722641
C      11.15161449     -0.45139867     10.65124826
C      -4.20148411     14.01168083     10.75788512
C       3.97179578     13.78612802     19.53332722
C       7.26502419      4.73346258     -1.01144597
C      11.63098918      1.97177377      3.94505247
C      10.97802579      1.97474677      5.34996030
C      10.00660708     -7.52881639     -7.38866251
C       6.17335731      5.73391184     -1.79948847
C       8.85797110     -3.17556980      5.50548890
H       8.35808918      4.93104103     -0.52888493
H       5.01742451     -8.26871331     -8.08781633
H      -8.03223612     -1.42820265      7.21345792
H      -8.61702467     -3.46530633     22.89416140
H      -2.38621498     -7.98177889     15.21545790
H       9.81858061      3.50210448      6.47123036
H       9.03149939      1.51021419      9.82229374
H       6.10129417     14.13517193     17.78799052
H       4.76714660     15.15377317     18.89938882
H      -3.27630933     -0.96116855     -6.80631469
H       7.24888515      3.56146154     -0.70515945
H      -4.35335549     14.63029409      9.70414244
H       1.33852832     -5.95324510      1.29738271
H       1.22506913      2.55369104    -18.07647033
H       9.28069384     -3.04154754      4.35712689
H      10.79519542     -6.61589986     -7.27007914
H      -4.69683314     14.65267566     11.68518007
   94

C       7.13442399     -6.84839985     -7.67363839
C       5.64782343     -7.60805820     -7.24787495
H       7.40597576     -6.04911307     -6.75950210
C     -10.35239727     -0.90293166      5.86262188
H     -18.89190489     -7.18331662     -1.80818715
H       4.66542755     -6.94382714     -6.87987248
C       9.95974975     -1.78263882      8.11144653
H       5.62720446     -8.41921433     -6.30991973
H      -7.56630047     -6.01521938    -16.99167634
H      -7.55858078     -6.78461078    -16.86370259
C      10.26901447      2.37977982      6.76736780
H      11.27363402      2.71013842      7.39054183
C       9.72637182     -2.73739908      6.80942544
H       7.70755159      3.73517068     -4.32113195
H      10.86879320     -2.53530932      6.41058267
H      -0.14415116     -7.37352065     12.68728805
C       8.78555538     -4.02593276      6.92052831
H       7.77979629     -4.22626211      7.60393843
C       6.22028240      5.59189769     -3.55213901
H       9.18340805     -5.16544692      7.16561337
H       6.89478298      6.53630479     -4.00241018
H       5.17141436      6.08100541     -3.99608544
C       6.63654678      4.27895345     -4.60615783
H       6.99641205      4.82743320     -7.17098739
C       6.30914723      4.46310580     -6.24122514
H       6.45144190      3.06308448     -4.49893041
H       5.29184531      4.30929337     -6.88494817
H      -3.00019689     13.84803456     10.96740037
C       8.55936562     -7.65632868     -8.22008096
H     -10.74375020      0.21632889      5.71281701
H     -19.27122809     -7.16728664     -1.12682312
C       0.53500120     -6.42723468      1.99306472
H     -11.01405472     -1.78379770      5.39934306
C      -1.16923410     -7.12848869     13.27940984
H      -0.28329921     -6.89514492      2.67542869
H      -3.40444839     -8.07808514     13.53475164
H      -1.16603678     -5.92208755     13.19529713
C      -3.67061240     -0.00358727     -7.33668090
H       6.66923758      6.85188849     -1.57554138
C       4.70474887      5.84109448     -0.86782695
H      -4.29204508      0.82855674     -7.85964102
H       4.62892741      6.64206779      0.07959647
H       4.23036606      4.86021675     -0.28054950
H       3.58941874      6.13724768     -1.31232031
H       8.85795379     -7.46924276     -9.41107503
H       8.43662958     -8.86160458     -8.47997156
H      10.62828406     -8.31572840     -6.71048927
H       8.11838853      0.16151007      9.48925267
H      11.50617104     -0.87281276      8.76431877
H      -2.03646614     -9.35660934     13.92903122
H       8.13119420      1.28476240      6.93967503
H      -8.74534313     -4.13752956     22.51993914
H       5.44066185     13.71700377     17.31371388
H       3.18448913     13.79967541     20.41290903
H      10.98708857     -1.07576139     11.72991937
H      14.56369859      3.25188566      1.35099382
H      -4.75725093     12.91569365     10.67328880
H      15.73903507      3.50571762      2.06159801
H       1.28481342      1.77926121    -18.00504940
H       7.81363702     -3.18481934      4.84840777
H       6.89004817     -5.90479882     -8.45064878
H      11.94548538      0.32009223     11.09313401
C      -9.02066349     -1.20443068      6.63798949
C      -2.26328099     -8.14672053     13.99891606
C       9.18883584      0.58373378      9.02589346
C      10.38767793     -0.61993052      9.18809670
C       9.17562120      1.40436940      7.56234164
C       5.05761711     14.11832032     18.38896163
C      11.11984282     -0.47894808     10.68607459
C      -4.20233135     14.01166703     10.75711934
C       3.97420521     13.77883308     19.53099078
C       7.24499336      4.74098392     -1.02488006
C      11.61187475      1.95616470      3.98313950
C      10.94714414      1.95197460      5.37771493
C      10.00575515     -7.52887343     -7.38840126
C       6.15279346      5.74079516     -1.81338307
C       8.82746462     -3.19970121      5.54426133
H       8.33840678      4.93706935     -0.54233133
H       5.01898914     -8.26879509     -8.08834794
H      -8.03227211     -1.42820453      7.21346433
H      -8.61704131     -3.46530537     22.89417607
H      -2.38635442     -7.98185648     15.21553782
H       9.79253197      3.47942161      6.50395779
H       9.00300837      1.48726391      9.85378800
H       6.11276052     14.13617002     17.80681974
H       4.78031388     15.17702699     18.88795905
H      -3.28985085     -0.96954472     -6.81315940
H       7.22830135      3.56911069     -0.71802425
H      -4.35420288     14.63028020      9.70337661
H       1.33858667     -5.95336222      1.29745555
H       1.22505910      2.55368074    -18.07649044
H       9.24947940     -3.06897277      4.39521153
H      10.79472881     -6.61619790     -7.27067936
H      -4.69767963     14.65266251     11.68441425
   94

C       7.13478834     -6.84728608     -7.67339179
C       5.64882245     -7.60819221     -7.24785732
H       7.40606054     -6.04747352     -6.75961667
C     -10.35243139     -0.90293075      5.86261850
H     -18.89191292     -7.18331978     -1.80818728
H       4.66570875     -6.94524912     -6.87958508
C       9.93173282     -1.80780533      8.14776774
H       5.62922814     -8.41946903     -6.30997312
H      -7.56630497     -6.01523224    -16.99169271
H      -7.55858415     -6.78462323    -16.86371653
C      10.23926409      2.35707739      6.80129127
H      11.24550857      2.68636314      7.42243175
C       9.69871752     -2.76433277      6.84728212
H       7.69065158      3.74966494     -4.34465002
H      10.84204722     -2.56581495      6.44900101
H      -0.14435414     -7.37360861     12.68738189
C       8.75609566     -4.05147424      6.95901592
H       7.75133292     -4.25135633      7.64399775
C       6.19805599      5.60014205     -3.56612226
H       9.15265082     -5.19161824      7.20320217
H       6.87185003      6.54545633     -4.01571015
H       5.14805979      6.08695164     -4.01012991
C       6.61340769      4.28714380     -4.62021334
H       6.97443778      4.83455330     -7.18490741
C       6.28661377      4.47006644     -6.25558046
H       6.41404045      3.07405119     -4.50286072
H       5.26937766      4.31561971     -6.89929091
H      -3.00104244     13.84801914     10.96663060
C       8.55890134     -7.65630131     -8.22026093
H     -10.74378168      0.21633058      5.71281330
H     -19.27123581     -7.16728945     -1.12682308
C       0.53453868     -6.42713136      1.99265807
H     -11.01408778     -1.78379707      5.39933895
C      -1.16943009     -7.12856900     13.27950961
H      -0.28324095     -6.89526356      2.67549553
H      -3.40462089     -8.07818562     13.53484117
H      -1.16624363     -5.92216912     13.19539576
C      -3.69297822     -0.01561277     -7.34403975
H       6.64918492      6.85876043     -1.58912387
C       4.68286944      5.84770618     -0.88412941
H      -4.30658655      0.82206896     -7.86757094
H       4.60625674      6.64783704      0.06387939
H       4.20744488      4.86602315     -0.29906868
H       3.56820244      6.14475443     -1.32978271
H       8.85677983     -7.47050223     -9.41162460
H       8.43626369     -8.86159910     -8.48010987
H      10.62611601     -8.31528974     -6.70845524
H       8.08787529      0.13754841      9.52117307
H      11.47742359     -0.88907224      8.79587106
H      -2.03662827     -9.35670483     13.92911990
H       8.10268735      1.25978815      6.97178378
H      -8.74536568     -4.13752984     22.51995838
H       5.41474092     13.70335252     17.31439265
H       3.18680492     13.78609441     20.40947745
H      10.95299867     -1.10656555     11.76369644
H      15.18308394      3.49784625      1.11950343
H      -4.75809871     12.91568145     10.67252020
H      16.28677841      3.73764619      1.70912102
H       1.28481112      1.77925187    -18.00505611
H       7.78074033     -3.20149269      4.89099287
H       6.89089337     -5.90257683     -8.44921240
H      11.91399459      0.29010435     11.13176139
C      -9.02070078     -1.20443117      6.63799001
C      -2.26345662     -8.14681965     13.99901123
C       9.15890564      0.55995576      9.05933563
C      10.35830274     -0.64305318      9.22233077
C       9.14612852      1.38087821      7.59589542
C       5.05825799     14.12911834     18.39037303
C      11.08811197     -0.50709350     10.72173508
C      -4.20317676     14.01165368     10.75635029
C       3.97685083     13.77140408     19.52857291
C       7.22529154      4.74882411     -1.03833392
C      11.58514041      1.93166865      4.02486653
C      10.91484506      1.92948567      5.41092102
C      10.00494338     -7.52885426     -7.38808544
C       6.13243976      5.74785517     -1.82730296
C       8.79676149     -3.22387068      5.58345375
H       8.31919150      4.94360338     -0.55619574
H       5.02059331     -8.26883546     -8.08885396
H      -8.03231302     -1.42820739      7.21346975
H      -8.61706296     -3.46530544     22.89419463
H      -2.38652215     -7.98195418     15.21563268
H       9.76437763      3.45790430      6.53988374
H       8.97320933      1.46284892      9.88787938
H       6.12412282     14.13712362     17.82611709
H       4.79364698     15.19990649     18.87607788
H      -3.30333754     -0.97784397     -6.82001737
H       7.20817972      3.57711212     -0.73081219
H      -4.35504778     14.63026633      9.70260716
H       1.33867199     -5.95345987      1.29754368
H       1.22505535      2.55367104    -18.07649976
H       9.21817174     -3.09651545      4.43375665
H      10.79428796     -6.61641054     -7.27120231
H      -4.69852426     14.65265020     11.68364493
   94

C       7.13518549     -6.84613471     -7.67311705
C       5.64985419     -7.60829483     -7.24782468
H       7.40617099     -6.04579563     -6.75970183
C     -10.35246913     -0.90292997      5.86261391
H     -18.89192111     -7.18332299     -1.80818763
H       4.66602083     -6.94664371     -6.87928610
C       9.90336701     -1.83323566      8.18459135
H       5.63128182     -8.41969272     -6.31001289
H      -7.56630736     -6.01524443    -16.99170780
H      -7.55858546     -6.78463501    -16.86372923
C      10.20784343      2.33535432      6.83832435
H      11.21584217      2.66362726      7.45710320
C       9.67073882     -2.79139917      6.88552584
H       7.67375064      3.76430713     -4.36825180
H      10.81503241     -2.59653903      6.48796492
H      -0.14458258     -7.37371159     12.68748646
C       8.72643460     -4.07724966      6.99771685
H       7.72265210     -4.27676308      7.68421476
C       6.17581995      5.60852292     -3.58031592
H       9.12173333     -5.21801747      7.24094730
H       6.84896531      6.55471733     -4.02918587
H       5.12472483      6.09302717     -4.02443866
C       6.59037842      4.29539727     -4.63436017
H       6.95263226      4.84170460     -7.19892304
C       6.26423093      4.47706177     -6.27004540
H       6.37697143      3.08528974     -4.50694030
H       5.24707308      4.32193803     -6.91375072
H      -3.00188703     13.84800418     10.96585905
C       8.55847854     -7.65622589     -8.22040543
H     -10.74381638      0.21633224      5.71280845
H     -19.27124372     -7.16729233     -1.12682328
C       0.53408887     -6.42702071      1.99225470
H     -11.01412423     -1.78379665      5.39933352
C      -1.16965029     -7.12866256     13.27962094
H      -0.28317444     -6.89537732      2.67555816
H      -3.40481444     -8.07830006     13.53494070
H      -1.16647666     -5.92226420     13.19550580
C      -3.71542328     -0.02768635     -7.35139640
H       6.62889633      6.86591131     -1.60293703
C       4.66080492      5.85448087     -0.90059332
H      -4.32105226      0.81556009     -7.87547444
H       4.58340367      6.65375477      0.04801135
H       4.18435710      4.87198971     -0.31774649
H       3.54680706      6.15240417     -1.34741553
H       8.85564536     -7.47171396     -9.41213744
H       8.43594603     -8.86154671     -8.48021114
H      10.62399041     -8.31477488     -6.70638584
H       8.05673836      0.11264684      9.55429861
H      11.44821233     -0.90559863      8.82800888
H      -2.03681039     -9.35681432     13.92921889
H       8.07292213      1.23449844      7.00530521
H      -8.74539173     -4.13753078     22.51998041
H       5.38846490     13.69028339     17.31554079
H       3.18930319     13.77263140     20.40589953
H      10.91899539     -1.13772919     11.79803116
H      15.82457813      3.75035622      0.85842209
H      -4.75894600     12.91567020     10.67175010
H      16.83576625      3.96930876      1.36258405
H       1.28481572      1.77924303    -18.00505496
H       7.74776998     -3.21833556      4.93380125
H       6.89177221     -5.90032050     -8.44774864
H      11.88245370      0.25978040     11.17084077
C      -9.02074219     -1.20443214      6.63798983
C      -2.26365406     -8.14693333     13.99911773
C       9.12827011      0.53551574      9.09408907
C      10.32852681     -0.66661098      9.25728932
C       9.11517592      1.35723548      7.63112380
C       5.05882753     14.13978348     18.39148043
C      11.05632501     -0.53560663     10.75794714
C      -4.20402119     14.01164106     10.75557955
C       3.97973289     13.76385489     19.52609658
C       7.20523857      4.75687378     -1.05203407
C      11.55022860      1.90150885      4.06820080
C      10.88067655      1.90669337      5.44787675
C      10.00417255     -7.52876625     -7.38773455
C       6.11183879      5.75520108     -1.84146268
C       8.76587152     -3.24815792      5.62293686
H       8.29961068      4.95060911     -0.57041989
H       5.02223414     -8.26884416     -8.08934767
H      -8.03235858     -1.42821132      7.21347508
H      -8.61708804     -3.46530615     22.89421592
H      -2.38671050     -7.98206580     15.21573875
H       9.73458109      3.43711838      6.57811844
H       8.94257634      1.43754371      9.92351529
H       6.13537610     14.13803046     17.84591763
H       4.80712280     15.22238149     18.86370665
H      -3.31679290     -0.98607143     -6.82689955
H       7.18782431      3.58535999     -0.74374172
H      -4.35589130     14.63025297      9.70183584
H       1.33877585     -5.95354653      1.29764486
H       1.22505839      2.55366181    -18.07650149
H       9.18672666     -3.12426741      4.47261304
H      10.79387781     -6.61654766     -7.27167537
H      -4.69936780     14.65263884     11.68287381
   94

C       7.13560761     -6.84496034     -7.67283183
C       5.65091113     -7.60837784     -7.24778863
H       7.40630213     -6.04409405     -6.75977613
C     -10.35250949     -0.90292960      5.86260901
H     -18.89192964     -7.18332636     -1.80818810
H       4.66635723     -6.94802177     -6.87898618
C       9.87478828     -1.85883417      8.22168720
H       5.63335896     -8.41989637     -6.31004988
H      -7.56630833     -6.01525634    -16.99172244
H      -7.55858538     -6.78464651    -16.86374145
C      10.17555233      2.31397936      6.87673303
H      11.18526862      2.64126237      7.49314875
C       9.64255144     -2.81855927      6.92397857
H       7.65662264      3.77908166     -4.39200921
H      10.78783953     -2.62742138      6.52723932
H      -0.14482872     -7.37382401     12.68759826
C       8.69663129     -4.10317040      7.03653088
H       7.69382234     -4.30234565      7.72451836
C       6.15337486      5.61704106     -3.59478448
H       9.09069292     -5.24455574      7.27878701
H       6.82592946      6.56409272     -4.04289319
H       5.10121165      6.09923914     -4.03907070
C       6.56724309      4.30371816     -4.64867249
H       6.93089503      4.84891118     -7.21309959
C       6.24186601      4.48413132     -6.28470404
H       6.33998620      3.09679911     -4.51127058
H       5.22481713      4.32828193     -6.92843720
H      -3.00273127     13.84798958     10.96508666
C       8.55808845     -7.65611758     -8.22053333
H     -10.74385356      0.21633355      5.71280335
H     -19.27125200     -7.16729536     -1.12682362
C       0.53365330     -6.42690303      1.99185830
H     -11.01416311     -1.78379669      5.39932762
C      -1.16988727     -7.12876430     13.27974014
H      -0.28309806     -6.89548596      2.67562068
H      -3.40502250     -8.07842352     13.53504705
H      -1.16672770     -5.92236764     13.19562349
C      -3.73794108     -0.03980303     -7.35875571
H       6.60817569      6.87330329     -1.61703106
C       4.63835679      5.86142878     -0.91724358
H      -4.33545759      0.80901770     -7.88335330
H       4.56019286      6.65983871      0.03196299
H       4.16088580      4.87813990     -0.33659942
H       3.52504367      6.16022489     -1.36524787
H       8.85454070     -7.47289269     -9.41263257
H       8.43566587     -8.86146234     -8.48029435
H      10.62190164     -8.31420569     -6.70430603
H       8.02525654      0.08731703      9.58796421
H      11.41869688     -0.92234263      8.86052678
H      -2.03700628     -9.35693278     13.92932490
H       8.04252718      1.20896531      7.03941506
H      -8.74542007     -4.13753212     22.52000427
H       5.36185643     13.67786899     17.31710204
H       3.19196759     13.75926698     20.40219231
H      10.88494582     -1.16908424     11.83266583
H      16.47936340      4.00507976      0.58379734
H      -4.75979326     12.91565967     10.67097942
H      17.38829806      4.20092704      1.02090241
H       1.28482694      1.77923470    -18.00504900
H       7.71476337     -3.23529568      4.97673000
H       6.89267633     -5.89804424     -8.44627479
H      11.85080455      0.22926377     11.21018347
C      -9.02078648     -1.20443372      6.63798960
C      -2.26386652     -8.14705637     13.99923193
C       9.09726557      0.51074074      9.12943876
C      10.29849367     -0.69041750      9.29263388
C       9.08349089      1.33339929      7.66707123
C       5.05935418     14.15026587     18.39231248
C      11.02442247     -0.56431313     10.79446440
C      -4.20486526     14.01162899     10.75480807
C       3.98284686     13.75620225     19.52358525
C       7.18448792      4.76499746     -1.06604736
C      11.51161803      1.86916998      4.11229151
C      10.84554373      1.88375768      5.48649077
C      10.00343564     -7.52862945     -7.38737009
C       6.09076114      5.76281487     -1.85592846
C       8.73485484     -3.27252947      5.66257595
H       8.27920814      4.95794678     -0.58482967
H       5.02390218     -8.26883322     -8.08983893
H      -8.03240728     -1.42821616      7.21348063
H      -8.61711536     -3.46530725     22.89423901
H      -2.38691307     -7.98218637     15.21585242
H       9.70387401      3.41656426      6.61743819
H       8.91151727      1.41182742      9.95982219
H       6.14651312     14.13889750     17.86624782
H       4.82071491     15.24441980     18.85080984
H      -3.33023782     -0.99423144     -6.83381307
H       7.16685840      3.59371435     -0.75688896
H      -4.35673427     14.63024009      9.70106371
H       1.33889908     -5.95362356      1.29776135
H       1.22506801      2.55365308    -18.07649863
H       9.15516708     -3.15214563      4.51163788
H      10.79349794     -6.61663362     -7.27213117
H      -4.70021089     14.65262818     11.68210191
   94

C       7.13610992     -6.84372872     -7.67322266
C       5.65252105     -7.60922230     -7.24847599
H       7.40631988     -6.04175641     -6.76096319
C     -10.35223719     -0.90292630      5.86262389
H     -18.89185999     -7.18329685     -1.80818867
H       4.66667289     -6.95116223     -6.87927203
C       9.84392006     -1.88931490      8.26508052
H       5.63682396     -8.42081831     -6.31075499
H      -7.56622560     -6.01512687    -16.99155064
H      -7.55851441     -6.78452087    -16.86359197
C      10.13666092      2.29285474      6.92656094
H      11.14966769      2.61840472      7.53824728
C       9.61225115     -2.85030851      6.96849393
H       7.64178064      3.80266397     -4.42874540
H      10.75987511     -2.66701879      6.57425893
H      -0.14324894     -7.37313387     12.68691924
C       8.66436962     -4.13343268      7.08099446
H       7.66301338     -4.33241503      7.77105564
C       6.12677865      5.62771356     -3.61374223
H       9.05656243     -5.27574696      7.32165345
H       6.79813272      6.57654639     -4.06025039
H       5.07244088      6.10482843     -4.05859085
C       6.54045943      4.31363724     -4.66645980
H       6.90897697      4.85702674     -7.23045655
C       6.21826884      4.49169622     -6.30347733
H       6.28675806      3.11346078     -4.50992602
H       5.20157117      4.33473571     -6.94750670
H      -3.00364170     13.84794703     10.96428889
C       8.55707945     -7.65691902     -8.22158053
H     -10.74359595      0.21633235      5.71281672
H     -19.27118577     -7.16726916     -1.12682601
C       0.53424371     -6.42643055      1.99231562
H     -11.01390178     -1.78378982      5.39934946
C      -1.16836751     -7.12813881     13.27900883
H      -0.28197753     -6.89520472      2.67657734
H      -3.40368981     -8.07765133     13.53438852
H      -1.16511451     -5.92173120     13.19490827
C      -3.76246754     -0.05256756     -7.36662863
H       6.58353295      6.88354731     -1.63577536
C       4.61083624      5.87098538     -0.93944071
H      -4.35003564      0.80321422     -7.89177108
H       4.53155512      6.66841039      0.01038224
H       4.13149786      4.88659376     -0.36222727
H       3.49884982      6.17103114     -1.38982213
H       8.85214324     -7.47622444     -9.41439840
H       8.43478903     -8.86228849     -8.48127198
H      10.61850139     -8.31455266     -6.70249909
H       7.98976281      0.05723629      9.62652475
H      11.38635313     -0.93623782      8.89467103
H      -2.03575366     -9.35619581     13.92867335
H       8.00734773      1.17863340      7.07916459
H      -8.74525928     -4.13752018     22.51987819
H       5.30719112     13.65660482     17.32018644
H       3.19716894     13.73754317     20.39422849
H      10.84840147     -1.20612162     11.87142502
H      17.27663155      4.29847217      0.29107835
H      -4.76069122     12.91560322     10.67017769
H      17.96680581      4.44684818      0.62280753
H       1.28497187      1.77933824    -18.00471786
H       7.67749077     -3.25138990      5.02790637
H       6.89421282     -5.89466015     -8.44437597
H      11.81802603      0.19288208     11.25468810
C      -9.02049327     -1.20442128      6.63797963
C      -2.26250834     -8.14629052     13.99852837
C       9.06256486      0.48169687      9.17105908
C      10.26561170     -0.71793936      9.33314833
C       9.04593546      1.30620919      7.71007183
C       5.06099461     14.16835493     18.39426950
C      10.99074423     -0.59795726     10.83574887
C      -4.20577633     14.01157900     10.75400828
C       3.98827801     13.73668777     19.51723300
C       7.15782747      4.77562335     -1.08467655
C      11.45576982      1.82272927      4.17326817
C      10.80079287      1.85740448      5.53772447
C      10.00175841     -7.52931790     -7.38748836
C       6.06485978      5.77371110     -1.87519956
C       8.70057297     -3.29983314      5.70862650
H       8.25299611      4.96763975     -0.60427346
H       5.02659086     -8.26947174     -8.09147714
H      -8.03208998     -1.42818700      7.21343874
H      -8.61696058     -3.46529670     22.89411747
H      -2.38561986     -7.98143464     15.21515161
H       9.66806370      3.39683006      6.66852668
H       8.87679287      1.38123454     10.00306441
H       6.16786904     14.14278373     17.90673724
H       4.84613165     15.28474149     18.82381884
H      -3.34387520     -1.00225913     -6.84104356
H       7.13998770      3.60464667     -0.77457897
H      -4.35764540     14.63019125      9.70026461
H       1.33999177     -5.95342915      1.29861528
H       1.22522505      2.55375970    -18.07614389
H       9.12092234     -3.18704830      4.55683254
H      10.79251498     -6.61774026     -7.27395708
H      -4.70112699     14.65257452     11.68130192
