   94
energy=      0.00000000
C      -8.28630553     -5.21846251     -5.51137760
C      -7.15051852     -5.74061510     -4.50162844
H      -9.11564862     -4.83713751     -6.24876565
C      -9.99211367     -1.09829321      5.88981996
H     -18.89185999     -7.18329685     -1.80818867
H      -6.60486595     -4.80311280     -3.92675161
C      10.04990559     -5.11511035      7.46055257
H      -7.62628290     -6.47988304     -3.64473764
H      -7.31887601     -5.77374841    -16.93688809
H      -7.31116482     -6.54314240    -16.80892942
C       6.73420389      1.07028258      9.77552628
H       5.56442615      1.44984237      9.70018175
C       9.95503521     -5.91551780      6.13929300
H       6.59030780     -0.15597861      9.84041927
H      10.10262335     -5.02107740      5.34991992
H       1.53490923     -5.84546008     10.81668145
C       9.74005589     -7.54118842      5.97222326
H       8.73001275     -7.73283410      5.28946703
C       5.25376639      3.15742445     -3.49555550
H       9.27176955     -8.08026109      6.97886996
H       6.03423483      2.31540173     -3.79877694
H       5.01902837      4.35194754     -3.77196923
C       4.81288965      2.25619736     -4.91553722
H       6.16342608      3.12734177     -7.19598938
C       5.33525052      3.12174591     -6.30078833
H       4.72384844      1.42212676     -5.82350712
H       5.14636220      4.12873021     -6.95054505
H      -0.88914472     13.61687686     12.12272325
C      12.37234461     -6.91729667    -13.67192055
H     -10.39261584      0.01667790      5.73420784
H     -19.27118577     -7.16726916     -1.12682601
C      -9.30897803      4.96232714    -10.51107341
H     -10.66126281     -1.97109792      5.42266974
C       0.50937416     -5.60287082     11.40887776
H     -10.40895073      4.90076610    -10.25089213
H      -1.71521124     -6.55592136     11.64342701
H       0.50638269     -4.39594932     11.32828548
C       4.06359392      1.00731550     -4.03981033
H       6.11846644      4.35584149     -1.57076320
C       4.27890753      3.38137839     -0.65941337
H       3.07151548      0.61244122     -3.48614654
H       4.08203724      4.40255292      0.01556899
H       4.07219511      2.65389471      0.32345459
H       3.08228426      3.34766359     -0.97663377
H      11.94284700     -5.83658463    -13.37948360
H      12.89496904     -7.08642857    -14.73783995
H      12.27921780     -7.82887681    -12.89843808
H       8.31981147      2.07896712     13.28500877
H       6.13257083      4.38500902     12.82650014
H      -0.38110294     -7.83987326     12.07297424
H       8.91730122      1.56917674     10.66282073
H      -8.70101793     -4.16259184     22.46177845
H       6.57721182      7.20856129     11.20282494
H      -2.34926645     13.47707260     24.28447819
H       8.82715965      5.67284583     13.38027854
H       7.84774341      1.80798177     -2.10972680
H      -2.64619425     12.68453305     11.82861205
H      18.54992096      0.44742164     -4.91105982
H       1.15332696      1.56248734    -14.18198804
H      11.24303255     -9.15412826      4.56954678
H      28.97086895     -1.67644067      0.07601537
H       9.20677617      5.27098084     11.59121625
C      -8.66001723     -1.39986926      6.66538101
C      -0.58206173     -6.62479141     12.12699289
C       7.49558553      2.44215122     12.43892092
C       7.27601748      4.10592080     12.50448143
C       7.73735101      1.70956100     10.95122268
C       7.60610734      6.92169787     11.76854864
C       8.22774689      5.47524153     12.31537235
C      -2.09127935     13.78050884     11.91244264
C      -1.82991536     14.44140264     23.89137868
C       6.98827526      2.24257606     -1.32280189
C      18.57578680      0.95557944     -5.98786911
C      19.23606922      0.17858371     -7.14141650
C      28.89209537     -0.51999665     -0.02702431
C       5.61639914      3.23185159     -1.77316165
C      11.09277569     -8.35590757      5.46439439
H       7.91856034      2.64875123     -0.61792605
H      -6.28252165     -6.37001071     -5.09960272
H      -7.67140363     -1.62367139      7.24096302
H      -8.57271924     -3.49036836     22.83601772
H      -0.68418376     -6.45878265     13.34547340
H       7.03773061      1.29285982      8.60042675
H       6.65117839      1.80880002     13.08013475
H       8.02947270      8.05561667     11.79819129
H      -1.31056426     15.40573269     23.49827917
H       4.30397594      0.03550139     -3.34668325
H       6.91145088      1.14559882     -0.74568441
H      -2.24314842     14.39912108     10.85869898
H      18.12008600      2.03042596     -6.22335482
H       1.09358106      2.33690907    -14.25341160
H      12.22776648     -8.32857644      5.87913570
H      28.81334465      0.63645392     -0.13000798
H      -2.58663002     14.42150435     12.83973628
   94
energy=      0.00000000
C      -8.28630164     -5.21845984     -5.51138060
C      -7.15051485     -5.74061257     -4.50163127
H      -9.11566337     -4.83714764     -6.24875430
C      -9.99438234     -1.09777831      5.88849918
H     -18.89185999     -7.18329685     -1.80818867
H      -6.60484805     -4.80311979     -3.92675242
C      10.05497544     -5.11400620      7.45826032
H      -7.62630997     -6.47987693     -3.64475445
H      -7.31887676     -5.77374912    -16.93688832
H      -7.31116557     -6.54314312    -16.80892965
C       6.73320955      1.08343861      9.78061231
H       5.56467421      1.46790929      9.71059020
C       9.95438502     -5.91532518      6.13797388
H       6.58960402     -0.14270250      9.84521771
H      10.09608107     -5.02095277      5.34747213
H       1.53527908     -5.84772649     10.81652048
C       9.74044352     -7.54133838      5.97290225
H       8.73007606     -7.73480954      5.29118355
C       5.37356069      3.10929760     -3.50654869
H       9.27285278     -8.07932439      6.98042956
H       6.44669809      2.66934225     -3.88281987
H       4.94792588      4.25531567     -3.74716570
C       4.79098313      2.21746737     -4.87644724
H       6.15605079      3.01583974     -7.09483443
C       5.25653922      3.07940437     -6.27103939
H       4.60971619      1.40750484     -5.78468467
H       4.93701928      4.08904925     -6.86969322
H      -0.88914472     13.61687686     12.12272325
C      19.17831068     -6.45770506     -9.28910106
H     -10.38828197      0.02030205      5.73707983
H     -19.27118577     -7.16726916     -1.12682601
C      -9.30897803      4.96232714    -10.51107341
H     -10.65813294     -1.97641206      5.42414327
C       0.50992158     -5.60395980     11.40861542
H     -10.40895073      4.90076610    -10.25089213
H      -1.71974756     -6.55521213     11.65293751
H       0.50977197     -4.39727290     11.32637376
C       3.98343590      0.97747239     -4.07249245
H       6.14975898      4.39018446     -1.62093744
C       4.31925640      3.38181129     -0.68733087
H       2.86283903      0.73264111     -3.68781949
H       4.12417251      4.39732601     -0.00004620
H       4.11220448      2.61157621      0.26010141
H       3.12782264      3.33068407     -1.01805471
H      18.20102334     -6.71902647     -9.90207200
H      18.41536002     -6.90613145    -10.07421592
H      20.01072859     -7.14154269     -7.62372206
H       8.32381434      2.07441913     13.29377545
H       6.12090446      4.37599329     12.80513864
H      -0.36959591     -7.83683549     12.06583771
H       8.92103645      1.58952709     10.65760309
H      -8.70101793     -4.16259184     22.46177845
H       6.58990799      7.19833494     11.17354666
H      -2.34926645     13.47707260     24.28447819
H       8.82140119      5.66207247     13.37838430
H       7.91291111      1.78585029     -1.94498357
H      -2.64619425     12.68453305     11.82861205
H      17.91526518      4.32244988     -3.56955349
H       1.15332687      1.56248792    -14.18199008
H      11.24606616     -9.14358969      4.56120536
H      21.31029529     -5.81909782     -7.50508551
H       9.20336785      5.26338639     11.58795539
C      -8.66253936     -1.39929650      6.66391261
C      -0.58278460     -6.62410515     12.12739014
C       7.49946821      2.43717962     12.44760981
C       7.27026480      4.09966332     12.50201119
C       7.74161472      1.71708747     10.95431365
C       7.60672275      6.91394977     11.76197672
C       8.22406923      5.46713156     12.31200726
C      -2.09127935     13.78050884     11.91244264
C      -1.82991536     14.44140264     23.89137868
C       7.00655290      2.26034220     -1.24360043
C      17.94113061      4.83060815     -4.64636263
C      18.60141076      4.05361595     -5.79991371
C      20.36481974     -6.13854405     -8.17430029
C       5.67070485      3.24233092     -1.77962904
C      11.09314688     -8.35604442      5.46503825
H       7.89221558      2.70113674     -0.49847561
H      -6.28250531     -6.37000489     -5.09959062
H      -7.67407657     -1.62306905      7.23940667
H      -8.57271924     -3.49036836     22.83601772
H      -0.69473885     -6.45853756     13.34503736
H       7.03109745      1.30695944      8.60431503
H       6.66515850      1.79801041     13.09641389
H       8.02462578      8.04920393     11.81061673
H      -1.31056426     15.40573269     23.49827917
H       4.32430752     -0.05914713     -3.53371480
H       6.83953796      1.15883502     -0.70217550
H      -2.24314843     14.39912108     10.85869898
H      17.48543037      5.90545491     -4.88184806
H       1.09358096      2.33690965    -14.25341364
H      12.22496831     -8.33923838      5.88892458
H      21.22377584     -5.54724068     -7.56622463
H      -2.58663002     14.42150435     12.83973628
