   94
energy=      0.00000000
C      -9.94653549     -1.68996938     -3.78720534
C      -8.46723370     -2.08722077     -3.00381925
H      -9.73431201     -1.00690493     -4.81024235
C     -11.27455639     -1.05410020     -2.89704740
H     -10.31759448     -2.62558703     -4.52450317
H      -7.74691094     -1.15934149     -2.60519661
C      -0.16864670     -1.63821849     -1.27418344
H      -8.47521270     -2.81330396     -1.99930667
H      -5.82327299     -4.71031834    -13.97335978
H      -5.81556180     -5.47971233    -13.84540111
C       0.98218275     -1.37115738     -2.31282113
H       0.19040352     -0.95361569     -3.16172290
C       2.39805510     -0.50368741     -1.89349999
H       1.05284663     -2.54531625     -2.68637331
H       2.38135327      0.58953266     -2.48661354
H       3.26987575     -0.81663368     -2.72816007
C       3.01622126     -0.37151371     -0.27452943
H       4.26297596     -0.40616499     -0.27205957
C       2.49271636      0.77394109      0.93232887
H       3.15622376     -1.52508349      0.16441764
H       1.98857897      1.77421292      0.39983933
H       3.37522364      1.63227123      1.12781583
C       1.68108127      0.38943985      2.42973262
H       2.37529863      0.79844892      3.37868252
C       3.10166687      3.65598425    -10.58674141
H       2.02040618     -0.70986703      2.90421513
H       2.45566006      4.46411171    -11.04612010
H       0.48359399      9.60719097     12.26259760
C      10.73503642     -4.86111299     -9.76333211
H     -11.16945086      0.07110768     -2.38590816
H     -11.72378618     -1.67810958     -1.92462388
C     -21.51356975     -1.47315187     -2.28045991
H     -12.38209980     -0.87017336     -3.42234928
C      -8.02600585      0.03015509     10.36013751
H     -22.19178648     -2.35817040     -2.28393394
H      -8.08601750      0.90413702      9.59414833
H      -7.96599032     -0.84381824     11.12613618
C      -0.02006781      0.59980252      2.73261346
H      -0.56627448      1.33526709      1.89134989
C      -0.75768849      1.04533092      4.22958589
H      -0.63070746     -0.38525225      2.27472120
H      -0.45179202      2.11992418      4.76970984
H      -0.66928806      0.29840131      5.21662227
H      -1.98435566      1.20404116      4.33884764
H      10.30562423     -3.78036640     -9.47089741
H      11.25763177     -5.03029276    -10.82925818
H      10.64185328     -5.77267981     -8.98984073
H       4.04270976     -3.24752054     17.85171258
H       1.21780860     -3.70391082     19.87019475
H       6.69623601     -9.50107348      8.92591232
H      17.30909618     -3.81971051     14.62149565
H      -8.70101793     -4.16259184     22.46177845
H       8.25872919      9.53045194      1.03372725
H      -1.20547017     10.01047711     14.99962220
H       9.98988334      9.21202758      4.09616558
H      14.25879809     -2.60927400      1.51697997
H      -1.21064915      8.78765474     12.28325356
H      16.71887752     -0.62012965      2.89562350
H      22.75804914      0.03922184    -13.10207148
H      10.93217692     -1.72564220      3.80524110
H      25.57955124     -1.30123948     -0.80875813
H       8.54876765      8.05574838      3.65550448
C      15.54365658     -2.35559275     15.49418646
C       6.81209499     -8.41869075      8.51586859
C       2.88849627     -2.93772849     17.84404308
C       1.92467991     -3.37465421     19.00411723
C      16.85656317     -2.71773124     14.71019512
C       8.85608646      9.88576125      2.02298825
C       8.88444002      9.23753586      3.54958406
C      -0.69745919      9.89364132     12.50586130
C      -1.06468543     10.68923176     13.97220292
C      14.56123463     -1.81591267      2.41136887
C      15.80811644     -0.72532491      2.07491570
C      16.73099489     -0.92812363      0.81200931
C      25.27142579     -0.32303945     -1.43092745
C      13.11565613     -1.26537280      2.86156604
C      11.68348673     -0.88857819      3.40021765
H      24.83513233     -0.44778626     -2.53995785
H      -7.57023736     -2.73293633     -3.56454180
H      14.63009658     -2.03008487     16.14177843
H      -8.57271924     -3.49036836     22.83601772
H       6.78499036     -7.40355459      7.94852793
H      17.51608367     -1.88369999     14.16707779
H       2.50021071     -2.28475049     16.92138386
H       9.42230977     10.85678934      1.57719811
H      -0.26735058     11.53158358     14.40903692
H       8.14499746      9.81996554      4.34781829
H      14.78442876     -2.62181409      3.31708332
H      -0.98094658     10.45338669     11.43700787
H      15.52916772      0.45123143      1.85259602
H      22.64914649      0.80928420    -13.16160445
H      11.27626332      0.23270927      3.44650661
H      25.43615607      0.78310664     -0.99766534
H      -2.10559449     11.35831183     14.04268649
   94
energy=      0.00000000
C     -10.14112725     -1.72432019     -3.86110039
C      -8.65797805     -2.11689877     -3.08247531
H      -9.92888325     -1.04470370     -4.88647674
C     -11.47007038     -1.08216288     -2.97703402
H     -10.51645489     -2.66800847     -4.58603896
H      -7.94208535     -1.19376644     -2.66558464
C      -0.29171244     -1.79323605     -1.61241509
H      -8.65511751     -2.84636028     -2.08036859
H      -5.81946279     -4.71348561    -13.98310691
H      -5.81175160     -5.48287960    -13.85514824
C       0.86880197     -1.52964315     -2.64140802
H       0.07793881     -1.12013497     -3.49459535
C       2.27852791     -0.65306159     -2.22180261
H       0.95337136     -2.70649706     -3.00312785
H       2.25684484      0.44418884     -2.80685316
H       3.15605158     -0.93694309     -3.06058301
C       2.88791982     -0.54201186     -0.59908679
H       4.13278735     -0.61295167     -0.57702771
C       2.36887693      0.61643245      0.59578732
H       3.00507998     -1.69860159     -0.16167859
H       1.86835093      1.62131915      0.06814541
H       3.25621984      1.47217570      0.78063487
C       1.55295864      0.23299675      2.08964347
H       2.24857754      0.65317028      3.03230016
C       3.10166688      3.65598425    -10.58674142
H       1.89352459     -0.86256206      2.57168263
H       2.45566006      4.46411171    -11.04612010
H      -0.57356573     10.44907635     12.78792567
C      10.73503643     -4.86111299     -9.76333211
H     -11.36163531      0.04050322     -2.46121784
H     -11.92811838     -1.70769401     -2.00965991
C     -21.69531033     -1.47767095     -2.26611284
H     -12.57209778     -0.88674442     -3.51012537
C      -8.02600470      0.03015766     10.36014037
H     -22.37352706     -2.36268949     -2.26958687
H      -8.08601815      0.90413575      9.59414696
H      -7.96599089     -0.84381954     11.12613476
C      -0.15000304      0.43213235      2.38739387
H      -0.71356562      1.14661078      1.53907134
C      -0.86412763      0.88331686      3.89340460
H      -0.76451071     -0.55200625      1.93242861
H      -0.54875868      1.96225815      4.41919397
H      -0.76077268      0.13454100      4.87775725
H      -2.08719685      1.04534114      4.02880248
H      10.30562423     -3.78036640     -9.47089741
H      11.25763177     -5.03029276    -10.82925818
H      10.64185328     -5.77267981     -8.98984073
H       6.26365909      1.90312622     12.78314802
H       6.81267586      2.69546131     10.43578003
H       6.69302944     -9.52030894      8.97139342
H      17.27169964     -3.83365255     14.63543880
H      -8.70101793     -4.16259184     22.46177845
H       7.87444850      6.31239910      6.95640676
H      -2.24648033     10.86628126     15.52064147
H       8.38866696      5.32572388      9.83340351
H      14.46359985     -2.84275692      1.22626397
H      -2.27757617      9.64902979     12.79534823
H      16.89954531     -0.78975258      2.63834665
H      22.75064232      0.04121189    -13.13360711
H      11.12460817     -1.94270848      3.52284221
H      25.92933639     -1.26201420     -0.90793516
H       7.03521181      4.14367930      8.34569691
C      15.57455033     -2.34382005     15.51323801
C       6.74490290     -8.46291490      8.48827765
C       6.34965551      2.74371545     11.93184873
C       6.74017396      3.86717247     10.70927926
C      16.87431494     -2.70905394     14.71131158
C       7.73115804      5.78840774      8.02290093
C       7.41256268      4.75942039      9.33580168
C      -1.75287458     10.74833266     13.02426738
C      -2.12007883     11.54392491     14.49059148
C      14.77626743     -2.07713483      2.14059715
C      15.99904581     -0.95650050      1.81586973
C      16.89386964     -1.20863733      0.54224871
C      25.63274550     -0.29385267     -1.55035065
C      13.33511438     -1.54033493      2.61712761
C      11.90275773     -1.12724638      3.12521235
H      25.17965949     -0.42274908     -2.65303277
H      -7.76341423     -2.74753745     -3.66452472
H      14.62299503     -2.05439560     16.12073741
H      -8.57271924     -3.49036836     22.83601772
H       6.78222487     -7.41236553      7.98915151
H      17.51193625     -1.86589721     14.15400764
H       5.84111246      1.96989756     12.69420374
H       8.15148356      6.58000466      7.23238570
H      -1.32970757     12.39673710     14.91978495
H       6.19182725      4.78797673     11.32322250
H      15.01958065     -2.92284617      3.00445857
H      -2.02328864     11.31450227     11.95538407
H      15.71934844      0.21856284      1.58580097
H      22.64173966      0.81127425    -13.19314009
H      11.52956899      0.00672802      3.14278716
H      25.78847956      0.80332126     -1.09217555
H      -3.16823799     12.20114268     14.56549491
