   94
energy=      0.00000000
C     -10.17091288     -1.73725400     -3.86809209
C      -8.68283439     -2.11976868     -3.09380673
H      -9.96254528     -1.06916296     -4.90177111
C     -11.49715814     -1.08303254     -2.98882022
H     -10.55046445     -2.69248977     -4.57570594
H      -7.98015719     -1.19666666     -2.65519733
C       1.75117580     -1.79097472     -1.69868978
H      -8.67234494     -2.86669490     -2.10455512
H      -5.81892965     -4.71391644    -13.98443373
H      -5.81121846     -5.48331043    -13.85647506
C       3.14586269     -1.64588285     -2.41941823
H       2.43459395     -1.00367415     -3.21072710
C       4.76337779     -1.14497499     -1.98982817
H       2.89904940     -2.79660948     -2.78520879
H       4.47686078      0.05962713     -2.05350799
H       5.19823875     -1.40237896     -3.12350351
C       6.16590892     -1.30101127     -0.87428687
H       6.93737771     -0.86687423     -1.73238904
C       5.63744138      0.13226437      1.12781452
H       6.04674340     -2.51508909     -0.63116137
H       5.52968546      1.17314450      0.48049824
H       6.01924309      1.21633180      1.55885950
C       3.97164995     -0.09977993      1.83323286
H       4.05697996      0.38570279      2.96562951
C       3.12568889      3.71836650    -10.75803011
H       3.94336165     -1.32092366      2.04632630
H       2.47968207      4.52649394    -11.21740874
H      -0.81995286     10.59246332     12.88607873
C      10.73503643     -4.86111299     -9.76333211
H     -11.38002554      0.03378286     -2.46253189
H     -11.96862019     -1.71150218     -2.02971325
C     -21.72803364     -1.47844820     -2.26339574
H     -12.59083036     -0.86440053     -3.53026752
C      -1.96316347     -4.63289130     11.25893729
H     -22.40625037     -2.36346673     -2.26686977
H      -0.61063798     -4.44507689      9.55016092
H      -3.02094004     -4.31184351     11.65773976
C       2.20619622      0.22060070      1.70627650
H       2.02486980      1.05515418      0.80010868
C       0.83373781      0.59594834      2.74104335
H       1.63488628     -0.72607217      1.14583343
H       0.71367227      1.70812874      3.27989852
H       0.53496510     -0.11095418      3.71956209
H      -0.38082934      0.64472082      2.44589220
H      10.30562423     -3.78036640     -9.47089742
H      11.25763177     -5.03029276    -10.82925818
H      10.64185328     -5.77267981     -8.98984073
H       7.61404062      3.03633682     13.80184094
H       6.63759694      3.24592812     10.96500042
H      -0.54389555     -6.28986566     10.87147223
H      17.26324273     -3.83366046     14.63794699
H      -8.70101793     -4.16259184     22.46177845
H       7.52547183      6.53252889      8.21452130
H      -2.45573776     11.04198803     15.60931557
H       9.09307850      5.17197436     10.92714144
H       9.25081402     -1.42070513     -0.89341739
H      -2.54468588      9.83697223     12.86408208
H      11.36596307     -1.12953410      1.57287829
H      22.75026404      0.04130417    -13.13509705
H       7.80323903     -1.49121638      3.08359565
H      25.95114156     -1.25922472     -0.91414554
H       8.09399388      4.19614941      9.42037021
C      15.58071885     -2.33757097     15.51866370
C      -0.57755769     -5.09716367     10.58764473
C       6.82294209      3.45753036     12.98516285
C       6.97195152      4.29137683     11.53345299
C      16.87688389     -2.70513263     14.71214493
C       8.00521176      6.32646555      9.31084194
C       8.00654803      5.00599328     10.35195750
C      -1.99453061     10.92071365     13.10727307
C      -2.36172165     11.71629001     14.57356177
C       8.92639163     -1.22665833      0.27810596
C      10.65435519     -0.86719721      0.58683317
C      11.97924378     -1.43457159     -0.10406423
C      25.65424079     -0.29178796     -1.55745124
C       7.12959037     -0.78430493      0.56671799
C       7.73560605     -0.71194637      2.14902378
H      25.20112161     -0.42093140     -2.66014382
H      -7.77711831     -2.72026358     -3.69058719
H      14.61910089     -2.06369414     16.11736888
H      -8.57271924     -3.49036836     22.83601772
H       0.62473213     -4.94341259     10.75251443
H      17.51554984     -1.86676116     14.14860894
H       5.83904751      3.00899462     13.54998113
H       8.56910355      7.40012343      9.30288728
H      -1.58759514     12.59222941     14.98558901
H       6.26852586      5.25263879     11.88097248
H       9.10694566     -2.43503801      0.52833461
H      -2.23508050     11.50098613     12.03875645
H      11.20185704      0.24273681      0.54125686
H      22.64136139      0.81136653    -13.19463002
H       8.32774593      0.15239705      2.79005676
H      25.81045807      0.80479240     -1.09806707
H      -3.42570453     12.34637175     14.65868277
   94
energy=      0.00000000
C     -10.17178869     -1.73969803     -3.86750145
C      -8.68256611     -2.11921289     -3.09394257
H      -9.96478969     -1.07539683     -4.90387756
C     -11.49686499     -1.08203581     -2.98902496
H     -10.55231277     -2.69781363     -4.57073593
H      -7.98408193     -1.19574556     -2.64950128
C       1.94210590     -1.90985832     -1.64694339
H      -8.67059621     -2.87168334     -2.10886984
H      -5.81892965     -4.71391644    -13.98443373
H      -5.81121846     -5.48331043    -13.85647506
C       3.27207756     -1.72975832     -2.46483471
H       2.54920633     -1.12165701     -3.26770590
C       4.84780593     -1.13058773     -2.08216493
H       3.12030673     -2.91521880     -2.76421998
H       4.61614521      0.08441998     -2.21649945
H       5.33545486     -1.35944276     -3.20764858
C       6.12106259     -1.31886946     -0.85982360
H       6.90723431     -0.93480451     -1.72089623
C       5.64339690      0.26526148      1.14155985
H       5.94352665     -2.52251821     -0.59068836
H       5.54850288      1.27320779      0.43894384
H       6.01121651      1.38066636      1.52650065
C       4.08176707     -0.08045029      1.94305581
H       4.20634183      0.25789387      3.13018890
C       3.12568889      3.71836650    -10.75803011
H       4.07596833     -1.29556597      2.20053813
H       2.47968207      4.52649394    -11.21740874
H      -0.82172298     10.58296582     12.89096840
C      10.73503643     -4.86111300     -9.76333212
H     -11.37697967      0.03312670     -2.45990923
H     -11.97179597     -1.71128702     -2.03211043
C     -21.72803364     -1.47844820     -2.26339574
H     -12.58840432     -0.85686076     -3.53210494
C      -1.93438609     -4.60710498     11.27821123
H     -22.40625037     -2.36346673     -2.26686977
H      -0.59632214     -4.60109802      9.44915497
H      -2.96950298     -4.28194734     11.72701490
C       2.36164790      0.25130566      1.71185298
H       2.24187906      1.10488090      0.81351779
C       1.01210522      0.60962037      2.75264355
H       1.85327658     -0.69849014      1.10131690
H       0.93858571      1.71607725      3.30856053
H       0.74467262     -0.11038003      3.72918219
H      -0.18272728      0.63579600      2.39578686
H      10.30562424     -3.78036640     -9.47089743
H      11.25763177     -5.03029277    -10.82925819
H      10.64185328     -5.77267981     -8.98984073
H       9.70183577      2.61827574     13.84154253
H       7.63439753      2.64678426     11.41138297
H      -0.55687458     -6.32326276     10.70565039
H      11.79411557      0.44311644     13.16043467
H      -8.70101793     -4.16259184     22.46177845
H       7.31211994      6.23653917      8.69929364
H      -2.44513494     11.04329054     15.61108429
H       9.54956174      5.26659948     10.91606362
H       9.06464744     -1.25105573     -0.95233456
H      -2.55288314      9.84223451     12.85935293
H      11.05771002     -1.07778316      1.59224677
H      22.75026404      0.04130417    -13.13509705
H       7.54431169     -1.61276716      3.12858124
H      25.95114171     -1.25922382     -0.91414511
H       8.37582693      3.93062023      9.45284756
C      17.28562046     -4.02390414     16.90142619
C      -0.58018029     -5.10375218     10.56864542
C       9.64834525      2.24279909     12.67460643
C       8.61440699      3.33334813     11.72645519
C      11.09457704      1.36262106     12.83240332
C       8.04280490      5.93039425      9.62496045
C       8.62811736      4.57517576     10.47829406
C      -1.99453198     10.92071652     13.10727844
C      -2.36172026     11.71628712     14.57355641
C       8.74117518     -1.22899452      0.23760105
C      10.41159028     -0.81191716      0.56907199
C      11.68506179     -1.40748304     -0.17726775
C      25.65424053     -0.29178792     -1.55745185
C       7.01347652     -0.77050385      0.59831310
C       7.54221704     -0.80677766      2.21597844
H      25.20112135     -0.42093166     -2.66014445
H      -7.77283131     -2.71084575     -3.69347020
H      16.33763288     -3.74233315     17.45228546
H      -8.57271924     -3.49036836     22.83601772
H       0.54580314     -4.80308958     10.94979405
H      12.20028090      0.97475146     13.07604579
H       9.00079982      1.27750333     13.07114616
H       8.23611793      7.12892228      9.55811928
H      -1.59310226     12.59968216     14.97998734
H       7.84644729      3.91800804     12.50155714
H       8.85873345     -2.46650180      0.39549945
H      -2.22521251     11.50543598     12.03899189
H      10.81147119      0.35562069      0.48701471
H      22.64136139      0.81136653    -13.19463002
H       8.10484696     -0.01297838      2.96464690
H      25.81045843      0.80479173     -1.09806626
H      -3.43070086     12.33740188     14.66211975
