   94

C      10.81917275     -8.20612227     -8.97801625
C      -0.34303590    -10.13599440     -9.68047686
H      10.91867005     -7.33495932     -8.10485123
C       1.53750735     -3.48122238      7.57329724
H     -18.89185999     -7.18329685     -1.80818867
H      -0.58431411     -9.34819185     -8.85869103
C       2.72450138     -3.88861717      8.72116053
H       9.98934123     -8.92091115     -8.39843029
H      -8.53156068     -6.31648995    -17.82625171
H      -8.52384950     -7.08588394    -17.69829304
C       7.88234180      0.50807656     -2.72144749
H      16.07331129      6.48611777     13.52058838
C       5.42467476     -5.17834593      6.38842621
H       8.54703852     12.73493238      3.35189173
H       5.83251806     -4.71743582      5.38474535
H       2.54663979    -10.83289918     17.14788278
C       3.44877490     -5.45938125      8.52406638
H       2.62832032     -6.30148929      8.11957862
C       7.86362459     13.06190157      5.76741437
H       3.43240368     -6.08907213      9.59801417
H       9.27528654     14.12015751      7.04758555
H       6.80686946     13.62463858      5.50615672
C       8.52416608     12.21341927      4.46976039
H      12.00018803      1.71523540     -3.28694920
C      10.85011810      1.46062468     -3.34347957
H       5.71104561      1.03431016     -2.29314708
H       8.00718965     11.10860930      4.26847254
H      -1.89889635     10.00514905     11.47760457
C      12.19581471     -8.96884520     -9.64914299
H       0.52302722     -2.96747331      8.03230195
H     -19.27118577     -7.16726916     -1.12682601
C       3.99975303     -1.98865507     -1.86889379
H       1.97182336     -4.05962946      9.69667792
C       1.52057708    -10.64922981     17.74066181
H       3.03370054     -2.23862536     -1.22960829
H     -10.92929094    -12.26878699     15.67156547
H       1.11586626     -9.53278872     17.90707850
C      -5.29669487      0.64474710     -7.87005184
H       2.60409590     11.56926822     -2.66499419
C       0.14496722     10.81198819     -2.62872874
H      -5.80086224      1.55132525     -8.39741940
H      -0.26956665     11.37724227     -1.61485670
H      -0.52489503      9.77907806     -2.61144322
H      -0.32773239     11.39892460     -3.60413214
H      12.45834760     -8.65931609    -10.82206144
H      12.03276798    -10.14102779    -10.02527202
H      13.99482973     -9.58147184     -7.83918375
H       4.84919424     -0.96129669      7.26385171
H       3.01922638     -1.56025924      9.66909850
H       0.89922521    -11.58200153     18.16702414
H       9.57947865      1.31480593     -4.22015195
H      -9.42675544     -2.95204824     23.99740376
H       6.95360826     13.30782387      9.47793775
H       8.63978151     12.09005371      7.57479649
H       4.67753802     -2.77325264     11.67703458
H      23.68739798      6.18932909     -2.70616817
H      -3.93269440      8.92602465     11.13716821
H      24.37757154      6.33770482     -2.37443862
H       1.89941836     -4.27995212      5.15669109
H       5.16134911     -7.04077810      7.43508465
H      10.07942607     -7.53658422     -9.71158300
H       5.99279979     -2.62352559     10.50192522
C       1.26253569     -3.55860437      5.91996219
C     -10.32731505    -12.21188174     16.66583507
C       4.35178522     -1.65480478      8.07574171
C       3.66149404     -2.53268057      9.24649834
C       9.28022290      1.28930283     -3.04874767
C       7.96545809     13.77615456      8.93566734
C       4.78369503     -2.64611727     10.47772467
C      -2.91579542      9.46558694     11.30738638
C       8.40575601     13.28543983      7.34900176
C       2.64510499      9.35988655     -2.84716557
C       5.28207189     -1.07228655     -2.10832041
C       6.38013384      0.05561695     -2.37196612
C      13.60636980     -8.90047774     -8.76165586
C       1.78981284     10.67804009     -2.69411358
C       4.93663684     -5.86842450      7.76502467
H       9.72597153     11.92424616      4.45761703
H      -0.11667956    -10.92435673    -10.50596316
H       0.16993584     -4.01036664      5.56132591
H      -9.29845674     -2.27982476     24.37164303
H      -9.72533916    -12.15497649     17.66010467
H      15.89747689      7.23957088     13.42164095
H       9.20128375      2.01030423     -2.06719147
H       8.80456926     13.59764802      9.83879917
H       7.68383898     14.95148126      9.20915534
H      -4.79252749     -0.26183104     -7.34268428
H       3.24286845      8.37832048     -3.04945716
H      -7.32753058     20.54354438      9.86115128
H       3.33124151     -2.89458383     -2.23167445
H       1.42633191     -2.49464688      5.31497996
H       5.97973753     -5.78876398      8.42227727
H      14.54421836     -8.13729673     -8.82248873
H      -7.46074211     20.55216357     10.62964357
   94

C      10.82087024     -8.20918352     -8.98110722
C      -0.34366560    -10.13618166     -9.68120626
H      10.92087672     -7.33694365     -8.10907205
C       1.37512715     -3.23780129      7.61253060
H     -18.89199121     -7.18331564     -1.80824066
H      -0.58435967     -9.34829506     -8.85933282
C       2.58048333     -3.61577700      8.74585581
H       9.99139986     -8.92359869     -8.40055282
H      -8.53160088     -6.31649589    -17.82632931
H      -8.52389039     -7.08589001    -17.69837128
C       7.88270201      0.50338378     -2.71986912
H      16.07394584      6.48667780     13.52083058
C       5.74777786     -5.70190790      6.28479551
H       8.53977308     12.74205389      3.35364156
H       6.16333414     -5.24664859      5.28154824
H       2.54116400    -10.84361897     17.17677125
C       3.77711732     -6.03753900      8.42139843
H       2.92675965     -6.84201185      8.01687478
C       7.86609075     13.06091251      5.77159261
H       3.73392221     -6.62470106      9.51285318
H       9.29157900     14.11088814      7.05183038
H       6.80766032     13.62258721      5.51523158
C       8.52074480     12.21545418      4.46922494
H      12.00117918      1.70134654     -3.28078075
C      10.84984367      1.44966619     -3.32330408
H       5.70966807      1.04249291     -2.29655393
H       8.00241148     11.11139591      4.26746065
H      -1.92729853     10.06768956     11.50879954
C      12.19785187     -8.97167311     -9.65180095
H       0.36378623     -2.74187930      8.09614016
H     -19.27131300     -7.16728755     -1.12687578
C       4.00939827     -1.98635711     -1.87906193
H       1.86368200     -3.87889578      9.72324154
C       1.51415552    -10.65945753     17.76773914
H       3.04865523     -2.20278848     -1.21842162
H     -10.93342881    -12.26949026     15.67147505
H       1.10966116     -9.54294389     17.93412805
C      -5.29701590      0.64494026     -7.87061080
H       2.60208440     11.57338661     -2.66365815
C       0.14290285     10.81597543     -2.62929384
H      -5.80115694      1.55157942     -8.39789356
H      -0.27135590     11.38103485     -1.61521046
H      -0.52641924      9.78273093     -2.61133680
H      -0.33064271     11.40299804     -3.60424632
H      12.46070343     -8.66141621    -10.82445481
H      12.03467928    -10.14380509    -10.02802479
H      13.99723952     -9.58574340     -7.84260860
H       4.69769464     -0.71407835      7.30208800
H       2.85110938     -1.30789252      9.71114301
H       0.89197160    -11.59226186     18.19279224
H       9.53448879      1.31413937     -4.22884552
H      -9.42692704     -2.95203995     23.99760377
H       6.94766052     13.30773472      9.46896273
H       8.66044590     12.08990688      7.57821325
H       4.50887586     -2.48656491     11.73664200
H      23.68751907      6.18940294     -2.70623086
H      -3.96109288      8.98854540     11.16839915
H      24.37768836      6.33777251     -2.37448972
H       1.71078842     -3.98649287      5.16982986
H       5.49812415     -7.57003842      7.33629418
H      10.07983098     -7.54145278     -9.71502866
H       5.83429121     -2.30567855     10.57542162
C       1.08545863     -3.28241665      5.95916025
C     -10.33146882    -12.21258931     16.66575511
C       4.20267269     -1.40314263      8.11896565
C       3.51119202     -2.27147533      9.29699154
C       9.27594548      1.28790461     -3.04677369
C       7.96196135     13.77761378      8.93270619
C       4.62639521     -2.36255145     10.53789509
C      -2.94419689      9.52811938     11.33860029
C       8.41492071     13.28281974      7.35100274
C       2.64277814      9.36424742     -2.85066454
C       5.29006929     -1.07197302     -2.11737930
C       6.37798571      0.06325083     -2.37665898
C      13.60845819     -8.90391418     -8.76432520
C       1.78773465     10.68230842     -2.69551481
C       5.26576798     -6.39877082      7.66079179
H       9.72180138     11.92381202      4.45076942
H      -0.11655451    -10.92456430    -10.50646300
H      -0.01481454     -3.71993178      5.60452429
H      -9.29861252     -2.27981245     24.37183042
H      -9.72950215    -12.15568361     17.66003086
H      15.89803117      7.24010745     13.42184737
H       9.19666777      2.01800563     -2.07213489
H       8.79326895     13.60407307      9.84380104
H       7.67699838     14.95384942      9.19878005
H      -4.79288706     -0.26172426     -7.34336046
H       3.24078473      8.38179169     -3.04782865
H      -7.34988083     20.59916300      9.85484396
H       3.36278242     -2.89681910     -2.27141161
H       1.24473114     -2.20553802      5.37530124
H       6.29694394     -6.28600441      8.33113778
H      14.54636588     -8.14075243     -8.82457455
H      -7.48309857     20.60778903     10.62333510
   94

C      10.82252908     -8.21218351     -8.98415349
C      -0.34427668    -10.13627772     -9.68176634
H      10.92304307     -7.33887243     -8.11324454
C       1.20137424     -2.97759348      7.66142918
H     -18.89207563     -7.18333050     -1.80827652
H      -0.58435452     -9.34832240     -8.85978025
C       2.41340867     -3.32706961      8.78519665
H       9.99341831     -8.92622521     -8.40263436
H      -8.53162692     -6.31649760    -17.82637701
H      -8.52391720     -7.08589183    -17.69841964
C       7.88241779      0.49794390     -2.71716204
H      16.07432369      6.48700058     13.52098161
C       6.06084184     -6.20762779      6.18164463
H       8.53256698     12.74906274      3.35551687
H       6.47030911     -5.75118050      5.17677024
H       2.53571699    -10.85284305     17.20353767
C       4.11275476     -6.57811603      8.30939640
H       3.22859445     -7.33899542      7.90540353
C       7.86855395     13.05986688      5.77579372
H       4.04233453     -7.12276225      9.41675793
H       9.30769853     14.10157873      7.05611501
H       6.80847427     13.62046054      5.52428005
C       8.51732751     12.21740517      4.46878716
H      12.00118930      1.68709039     -3.27439260
C      10.84870548      1.43841997     -3.30210049
H       5.70787589      1.04946126     -2.29824509
H       7.99764533     11.11409451      4.26656092
H      -1.95574671     10.13043189     11.54002465
C      12.19984076     -8.97444610     -9.65443035
H       0.18985099     -2.49272220      8.15238637
H     -19.27139557     -7.16730242     -1.12691061
C       4.01858822     -1.98505658     -1.88435653
H       1.73090125     -3.67110143      9.75742126
C       1.50790135    -10.66831145     17.79296660
H       3.06559557     -2.16809842     -1.20127947
H     -10.93739331    -12.27010687     15.67127986
H       1.10353675     -9.55171100     17.95902211
C      -5.29720365      0.64504564     -7.87096163
H       2.60009482     11.57738501     -2.66229716
C       0.14085902     10.81988066     -2.62983694
H      -5.80133033      1.55172113     -8.39819276
H      -0.27312438     11.38475995     -1.61555014
H      -0.52793019      9.78630724     -2.61120173
H      -0.33352437     11.40698890     -3.60434202
H      12.46300533     -8.66345961    -10.82682008
H      12.03654199    -10.14652668    -10.03075265
H      13.99962871     -9.58997847     -7.84604107
H       4.54500106     -0.46655510      7.34291416
H       2.68799934     -1.04187307      9.76328846
H       0.88518577    -11.60112687     18.21719460
H       9.48832084      1.31269350     -4.23581874
H      -9.42706603     -2.95204324     23.99777517
H       6.94182687     13.30754485      9.45996842
H       8.68090148     12.08979019      7.58164876
H       4.34487151     -2.24047575     11.78224131
H      23.68759974      6.18946097     -2.70627443
H      -3.98956827      9.05132159     11.19966908
H      24.37776629      6.33782573     -2.37452548
H       1.56399888     -3.73433079      5.23159203
H       5.82979292     -8.09186997      7.22933824
H      10.08019403     -7.54625604     -9.71841652
H       5.67242391     -2.05342622     10.62127528
C       0.92504010     -3.02775620      6.00787020
C     -10.33544478    -12.21320814     16.66556734
C       4.04870508     -1.14912164      8.16398370
C       3.34982378     -2.00222318      9.34731639
C       9.27085045      1.28613543     -3.04445270
C       7.95850798     13.77897471      8.92967359
C       4.46488898     -2.11469522     10.58415031
C      -2.97266341      9.59088656     11.36985103
C       8.42402764     13.28014460      7.35301425
C       2.64045814      9.36848392     -2.85411035
C       5.29753200     -1.07253166     -2.12329739
C       6.37545514      0.06965723     -2.37944502
C      13.61050987     -8.90729974     -8.76698312
C       1.78567630     10.68646632     -2.69688619
C       5.59760121     -6.92158641      7.55339897
H       9.71760224     11.92331883      4.44406293
H      -0.11642945    -10.92467049    -10.50680890
H      -0.17212281     -3.46858678      5.64842810
H      -9.29874079     -2.27981305     24.37199331
H      -9.73348627    -12.15630179     17.65984834
H      15.89836965      7.24041840     13.42197838
H       9.19148301      2.02479130     -2.07637606
H       8.78198466     13.61036811      9.84858653
H       7.67031439     14.95608711      9.18835270
H      -4.79309581     -0.26166907     -7.34378061
H       3.23867281      8.38512815     -3.04607561
H      -7.37223541     20.65479518      9.84853638
H       3.39475149     -2.89911493     -2.30644780
H       1.08224377     -1.95135535      5.42275442
H       6.62016427     -6.78422481      8.23082776
H      14.54847823     -8.14415997     -8.82665405
H      -7.50545934     20.66342826     10.61702638
   94

C      10.82414348     -8.21512738     -8.98711889
C      -0.34485908    -10.13629853     -9.68216228
H      10.92516343     -7.34075332     -8.11732986
C       1.02296587     -2.70944187      7.71276967
H     -18.89212364     -7.18334299     -1.80829915
H      -0.58428939     -9.34829008     -8.86003878
C       2.23353064     -3.03046267      8.83439728
H       9.99539203     -8.92879695     -8.40463814
H      -8.53164058     -6.31649641    -17.82640030
H      -8.52393160     -7.08589073    -17.69844345
C       7.88166243      0.49174428     -2.71344650
H      16.07451201      6.48714124     13.52105445
C       6.37486454     -6.71092440      6.07772697
H       8.52542301     12.75596877      3.35750718
H       6.77137719     -6.24562703      5.07217301
H       2.53043291    -10.86071322     17.22783568
C       4.44897147     -7.10388455      8.19308520
H       3.53071108     -7.81723390      7.78945350
C       7.87101146     13.05877445      5.78000742
H       4.35024002     -7.60267102      9.31573722
H       9.32364125     14.09224374      7.06042821
H       6.80930679     13.61826640      5.53329272
C       8.51391563     12.21928219      4.46843739
H      12.00032045      1.67241567     -3.26774810
C      10.84683875      1.42682908     -3.27985767
H       5.70579983      1.05525206     -2.29846201
H       7.99289451     11.11671436      4.26576192
H      -1.98423439     10.19333541     11.57127092
C      12.20177360     -8.97716467     -9.65700466
H       0.00941708     -2.23312350      8.20371028
H     -19.27144323     -7.16731518     -1.12693303
C       4.02753059     -1.98488791     -1.88570509
H       1.58476311     -3.44726107      9.79687508
C       1.50205413    -10.67599470     17.81620707
H       3.08455986     -2.13449924     -1.17945709
H     -10.94119509    -12.27064801     15.67098925
H       1.09773294     -9.55931859     17.98180453
C      -5.29728579      0.64508554     -7.87115927
H       2.59813019     11.58127915     -2.66091496
C       0.13883906     10.82372027     -2.63036325
H      -5.80140848      1.55177854     -8.39836296
H      -0.27486901     11.38843234     -1.61588011
H      -0.52942497      9.78982365     -2.61104474
H      -0.33637440     11.41091425     -3.60442394
H      12.46524363     -8.66544465    -10.82913063
H      12.03834876    -10.14919243    -10.03343110
H      14.00198910     -9.59417514     -7.84945359
H       4.39239091     -0.22007065      7.38354401
H       2.52720413     -0.76881382      9.81965137
H       0.87911853    -11.60881104     18.24009248
H       9.44113697      1.31046832     -4.24114752
H      -9.42716970     -2.95205788     23.99791208
H       6.93610790     13.30727324      9.45095407
H       8.70113978     12.08971279      7.58509556
H       4.18617778     -2.00659141     11.82262783
H      23.68764012      6.18950006     -2.70629888
H      -4.01810452      9.11429411     11.23097221
H      24.37780544      6.33786170     -2.37454600
H       1.43153737     -3.50149818      5.31088174
H       6.15684466     -8.61300113      7.11920829
H      10.08050901     -7.55099821     -9.72170909
H       5.51190872     -1.83346526     10.65373684
C       0.77164896     -2.78303011      6.05850804
C     -10.33925297    -12.21374951     16.66528078
C       3.89275897     -0.89333163      8.20971999
C       3.18469706     -1.72833517      9.39861117
C       9.26507077      1.28401262     -3.04187207
C       7.95509897     13.78025465      8.92656534
C       4.30362901     -1.87576853     10.62518398
C      -3.00118295      9.65383724     11.40113088
C       8.43307169     13.27742813      7.35502832
C       2.63815026      9.37261270     -2.85750907
C       5.30466851     -1.07399196     -2.12650707
C       6.37269145      0.07488442     -2.38054010
C      13.61251803     -8.91063537     -8.76960464
C       1.78364106     10.69052928     -2.69823288
C       5.93004695     -7.44314194      7.44419746
H       9.71337681     11.92277810      4.43749032
H      -0.11629533    -10.92469050    -10.50700692
H      -0.31947615     -3.23109463      5.69118429
H      -9.29883899     -2.27982627     24.37212581
H      -9.73730050    -12.15684212     17.65956552
H      15.89854949      7.24055619     13.42204452
H       9.18583212      2.03066783     -2.07997745
H       8.77072294     13.61655174      9.85315042
H       7.66378729     14.95821245      9.17787066
H      -4.79318382     -0.26165161     -7.34401247
H       3.23654306      8.38835237     -3.04421288
H      -7.39459363     20.71043818      9.84222877
H       3.42753829     -2.90158937     -2.33785408
H       0.92994727     -1.71269339      5.46324418
H       6.94500310     -7.28638604      8.12741488
H      14.55054831     -8.14752006     -8.82870323
H      -7.52782376     20.71907846     10.61071762
   94

C      10.82570524     -8.21802154     -8.98996060
C      -0.34540112    -10.13625487     -9.68238265
H      10.92722964     -7.34259576     -8.12128187
C       0.84312477     -2.43789002      7.76279328
H     -18.89213955     -7.18335439     -1.80830976
H      -0.58415151     -9.34821097     -8.86009485
C       2.04789837     -2.72716165      8.88715453
H       9.99731469     -8.93132185     -8.40652034
H      -8.53164230     -6.31649347    -17.82640124
H      -8.52393391     -7.08588783    -17.69844456
C       7.88053533      0.48480823     -2.70887415
H      16.07454703      6.48712688     13.52105686
C       6.69154838     -7.21800975      5.97243633
H       8.51834857     12.76278776      3.35960340
H       7.07312530     -6.73982779      4.96755452
H       2.52541165    -10.86750357     17.24959361
C       4.78560301     -7.63323796      8.07661641
H       3.83368003     -8.29448682      7.67312470
C       7.87346555     13.05765109      5.78422595
H       4.65861931     -8.08055692      9.21405875
H       9.33940928     14.08290027      7.06476246
H       6.81015986     13.61602138      5.54226222
C       8.51051522     12.22110181      4.46816768
H      11.99864061      1.65727248     -3.26081846
C      10.84434139      1.41484958     -3.25658080
H       5.70352396      1.05993383     -2.29743780
H       7.98816574     11.11927205      4.26505334
H      -2.01277941     10.25642420     11.60254817
C      12.20363995     -8.97982928     -9.65949307
H      -0.17298323     -1.97097305      8.25320547
H     -19.27146006     -7.16732701     -1.12694414
C       4.03622629     -1.98584953     -1.88391765
H       1.43774809     -3.22006687      9.83445983
C       1.49677547    -10.68278317     17.83750311
H       3.10544258     -2.10180490     -1.15403007
H     -10.94484137    -12.27112064     15.67060849
H       1.09242697     -9.56605648     18.00265749
C      -5.29728114      0.64507095     -7.87123744
H       2.59619170     11.58509016     -2.65952099
C       0.13684376     10.82751644     -2.63088499
H      -5.80140859      1.55176630     -8.39843277
H      -0.27658969     11.39207402     -1.61621274
H      -0.53090381      9.79330299     -2.61087961
H      -0.33919205     11.41479596     -3.60450452
H      12.46740536     -8.66736899    -10.83135553
H      12.04009005    -10.15180205    -10.03603212
H      14.00431090     -9.59833152     -7.85281539
H       4.23960551      0.02689423      7.42362257
H       2.36635482     -0.49222934      9.87712343
H       0.87390091    -11.61559330     18.26148060
H       9.39307070      1.30747060     -4.24491954
H      -9.42723564     -2.95208416     23.99800988
H       6.93050828     13.30694353      9.44192217
H       8.72115804     12.08968788      7.58854862
H       4.02890156     -1.77212925     11.86231152
H      23.68763954      6.18951681     -2.70630348
H      -4.04671747      9.17748152     11.26232293
H      24.37780511      6.33787732     -2.37455061
H       1.29901320     -3.27014858      5.39084465
H       6.48371784     -9.13702187      7.00792074
H      10.08076657     -7.55568470     -9.72486142
H       5.35144981     -1.62044738     10.68298654
C       0.61909201     -2.53902374      6.10818550
C     -10.34290075    -12.21422065     16.66490081
C       3.73584154     -0.63520306      8.25575333
C       3.01907109     -1.45105409      9.45091545
C       9.25870710      1.28154200     -3.03913118
C       7.95174027     13.78147415      8.92338076
C       4.14257884     -1.63385771     10.66572589
C      -3.02977253      9.71699308     11.43245202
C       8.44205241     13.27468799      7.35703997
C       2.63585724      9.37665643     -2.86087367
C       5.31152835     -1.07631381     -2.12745434
C       6.36976517      0.07899151     -2.38018732
C      13.61447390     -8.91392214     -8.77216151
C       1.78162975     10.69451882     -2.69956678
C       6.26336851     -7.96738335      7.33378780
H       9.70913191     11.92220565      4.43104578
H      -0.11614271    -10.92463298    -10.50704822
H      -0.46620062     -2.99376143      5.73319988
H      -9.29890490     -2.27985250     24.37222354
H      -9.74095201    -12.15731191     17.65918769
H      15.89860206      7.24054665     13.42205234
H       9.17977675      2.03565758     -2.08303484
H       8.75949449     13.62264433      9.85749149
H       7.65742293     14.96024698      9.16733490
H      -4.79317225     -0.26166612     -7.34409682
H       3.23440227      8.39149194     -3.04226160
H      -7.41695676     20.76609436      9.83592170
H       3.46136641     -2.90427657     -2.36645652
H       0.77910034     -1.47526832      5.50222540
H       7.27064065     -7.79234229      8.02271777
H      14.55256708     -8.15083357     -8.83069528
H      -7.55019306     20.77474182     10.60440941
   94

C      10.82720703     -8.22087738     -8.99263183
C      -0.34589108    -10.13615879     -9.68241723
H      10.92923454     -7.34441410     -8.12505055
C       0.66248491     -2.16458701      7.81099577
H     -18.89212528     -7.18336520     -1.80830909
H      -0.58392901     -9.34809872     -8.85993691
C       1.85807844     -2.41773469      8.94203546
H       9.99918160     -8.93381311     -8.40823241
H      -8.53163215     -6.31648967    -17.82638071
H      -8.52392409     -7.08588398    -17.69842374
C       7.87908626      0.47722700     -2.70364352
H      16.07444735      6.48697453     13.52099567
C       7.01011066     -7.72943421      5.86584924
H       8.51134538     12.76952469      3.36180083
H       7.37706633     -7.23736904      4.86253135
H       2.52072593    -10.87355065     17.26890032
C       5.12387578     -8.17594307      7.96132174
H       4.13843841     -8.77826308      7.55729851
C       7.87591394     13.05650130      5.78844599
H       4.96868855     -8.56371716      9.11298190
H       9.35500171     14.07355277      7.06911407
H       6.81103170     13.61373221      5.55118572
C       8.50712687     12.22286917      4.46797422
H      11.99620524      1.64162933     -3.25359490
C      10.84129339      1.40247538     -3.23231293
H       5.70110452      1.06365124     -2.29539560
H       7.98345999     11.12177275      4.26442999
H      -2.04139557     10.31972540     11.63386519
C      12.20543062     -8.98244425     -9.66186122
H      -0.35617701     -1.70876704      8.30253888
H     -19.27144785     -7.16733838     -1.12694461
C       4.04450898     -1.98776206     -1.87976431
H       1.29524183     -2.99446005      9.86665328
C       1.49217072    -10.68898586     17.85699588
H       3.12802279     -2.06966952     -1.12597820
H     -10.94834303    -12.27153313     15.67014458
H       1.08774682     -9.57224146     18.02183670
C      -5.29720226      0.64500833     -7.87121118
H       2.59427820     11.58882961     -2.65811883
C       0.13487167     10.83128011     -2.63140671
H      -5.80134163      1.55169282     -8.39841523
H      -0.27828832     11.39569602     -1.61655280
H      -0.53236846      9.79675636     -2.61071142
H      -0.34197884     11.41864436     -3.60458865
H      12.46947889     -8.66923373    -10.83346017
H      12.04175780    -10.15435901    -10.03852436
H      14.00658362     -9.60244823     -7.85608946
H       4.08624094      0.27498290      7.46328905
H       2.20484457     -0.21316777      9.93437899
H       0.86958311    -11.62177992     18.28142687
H       9.34424559      1.30373934     -4.24725203
H      -9.42726389     -2.95212133     23.99806752
H       6.92502930     13.30656663      9.43287830
H       8.74094962     12.08971553      7.59200660
H       3.87041141     -1.53311925     11.90294706
H      23.68759863      6.18950876     -2.70628811
H      -4.07542287      9.24091320     11.29373343
H      24.37776583      6.33787036     -2.37453910
H       1.16202769     -3.03277872      5.46633936
H       6.81407865     -9.66502749      6.89552791
H      10.08095797     -7.56032625     -9.72782466
H       5.18982904     -1.40166371     10.71396009
C       0.46460573     -2.29143707      6.15659308
C     -10.34639933    -12.21463031     16.66443467
C       3.57830364     -0.37543261      8.30157078
C       2.85365326     -1.17113969      9.50393313
C       9.25184744      1.27875323     -3.03635844
C       7.94843443     13.78264148      8.92012256
C       3.98108185     -1.38643250     10.70742624
C      -3.05844734      9.78038309     11.46382504
C       8.45096651     13.27192903      7.35904803
C       2.63357856      9.38062730     -2.86420603
C       5.31805305     -1.07935332     -2.12661100
C       6.36669559      0.08210058     -2.37866205
C      13.61636939     -8.91716518     -8.77462102
C       1.77964096     10.69844679     -2.70089193
C       6.59887640     -8.49584396      7.22221422
H       9.70486898     11.92160611      4.42472722
H      -0.11596148    -10.92450828    -10.50692468
H      -0.61560064     -2.75169754      5.77470818
H      -9.29893846     -2.27989100     24.37228541
H      -9.74445195    -12.15772012     17.65872207
H      15.89854225      7.24040577     13.42200740
H       9.17336428      2.03982374     -2.08568724
H       8.74830646     13.62865383      9.86161218
H       7.65122381     14.96219998      9.15674938
H      -4.79307606     -0.26170909     -7.34405172
H       3.23225121      8.39456187     -3.04022976
H      -7.43932580     20.82176599      9.82961544
H       3.49631311     -2.90705061     -2.39297621
H       0.62581474     -1.23309275      5.54190883
H       7.59768060     -8.30128285      7.91714346
H      14.55452611     -8.15410544     -8.83259889
H      -7.57256821     20.83042051     10.59810202
   94

C      10.82864387     -8.22371328     -8.99508402
C      -0.34631845    -10.13602586     -9.68226450
H      10.93117354     -7.34622903     -8.12858475
C       0.48126733     -1.89028817      7.85796877
H     -18.89208227     -7.18337523     -1.80829767
H      -0.58361338     -9.34796878     -8.85956438
C       1.66349396     -2.10308631      9.00012000
H      10.00099115     -8.93629093     -8.40972310
H      -8.53161045     -6.31648573    -17.82633976
H      -8.52390240     -7.08587990    -17.69838196
C       7.87734452      0.46915057     -2.69798268
H      16.07422459      6.48670139     13.52087862
C       7.32902200     -8.24344826      5.75850568
H       8.50440797     12.77617345      3.36409881
H       7.68283616     -7.73843632      4.75711719
H       2.51641413    -10.87922887     17.28607826
C       5.46440886     -8.73599620      7.84733048
H       4.44424642     -9.26700752      7.44153366
C       7.87834810     13.05531769      5.79266805
H       5.27989928     -9.05083297      9.01257623
H       9.37041262     14.06419338      7.07348224
H       6.81191460     13.61139421      5.56006436
C       8.50374419     12.22457761      4.46785681
H      11.99306935      1.62547799     -3.24608354
C      10.83776744      1.38974491     -3.20713690
H       5.69858801      1.06661911     -2.29255127
H       7.97877120     11.12420961      4.26389143
H      -2.07008690     10.38324955     11.66522531
C      12.20713975     -8.98501993     -9.66407170
H      -0.54001005     -1.44712150      8.35202265
H     -19.27140798     -7.16734907     -1.12693492
C       4.05213555     -1.99032340     -1.87401414
H       1.15918652     -2.77154640      9.89181375
C       1.48826519    -10.69492239     17.87496863
H       3.15203982     -2.03764077     -1.09624998
H     -10.95171686    -12.27189480     15.66960751
H       1.08374288     -9.57819410     18.03969783
C      -5.29706016      0.64490464     -7.87108688
H       2.59238650     11.59250099     -2.65670512
C       0.13291948     10.83501210     -2.63192406
H      -5.80121687      1.55156625     -8.39831613
H      -0.27996817     11.39929898     -1.61689584
H      -0.53382163      9.80018422     -2.61053534
H      -0.34473816     11.42245965     -3.60467229
H      12.47145643     -8.67104585    -10.83540669
H      12.04334740    -10.15687284    -10.04087340
H      14.00879601     -9.60653015     -7.85923071
H       3.93211314      0.52389243      7.50276808
H       2.04312102      0.06793679      9.99102060
H       0.86611153    -11.62768412     18.30011300
H       9.29478407      1.29935267     -4.24828653
H      -9.42725571     -2.95216712     23.99808502
H       6.91966707     13.30614023      9.42383005
H       8.76050217     12.08978276      7.59547116
H       3.70995662     -1.28952988     11.94471124
H      23.68751966      6.18947453     -2.70625348
H      -4.10422777      9.30460462     11.32520918
H      24.37768973      6.33783951     -2.37451192
H       1.02105541     -2.78888700      5.53783172
H       7.14932000    -10.19640588      6.78179730
H      10.08107712     -7.56494109     -9.73054885
H       5.02685120     -1.17405746     10.74777615
C       0.30803528     -2.03987388      6.20422186
C     -10.34976611    -12.21498832     16.66389276
C       3.42027345     -0.11546796      8.34671091
C       2.68834636     -0.88951982      9.55732075
C       9.24457953      1.27570978     -3.03370556
C       7.94517862     13.78375264      8.91679599
C       3.81876863     -1.13470392     10.75033214
C      -3.08721329      9.84402093     11.49525442
C       8.45980615     13.26914350      7.36105435
C       2.63131106      9.38452857     -2.86749652
C       5.32414675     -1.08288488     -2.12445229
C       6.36348423      0.08440033     -2.37625057
C      13.61819824     -8.92037607     -8.77694514
C       1.77767150     10.70231668     -2.70220347
C       6.93708928     -9.02815829      7.10950712
H       9.70058266     11.92097311      4.41853575
H      -0.11574128    -10.92433126    -10.50663537
H      -0.76757077     -2.50486475      5.81581596
H      -9.29894046     -2.27993947     24.37231124
H      -9.74781787    -12.15807682     17.65817920
H      15.89837753      7.24014952     13.42191560
H       9.16664587      2.04326802     -2.08810184
H       8.73716056     13.63457628      9.86551757
H       7.64518692     14.96406852      9.14612011
H      -4.79290876     -0.26177571     -7.34388504
H       3.23008625      8.39756688     -3.03811244
H      -7.46170092     20.87745355      9.82330997
H       3.53238409     -2.90965774     -2.41810025
H       0.46991346     -0.98579901      5.58263096
H       7.92608783     -8.81187120      7.81095668
H      14.55641881     -8.15734693     -8.83437704
H      -7.59494940     20.88611502     10.59179543
   94

C      10.83001408     -8.22655422     -8.99727128
C      -0.34667510    -10.13587374     -9.68193234
H      10.93304554     -7.34806694     -8.13183714
C       0.30015990     -1.61543034      7.90439156
H     -18.89201202     -7.18338379     -1.80827590
H      -0.58320067     -9.34783701     -8.85898842
C       1.46371587     -1.78524375      9.06291768
H      10.00274558     -8.93878205     -8.41094313
H      -8.53157783     -6.31648224    -17.82627987
H      -8.52386938     -7.08587617    -17.69832068
C       7.87533044      0.46075696     -2.69211815
H      16.07388791      6.48632699     13.52071424
C       7.64639669     -8.75785329      5.65119299
H       8.49752589     12.78272168      3.36649918
H       7.98958531     -8.24210202      4.65172746
H       2.51247164    -10.88489011     17.30167941
C       5.80727619     -9.31828458      7.73512532
H       4.74968492     -9.75420355      7.32500018
C       7.88075507     13.05408600      5.79689509
H       5.59109077     -9.53574032      8.91253928
H       9.38563254     14.05480701      7.07786810
H       6.81279637     13.60899589      5.56890197
C       8.50035588     12.22621367      4.46781752
H      11.98928542      1.60882986     -3.23829272
C      10.83382547      1.37673472     -3.18116697
H       5.69601505      1.06907982     -2.28910417
H       7.97408825     11.12656893      4.26344035
H      -2.09885195     10.44699713     11.69662898
C      12.20876608     -8.98757327     -9.66608671
H      -0.72419026     -1.18618019      8.40122212
H     -19.27134182     -7.16735836     -1.12691542
C       4.05885391     -1.99319723     -1.86738116
H       1.02995127     -2.54996692      9.90913437
C       1.48498830    -10.70087243     17.89183336
H       3.17726606     -2.00527176     -1.06570768
H     -10.95498324    -12.27221401     15.66900864
H       1.08036808     -9.58418731     18.05666448
C      -5.29686569      0.64476834     -7.87086809
H       2.59051214     11.59610388     -2.65527224
C       0.13098275     10.83870819     -2.63242725
H      -5.80104350      1.55139600     -8.39813881
H      -0.28163340     11.40287828     -1.61723177
H      -0.53526667      9.80358166     -2.61034053
H      -0.34747450     11.42623695     -3.60474600
H      12.47333589     -8.67281902    -10.83715660
H      12.04485880    -10.15935968    -10.04304403
H      14.01093690     -9.61058738     -7.86218800
H       3.77716621      0.77299902      7.54232565
H       1.88184741      0.35045645     10.04691219
H       0.86332717    -11.63357954     18.31783363
H       9.24480190      1.29441767     -4.24817038
H      -9.42721259     -2.95221812     23.99806201
H       6.91441363     13.30565399      9.41478614
H       8.77979954     12.08986913      7.59894582
H       3.54778086     -1.04254625     11.98718344
H      23.68740612      6.18941365     -2.70620103
H      -4.13313451      9.36856279     11.35675246
H      24.37758010      6.33778430     -2.37447008
H       0.87768547     -2.54031127      5.60694786
H       7.49024295    -10.72995566      6.66629099
H      10.08112169     -7.56955481     -9.73298774
H       4.86274973     -0.93908740     10.78378135
C       0.15028583     -1.78545949      6.25162519
C     -10.35302234    -12.21530357     16.66328703
C       3.26165523      0.14328704      8.39088462
C       2.52283172     -0.60743137      9.61066129
C       9.23698815      1.27249619     -3.03132919
C       7.94196582     13.78479636      8.91340787
C       3.65558052     -0.88042837     10.79391055
C      -3.11607117      9.90791104     11.52674157
C       8.46856000     13.26631638      7.36306264
C       2.62905003      9.38835917     -2.87072905
C       5.32971505     -1.08665242     -2.12140481
C       6.36013034      0.08610948     -2.37321587
C      13.61995692     -8.92357353     -8.77909251
C       1.77571700     10.70612788     -2.70349114
C       7.27779692     -9.56342215      6.99572836
H       9.69626278     11.92029400      4.41247446
H      -0.11547250    -10.92412016    -10.50618707
H      -0.92097130     -2.25470288      5.85679619
H      -9.29891175     -2.27999447     24.37230038
H      -9.75107150    -12.15839127     17.65757136
H      15.89811239      7.23979605     13.42178324
H       9.15967696      2.04611099     -2.09045013
H       8.72605422     13.64040081      9.86921451
H       7.63930492     14.96584239      9.13545433
H      -4.79268372     -0.26185946     -7.34360154
H       3.22790140      8.40050671     -3.03589741
H      -7.48408183     20.93315645      9.81700516
H       3.56956395     -2.91179201     -2.44243671
H       0.31245033     -0.73492633      5.62423760
H       8.25498663     -9.32246600      7.70454906
H      14.55824130     -8.16057644     -8.83598856
H      -7.61733635     20.94182482     10.58548951
   94

C      10.83132019     -8.22943048     -8.99915647
C      -0.34695632    -10.13572022     -9.68143688
H      10.93485372     -7.34995809     -8.13477060
C       0.12042886     -1.34020456      7.95081692
H     -18.89191610     -7.18338992     -1.80824405
H      -0.58269199     -9.34771797     -8.85823025
C       1.26047607     -1.46838124      9.13042796
H      10.00445135     -8.94131818     -8.41185171
H      -8.53153511     -6.31647964    -17.82620279
H      -8.52382581     -7.08587324    -17.69824168
C       7.87306014      0.45222539     -2.68625274
H      16.07344598      6.48587279     13.52051155
C       7.96061710     -9.27145393      5.54479436
H       8.49068581     12.78915548      3.36900506
H       8.29668683     -8.74778014      4.54711425
H       2.50885108    -10.89080151     17.31638354
C       6.15055648     -9.92825418      7.62669886
H       5.05669642    -10.23305948      7.20630519
C       7.88311939     13.05278989      5.80113146
H       5.90365414    -10.01253652      8.81067176
H       9.40064997     14.04537608      7.08227412
H       6.81366214     13.60652330      5.57770403
C       8.49694788     12.22776217      4.46785951
H      11.98490128      1.59171123     -3.23022252
C      10.82951503      1.36355015     -3.15454266
H       5.69341978      1.07126410     -2.28523090
H       7.96939711     11.12883529      4.26308089
H      -2.12768777     10.51096570     11.72807621
C      12.21031416     -8.99012759     -9.66787214
H      -0.90780107     -0.92587970      8.44971332
H     -19.27125081     -7.16736528     -1.12688629
C       4.06444609     -1.99608443     -1.86046925
H       0.90591873     -2.32582958      9.91937376
C       1.48218842    -10.70703451     17.90806281
H       3.20354276     -1.97221631     -1.03507957
H     -10.95816359    -12.27249738     15.66835936
H       1.07748847     -9.59040765     18.07316616
C      -5.29662946      0.64460889     -7.87055774
H       2.58864989     11.59963664     -2.65381073
C       0.12905633     10.84236245     -2.63290406
H      -5.80083057      1.55119237     -8.39788596
H      -0.28328871     11.40642750     -1.61754800
H      -0.53670744      9.80694198     -2.61011344
H      -0.35019309     11.42996961     -3.60479792
H      12.47512249     -8.67457392    -10.83867482
H      12.04629755    -10.16184227    -10.04500399
H      14.01299642     -9.61463614     -7.86490861
H       3.62139494      1.02191230      7.58226399
H       1.72108603      0.63307079     10.10182099
H       0.86099998    -11.63966264     18.33494955
H       9.19440392      1.28905711     -4.24704127
H      -9.42713604     -2.95227035     23.99799765
H       6.90925831     13.30509422      9.40575583
H       8.79882384     12.08995186      7.60243502
H       3.38433242     -0.79328968     12.02986010
H      23.68726233      6.18932652     -2.70613266
H      -4.16214463      9.43279329     11.38836527
H      24.37744104      6.33770498     -2.37441501
H       0.73297149     -2.28882208      5.67472369
H       7.83678542    -11.26398911      6.54855076
H      10.08109429     -7.57419895     -9.73510515
H       4.69775885     -0.69905394     10.82100922
C      -0.00777121     -1.52933477      6.29922818
C     -10.35619049    -12.21558318     16.66262955
C       3.10217555      0.40024737      8.43416360
C       2.35670766     -0.32637938      9.66338539
C       9.22915049      1.26920283     -3.02937626
C       7.93878620     13.78575862      8.90996598
C       3.49158507     -0.62471203     10.83761141
C      -3.14502064      9.97205569     11.55828751
C       8.47721457     13.26343035      7.36507770
C       2.62678996      9.39211670     -2.87388522
C       5.33468260     -1.09041296     -2.11781580
C       6.35663682      0.08744094     -2.36977806
C      13.62164554     -8.92678341     -8.78102204
C       1.77377243     10.70987850     -2.70474233
C       7.61894316    -10.10037837      6.88141791
H       9.69189648     11.91955451      4.40654724
H      -0.11514737    -10.92389452    -10.50559323
H      -1.07492097     -2.00246182      5.89816971
H      -9.29885317     -2.28005200     24.37225173
H      -9.75423599    -12.15867096     17.65691107
H      15.89775061      7.23936537     13.42161697
H       9.15251468      2.04847432     -2.09289075
H       8.71498188     13.64611403      9.87271108
H       7.63356751     14.96750854      9.12476008
H      -4.79241380     -0.26195274     -7.34320540
H       3.22568958      8.40337949     -3.03356983
H      -7.50646809     20.98887378      9.81070087
H       3.60783445     -2.91315784     -2.46645916
H       0.15429988     -0.48193712      5.66658905
H       8.58211992     -9.83162057      7.59836770
H      14.55999348     -8.16381955     -8.83739161
H      -7.63972863     20.99754903     10.57918411
   94

C      10.83245065     -8.23315317     -8.99982229
C      -0.34717269    -10.13614959     -9.68150274
H      10.93693609     -7.35238228     -8.13685098
C      -0.07832345     -1.03273909      8.00358774
H     -18.89185999     -7.18329685     -1.80818867
H      -0.58225112     -9.34809605     -8.85815906
C       1.02270072     -1.10355915      9.21943039
H      10.00579181     -8.94439439     -8.41144285
H      -8.53156068     -6.31648995    -17.82625171
H      -8.52384950     -7.08588394    -17.69829304
C       7.87071756      0.43752662     -2.68725843
H      16.07331130      6.48611777     13.52058838
C       8.29117814     -9.82211303      5.43474157
H       8.47928446     12.79773611      3.37405756
H       8.62847090     -9.29737539      4.43799717
H       2.50425826    -10.90118635     17.33758515
C       6.51577977    -10.62316731      7.51941115
H       5.40081265    -10.74442804      7.07146645
C       7.88372291     13.04825133      5.80805576
H       6.25082675    -10.52687121      8.69523873
H       9.42377285     14.02602426      7.09001106
H       6.81205148     13.60015209      5.59217034
C       8.49001049     12.22808746      4.46866491
H      11.97994602      1.57265964     -3.22128103
C      10.82655087      1.34743074     -3.10760455
H       5.69323055      1.07591978     -2.28574717
H       7.96138907     11.12981433      4.26332908
H      -2.15370095     10.56603547     11.75857275
C      12.21196291     -8.99329696     -9.66813485
H      -1.11201307     -0.64174162      8.50634569
H     -19.27118577     -7.16726916     -1.12682601
C       4.06630181     -1.99568448     -1.86729527
H       0.79377819     -2.07925600      9.90835202
C       1.47819556    -10.71751698     17.93036417
H       3.25147752     -1.89738586     -0.99750196
H     -10.96213585    -12.27297239     15.66815274
H       1.07348473     -9.60107589     18.09678087
C      -5.29669487      0.64474710     -7.87005184
H       2.58651784     11.60200449     -2.65048656
C       0.12691748     10.84443863     -2.63187327
H      -5.80086224      1.55132525     -8.39741940
H      -0.28501492     11.40817816     -1.61618941
H      -0.53778423      9.80837450     -2.60774986
H      -0.35371995     11.43220807     -3.60300589
H      12.47723400     -8.67649349    -10.83849766
H      12.04775419    -10.16499085    -10.04522635
H      14.01498174     -9.61953541     -7.86581500
H       3.45449388      1.29533483      7.62615516
H       1.54733526      0.94979467     10.16385775
H       0.85684368    -11.65028870     18.35672650
H       9.10001009      1.27962660     -4.24841145
H      -9.42675544     -2.95204824     23.99740376
H       6.89994419     13.30070481      9.39199329
H       8.82991305     12.08883432      7.60794456
H       3.20800931     -0.51850027     12.07503450
H      23.68739798      6.18932909     -2.70616817
H      -4.18749900      9.48691107     11.41813640
H      24.37757154      6.33770482     -2.37443862
H       0.58212535     -2.01269097      5.75877505
H       8.21021194    -11.84221698      6.42104852
H      10.08034634     -7.58057240     -9.73622892
H       4.52055929     -0.42807316     10.86015307
C      -0.17875493     -1.24809192      6.35361021
C     -10.36015996    -12.21606713     16.66242234
C       2.93299141      0.67566873      8.47769342
C       2.17609927     -0.01118153      9.72195233
C       9.21983821      1.26183020     -3.03327118
C       7.93197447     13.78456701      8.90481240
C       3.31508570     -0.34464193     10.88368010
C      -3.17059999     10.02647329     11.58835457
C       8.48831328     13.25657516      7.36831562
C       2.62407438      9.39448646     -2.87556375
C       5.34043750     -1.09432019     -2.12442965
C       6.35288061      0.08904532     -2.37233050
C      13.62347171     -8.93110182     -8.78142099
C       1.77163295     10.71243021     -2.70464988
C       7.98463810    -10.68292494      6.76122959
H       9.68342937     11.91617828      4.39844035
H      -0.11460577    -10.92429735    -10.50546925
H      -1.24095050     -1.72509947      5.94394566
H      -9.29845674     -2.27982476     24.37164303
H      -9.75818407    -12.15916188     17.65669195
H      15.89747689      7.23957088     13.42164096
H       9.14226536      2.04975794     -2.10328467
H       8.69563847     13.65205620      9.87824995
H       7.62371442     14.96752467      9.10821131
H      -4.79252749     -0.26183104     -7.34268428
H       3.22304791      8.40482354     -3.02924763
H      -7.52913094     21.04430955      9.80462270
H       3.68355790     -2.90906865     -2.53276655
H      -0.01928414     -0.20361857      5.71521954
H       8.92462333    -10.36747711      7.48940266
H      14.56188892     -8.16815421     -8.83702415
H      -7.66234247     21.05292874     10.57311499
