   94
energy=      0.00000000
C      -6.05580950     -0.95190235     -2.26848481
C      -4.46635141     -1.28244059     -1.66732990
H      -6.02925586     -0.20057022     -3.26279990
C      -7.36046043     -0.50031031     -1.21456790
H      -6.35584892     -1.84222580     -3.08502381
H      -4.11003521     -0.14699729     -1.34064221
C      -2.88715974     -1.81229547     -1.98321258
H      -4.71452336     -2.20571887     -0.88200397
H      -6.13027122     -3.90229797    -11.56012359
H      -6.12256003     -4.67169196    -11.43216492
C      -1.62551428     -1.53393619     -3.06341625
H      -2.18528420     -1.08843095     -4.07750071
C      -0.11830945     -0.74639150     -2.70590012
H      -1.52711082     -2.64151794     -3.62125702
H      -0.06010213      0.29635235     -3.38661622
H       0.71166693     -1.26443213     -3.48405979
C       0.64146258     -0.42853933     -1.16394546
H       1.85651609     -0.19940623     -1.34889914
C       0.07701630      0.61295730      0.12849471
H       1.08313864     -1.50483148     -0.72358528
H      -0.43277613      1.60300265     -0.41733956
H       0.95975073      1.44978256      0.40064754
C      -0.73595692      0.21710792      1.63798174
H      -0.04023306      0.51471998      2.62706992
C       3.21431922      3.53425932    -10.57049664
H      -0.43690930     -0.94889264      1.94924129
H       2.56831241      4.34238680    -11.02987537
H       0.47475267      9.63478640     12.19138421
C      11.33522949     -4.45454334     -9.20267678
H      -7.24634276      0.62246726     -0.69214163
H      -7.40398409     -1.01412695     -0.08407411
C      -8.96338532     -0.60586414     -1.67487705
H      -9.73086146      0.23045146     -2.09767577
C      -7.57516110     -0.19589393     10.57194905
H      -9.73392377     -1.54080534     -1.68352921
H      -7.62826812      0.69289312      9.82270058
H      -7.50828160     -1.05466878     11.35436152
C      -2.39255703      0.52282156      2.11366731
H      -2.72378621      1.46078725      1.37314212
C      -3.45752629      0.94198429      3.41652956
H      -2.89575407     -0.58645981      1.89226473
H      -3.33659237      2.01512590      4.02604767
H      -3.55129518      0.23941402      4.43533697
H      -4.68914193      1.03807212      3.23692523
H      10.90581847     -3.37379558     -8.91024478
H      11.85782466     -4.62372082    -10.26860321
H      11.24204696     -5.36611069     -8.42918578
H       3.57135584     -3.55588928     17.00570251
H       1.29952779     -4.11497891     18.97843774
H      10.79632553     -4.62449081     10.73419045
H      13.75405748     -4.43370029     11.28567527
H       0.28860159     -4.22704996     17.38123871
H       7.36687438      7.45103612      0.66696302
H      -1.26836001     10.01911979     14.99487326
H       9.09497116      7.12971711      3.74094815
H      15.40658100     -2.52160636      1.11978355
H      -1.15085903      8.75444357     12.33922044
H      18.13268220     -1.10356914      1.93332937
H      17.55629984     -1.89741201     -1.12103072
H      12.30251486     -1.91562157      3.28860110
H      20.45248073     -1.64752439     -0.32257528
H       7.66388128      5.97652393      3.27767433
C      10.74146625     -2.92773117     12.35297488
C      11.32800962     -3.54390712     10.98795078
C       2.41723457     -3.20710945     16.90795941
C       1.13756882     -3.50931477     17.91746937
C      12.97761115     -3.53088493     11.08534115
C       7.96538922      7.80760987      1.65516259
C       7.99589744      7.16026844      3.18210029
C      -0.69467129      9.89470949     12.50621901
C      -1.06842421     10.68895734     13.97183111
C      15.84265510     -1.57591067      1.77923690
C      17.24510079     -0.82306491      1.11113539
C      17.97106852     -0.92152789     -0.46853334
C      19.66870849     -0.80418779     -0.78749719
C      14.35700128     -1.07398242      2.20413008
C      12.91643901     -0.97636678      2.86484947
H      20.15459136     -0.86462987     -1.92782769
H      -2.49094653     -2.66698740     -1.19808243
H      10.48294060     -2.34285896     13.33689096
H       0.62188074     -2.47721176     18.35551456
H      10.82332589     -2.93577889     10.04554984
H      13.73631898     -2.59288742     11.01523895
H       2.42462908     -2.57740921     15.87411337
H       8.52884687      8.77955049      1.20807308
H      -0.24264642     11.48603010     14.43916680
H       7.26127317      7.75059311      3.97901439
H      16.02775782     -2.02712107      2.91370707
H      -1.00993963     10.46158351     11.44993435
H      17.14930372      0.38047447      1.41746281
H      17.35070526     -0.18463691     -1.26144819
H      12.31455747      0.03878258      3.04389111
H      20.28756450      0.22729080     -0.48017067
H      -2.08841366     11.39184780     14.01963969
   94
energy=      0.00000000
C      -6.04876163     -0.97332899     -2.31028994
C      -4.46039386     -1.30138311     -1.70500681
H      -6.01680712     -0.23033353     -3.31062385
C      -7.35767231     -0.50353558     -1.26938994
H      -6.34698928     -1.87627246     -3.11323362
H      -4.09545341     -0.16655077     -1.38834073
C      -2.89534834     -1.85555755     -2.05068825
H      -4.70358915     -2.18115383     -0.86966874
H      -6.13559214     -3.90918666    -11.57942659
H      -6.12788095     -4.67858065    -11.45146792
C      -1.62223042     -1.53497049     -3.10726474
H      -2.17713809     -1.08986306     -4.12432776
C      -0.13528055     -0.72626364     -2.71079311
H      -1.49033504     -2.62375018     -3.69398838
H      -0.09645204      0.33735152     -3.35885320
H       0.71729716     -1.19337377     -3.49575408
C       0.61131281     -0.44438645     -1.15591367
H       1.83981211     -0.26727971     -1.30163752
C       0.07662494      0.62692233      0.12139363
H       0.98688886     -1.54336113     -0.71242842
H      -0.43729781      1.61306297     -0.42721112
H       0.95062277      1.48031312      0.36959961
C      -0.70879301      0.23673400      1.64204877
H      -0.01691007      0.56707275      2.62330235
C       3.19743468      3.55126767    -10.57346766
H      -0.38886660     -0.91008665      2.00301441
H       2.55142786      4.35939515    -11.03284638
H       0.48380671      9.63930139     12.22786023
C      11.23813650     -4.52928911     -9.38837256
H      -7.24339635      0.62482686     -0.75879625
H      -7.41078015     -0.99850634     -0.13094792
C      -8.95710993     -0.61358062     -1.74099082
H      -9.72165604      0.21827398     -2.17774894
C      -8.02688020      0.02824383     10.35802414
H      -9.72672885     -1.54932221     -1.74789125
H      -8.08557670      0.90508467      9.59520836
H      -7.96555354     -0.84285470     11.12718577
C      -2.37367454      0.52853064      2.07603118
H      -2.75049510      1.43388479      1.31498733
C      -3.36422337      0.95174857      3.42931408
H      -2.90015463     -0.55811894      1.80027801
H      -3.18514639      2.02495154      4.02378505
H      -3.40782672      0.23499631      4.44095684
H      -4.60090345      1.06076926      3.30893663
H      10.80872444     -3.44854237     -9.09593824
H      11.76073179     -4.69846858    -10.45429869
H      11.14495341     -5.44085601     -8.61488124
H       4.52283427     -3.48261867     17.27522904
H       1.91171841     -3.97389852     19.26557614
H      12.03428773     -4.86476649     10.69783191
H      14.99661799     -4.70141472     11.18301383
H      -7.96749127     -4.12665008     22.15599554
H       7.36815504      7.45229353      0.66648610
H      -1.25141238     10.01295673     14.99392907
H       9.09837363      7.13305038      3.73290092
H      15.65222982     -2.44765750      0.68459825
H      -1.17118569      8.76569972     12.31193286
H      18.34372716     -0.85078773      1.55760410
H      17.74916005     -1.77129953     -1.52340639
H      12.52459432     -1.73258187      2.81153048
H      20.63258415     -1.52066465     -0.75334837
H       7.66067600      5.97760073      3.28422217
C      11.98385823     -3.15545574     12.26429126
C      12.58024035     -3.78259110     10.90841622
C       3.39036522     -3.12194956     17.16127724
C       2.38491797     -3.53897936     18.29300530
C      14.23120870     -3.78898224     10.98261285
C       7.96603748      7.80798128      1.65532603
C       7.99511711      7.16008439      3.18204950
C      -0.69656501      9.89406429     12.50584987
C      -1.06587981     10.68904112     13.97207922
C      16.08762764     -1.50663429      1.35074312
C      17.45474245     -0.67681378      0.70772201
C      18.16019275     -0.78920933     -0.87862518
C      19.85271044     -0.67130269     -1.21369503
C      14.61798147     -0.96587922      1.77329156
C      13.17028788     -0.81065069      2.39901396
H      20.32612595     -0.72545537     -2.35944311
H      -2.52589292     -2.76783336     -1.31873604
H      11.64250109     -2.64367815     13.26337712
H      -7.83919257     -3.45442660     22.53023481
H      12.08285208     -3.19084937      9.95144821
H      15.00529618     -2.86662031     10.88299349
H       3.15025865     -2.47103761     16.18826016
H       8.53145082      8.77920525      1.20901116
H      -0.24654727     11.49724779     14.43183857
H       7.25732289      7.74508431      3.97994005
H      16.28311184     -2.06108761      2.43705385
H      -1.01341503     10.44430102     11.44140046
H      17.32189176      0.52422231      1.00883178
H      17.52261403     -0.06514583     -1.66981034
H      12.60969646      0.23301483      2.54337033
H      20.47196136      0.36197415     -0.91452032
H      -2.08736312     11.38886595     14.02737861
