   94

C       6.90780487     -7.25427901    -13.21706537
C      -3.33980010    -13.05152339    -10.13445385
H       7.58779267     -6.52714195    -12.54862388
C      -0.95288394     -0.88108761      8.24222930
H      -5.69407940      8.55615352     -2.38910652
H       2.01008015     -2.55740147      7.63679498
C       0.38265928     -1.37450845      9.10529360
H       6.57319670     -8.32337614    -12.78928601
H      -9.00629938     -6.97077983    -19.18209263
H      -8.99858819     -7.74017383    -19.05413396
C       4.21932767      0.26753505     -3.73566767
H      16.72363584      5.80198181     13.90388378
C       8.58116346    -10.35794289      5.12291172
H       8.20041457     10.89813365     -2.21852480
H       8.78199196     -9.53579230      4.31929630
H       2.50425844    -10.90118632     17.33758517
C       7.24546396    -10.93672268      7.56512894
H       6.11821135    -10.97269067      7.07307678
C       7.45427173     11.10392998     -0.02230140
H       6.58710240    -10.94838381      8.59306511
H      11.29370050     15.61909498      8.91065878
H       6.85001616     11.71092451      0.77987945
C       8.22890101     10.27567748     -1.16083183
H      16.85665692      2.91566089     -5.08201493
C      15.75282822      2.69569544     -4.97145247
H       2.10719387      0.79902472     -3.04543184
H       7.70695062      9.17430202     -1.30786403
H      -2.55067572     10.61270638     11.84234489
C      17.12279749    -10.80109107     -8.05785180
H      -2.01266728     -0.53530191      8.74045470
H      -5.60556786      8.35050474     -0.46094616
C       3.40517604     -2.91586821     -3.56963055
H       0.03542990     -2.35828404      9.78339713
C       1.47819573    -10.71751696     17.93036419
H       3.42196205     -3.11575377     -2.37337923
H     -10.96213609    -12.27297242     15.66815272
H       1.07348491     -9.60107587     18.09678088
C       0.75271434     -1.21709601     -4.18706577
H      -2.53013503      8.61624264     -1.01314714
C      -3.22360094     10.87719984     -1.58834653
H      -0.27065853     -0.65256132     -4.40093346
H      -3.44324607     11.56484816     -0.58611472
H      -2.09365175     11.21639545     -1.94775478
H      -3.83395149     11.47087699     -2.47981010
H      17.54240420    -10.13041866     -8.96423904
H      17.17657401    -11.94365065     -8.42317532
H      16.99432910    -10.67728686     -5.54677467
H       3.00574739      0.52013417      6.99226692
H       0.35205053     -0.51864880      9.99843801
H       0.85684386    -11.65028868     18.35672652
H       4.74228343      0.22088305     -4.81397336
H      -9.42675544     -2.95204824     23.99740376
H       4.85328696     15.53096950     20.76096060
H      10.43232956     13.90921499      9.62381451
H       3.20082572     -1.28879917     10.71726286
H      26.59648769      7.39426669     -2.17327341
H      -4.58447377      9.53358198     11.50190853
H      27.28666125      7.54264242     -1.84154386
H      -1.10575632     -1.70543114      5.88851390
H       8.71281457    -12.43119437      6.07056336
H       6.56242889     -6.91231180    -14.31328610
H       4.29810864     -1.94930208      9.71934906
C      -1.02753011     -0.75926954      6.62799114
C     -10.36016020    -12.21606716     16.66242232
C       2.53710489     -0.45344231      7.45965133
C       1.93948722     -1.60029428      8.43310089
C       5.13165220      0.50288528     -2.48491125
C       9.47283100     15.96434886     10.46109677
C       3.13932599     -1.66848397      9.57764937
C      -3.56757474     10.07314418     11.67212671
C      10.46736879     15.10367970      9.60337994
C      -4.90141629      8.31869829     -1.47518943
C       2.29855748     -1.68683314     -4.05665601
C       2.69585168     -0.16426288     -3.52061705
C      16.53926581    -10.36512972     -6.61583544
C      -3.51868806      9.24904332     -1.35671539
C       8.19636257    -11.35940062      6.28484090
H       9.41155155     10.07121778     -0.90263209
H      -3.11177660    -13.81826260    -10.93541594
H      15.52495857     -9.74609469     -6.43219518
H      -9.29845674     -2.27982476     24.37164303
H      -9.75818431    -12.15916191     17.65669192
H      16.54780144      6.55543492     13.80493636
H       5.84444275      0.67522756     -1.58666108
H       5.54950501     15.73757849     21.04555355
H       8.75345210     16.60500014     11.11698476
H       1.92025370     -2.08982600     -5.15066153
H      -4.77766541      7.11447849     -1.71039967
H      -7.60795419     21.24264930      9.77839801
H       3.11497399     -4.05167170     -3.26343506
H      -0.90390974      0.24767221      5.97858365
H       8.08382945    -10.46711465      8.33252143
H       4.56053514     -3.25213564     -3.95202604
H      -7.74116572     21.25126849     10.54689030
   94

C       6.90805576     -7.25467089    -13.21771014
C      -3.33979805    -13.05164614    -10.13452502
H       7.58806732     -6.52754451    -12.54928113
C      -0.94853569     -0.89135422      8.24206923
H      -5.57640193      8.44228728     -2.45984308
H       2.01834401     -2.56330737      7.64695244
C       0.38686335     -1.38133904      9.10779559
H       6.57344990     -8.32377006    -12.78993400
H      -9.00629959     -6.97077258    -19.18209804
H      -8.99858941     -7.74016727    -19.05414348
C       4.22919509      0.27144411     -3.73825580
H      16.72367997      5.80197006     13.90390831
C       8.58406866    -10.36239869      5.12193600
H       8.20548391     10.89748134     -2.21936189
H       8.78634676     -9.54121538      4.31766649
H       2.50429364    -10.90130110     17.33770801
C       7.24809068    -10.93991571      7.56501920
H       6.12086932    -10.97159595      7.07261298
C       7.45910207     11.10421463     -0.02270219
H       6.59140566    -10.96209597      8.59395260
H      11.29388916     15.61934004      8.91098526
H       6.85644095     11.71125016      0.78064091
C       8.23370358     10.27585993     -1.16116866
H      16.85677100      2.91565919     -5.08204013
C      15.75294331      2.69568804     -4.97148179
H       2.11578293      0.78969851     -3.04560481
H       7.71200272      9.17445737     -1.30887807
H      -2.62896803     10.56203773     11.73655976
C      17.12191097    -10.80301702     -8.05806334
H      -2.00953947     -0.54722170      8.73869745
H      -5.78791800      8.81632839     -0.58505818
C       3.39435625     -2.92159810     -3.56029722
H       0.03777993     -2.36690663      9.78217665
C       1.47822856    -10.71762810     17.93048168
H       3.42481813     -3.10968483     -2.36073266
H     -10.96217197    -12.27306387     15.66823255
H       1.07352494     -9.60118727     18.09691702
C       0.75048811     -1.22920089     -4.18605645
H      -2.50209574      8.72033114     -1.14129543
C      -3.20928196     10.96199956     -1.68743115
H      -0.27587205     -0.67056618     -4.39927913
H      -3.41147837     11.66639842     -0.69263210
H      -2.08151836     11.29388744     -2.06083968
H      -3.82616959     11.53926461     -2.58479229
H      17.54292096    -10.12878629     -8.96114704
H      17.17662429    -11.94504551     -8.42520413
H      16.99570979    -10.67488452     -5.54710380
H       3.00996257      0.51049124      6.98863150
H       0.35471894     -0.52664272     10.00199821
H       0.85686223    -11.65039814     18.35682635
H       4.75351595      0.23677531     -4.81643678
H      -9.42676340     -2.95205779     23.99745162
H       4.85312131     15.53094164     20.76118513
H      10.43248686     13.90952988      9.62417507
H       3.21162096     -1.29761858     10.72399627
H      26.59650645      7.39426723     -2.17327490
H      -4.62713944      9.50953737     11.44446844
H      27.28667944      7.54264326     -1.84154433
H      -1.10873509     -1.71611135      5.88713810
H       8.71451257    -12.43487755      6.06990786
H       6.56265649     -6.91268649    -14.31391818
H       4.30653388     -1.96606369      9.71379450
C      -1.02692525     -0.77122160      6.62784623
C     -10.36019049    -12.21614888     16.66249822
C       2.54154993     -0.45818437      7.46618632
C       1.94634452     -1.60492886      8.44114588
C       5.14186696      0.50754910     -2.48723429
C       9.47345107     15.96467031     10.46197114
C       3.14825076     -1.67600182      9.58372107
C      -3.58641541     10.01922777     11.36494066
C      10.46774005     15.10399140      9.60397349
C      -4.93855211      8.44622166     -1.40384327
C       2.29916668     -1.68965949     -4.05974504
C       2.70637075     -0.16826091     -3.52777119
C      16.53831564    -10.36656604     -6.61625255
C      -3.52096799      9.33925356     -1.41606462
C       8.19869671    -11.36289314      6.28454989
H       9.41615456     10.07216080     -0.90146219
H      -3.11176845    -13.81837565    -10.93549420
H      15.52523831     -9.74558808     -6.43236596
H      -9.29846299     -2.27983152     24.37168532
H      -9.75820905    -12.15923400     17.65676391
H      16.54784425      6.55542278     13.80496027
H       5.84948774      0.67624034     -1.58369825
H       5.54933609     15.73755388     21.04578378
H       8.75343018     16.60527545     11.11720081
H       1.93774263     -2.08827841     -5.16177685
H      -4.78264669      6.43347918     -0.51752329
H      -7.60805005     21.24301050      9.77863529
H       3.10422020     -4.06435148     -3.27478945
H      -0.90432757      0.23594710      5.97864507
H       8.08459237    -10.46507844      8.33130134
H       4.54711719     -3.24865851     -3.95314699
H      -7.74125318     21.25155561     10.54712976
   94

C       6.90818909     -7.25495279    -13.21817317
C      -3.33980461    -13.05153943    -10.13447294
H       7.58818874     -6.52782135    -12.54973769
C      -0.94329920     -0.90533050      8.24244917
H      -5.53898908      8.46595180     -2.74066583
H       2.02786146     -2.57092379      7.65758651
C       0.39223341     -1.39046023      9.11108510
H       6.57357957     -8.32404959    -12.79039427
H      -9.00629758     -6.97078284    -19.18207555
H      -8.99858619     -7.74017678    -19.05411662
C       4.23481883      0.27822589     -3.73962225
H      16.72377993      5.80195748     13.90395098
C       8.58688063    -10.36676624      5.12085532
H       8.21000470     10.89679687     -2.22041804
H       8.79056356     -9.54654359      4.31593021
H       2.50434033    -10.90148560     17.33785535
C       7.25068014    -10.94308799      7.56481164
H       6.12348146    -10.97052521      7.07211500
C       7.46324821     11.10450763     -0.02342831
H       6.59571499    -10.97569888      8.59465878
H      11.29407935     15.61965093      8.91127128
H       6.86199194     11.71169098      0.78084989
C       8.23797876     10.27603236     -1.16171238
H      16.85678037      2.91563640     -5.08205278
C      15.75295342      2.69565956     -4.97149720
H       2.12027330      0.78438233     -3.04368159
H       7.71658548      9.17457629     -1.31010532
H      -2.75129308     10.49068651     11.63581273
C      17.12096370    -10.80489909     -8.05825601
H      -2.00564378     -0.56341827      8.73757155
H      -5.86628833      8.72887528     -0.87992759
C       3.37958147     -2.92419042     -3.55048957
H       0.04157957     -2.37778912      9.78190772
C       1.47827417    -10.71780974     17.93062585
H       3.42463033     -3.10080411     -2.34792681
H     -10.96221309    -12.27317301     15.66829338
H       1.07358125     -9.60137049     18.09709601
C       0.74353149     -1.23624429     -4.18262733
H      -2.54056014      8.65490670     -1.37839047
C      -3.21521912     10.95574018     -1.78441048
H      -0.28563925     -0.68178267     -4.39180770
H      -3.42821924     11.63799561     -0.77694923
H      -2.08039355     11.28740416     -2.13518192
H      -3.81806725     11.55978605     -2.67419337
H      17.54336955    -10.12713076     -8.95802831
H      17.17662053    -11.94639603     -8.42720580
H      16.99700824    -10.67244209     -5.54743088
H       3.01570335      0.49863031      6.98524257
H       0.35812451     -0.53672164     10.00611694
H       0.85688677    -11.65057707     18.35694499
H       4.76063400      0.25470496     -4.81749639
H      -9.42679769     -2.95211924     23.99758334
H       4.85299966     15.53096510     20.76146821
H      10.43270522     13.90991042      9.62455117
H       3.22331948     -1.30732184     10.73117082
H      26.59651564      7.39426627     -2.17327769
H      -4.62021056      9.51465195     11.41233903
H      27.28668830      7.54264267     -1.84154658
H      -1.11099838     -1.73216942      5.88606548
H       8.71617202    -12.43848786      6.06913173
H       6.56280533     -6.91298051    -14.31438980
H       4.31585696     -1.98362301      9.70871591
C      -1.02538255     -0.78872543      6.62816615
C     -10.36023099    -12.21625493     16.66255868
C       2.54697566     -0.46467460      7.47310860
C       1.95425774     -1.61128317      8.44965953
C       5.14869835      0.51416928     -2.48870972
C       9.47408093     15.96504946     10.46282354
C       3.15817153     -1.68467445      9.59032355
C      -3.60837288      9.96344741     11.04728375
C      10.46813283     15.10436926      9.60455035
C      -4.95409212      8.44894180     -1.65580707
C       2.29486709     -1.68890376     -4.06025075
C       2.71253575     -0.16856992     -3.53256824
C      16.53729230    -10.36795405     -6.61665169
C      -3.54352871      9.33311645     -1.54971885
C       8.20098130    -11.36632046      6.28414655
H       9.42022953     10.07314843     -0.90046481
H      -3.11177884    -13.81827797    -10.93543495
H      15.52544362     -9.74503763     -6.43253101
H      -9.29849623     -2.27989162     24.37181427
H      -9.75824782    -12.15933509     17.65682321
H      16.54794475      6.55541040     13.80500343
H       5.85216613      0.67844226     -1.58060587
H       5.54921455     15.73757633     21.04606733
H       8.75340737     16.60559542     11.11739482
H       1.94978300     -2.08272489     -5.16997838
H      -4.62484871      6.89823473      1.43663902
H      -7.60808311     21.24318404      9.77853345
H       3.09007454     -4.07380307     -3.28621261
H      -0.90175285      0.21797552      5.97850965
H       8.08528325    -10.46311109      8.33003314
H       4.52957902     -3.24174448     -3.95438000
H      -7.74128298     21.25172665     10.54702859
   94

C       6.90838042     -7.25529007    -13.21870521
C      -3.33980384    -13.05153651    -10.13446154
H       7.58837628     -6.52815734    -12.55026726
C      -0.93955510     -0.91401296      8.23770398
H      -5.59952955      8.52839063     -2.82309061
H       2.03472648     -2.57576428      7.66518610
C       0.39485839     -1.39634773      9.11021230
H       6.57376668     -8.32438448    -12.79092364
H      -9.00630497     -6.97080778    -19.18209875
H      -8.99859256     -7.74020108    -19.05413602
C       4.24145917      0.28429570     -3.74096544
H      16.72382185      5.80192842     13.90396825
C       8.58960101    -10.37101802      5.11978775
H       8.21453511     10.89596672     -2.22146482
H       8.79469817     -9.55176161      4.31420866
H       2.50434463    -10.90151582     17.33785398
C       7.25315496    -10.94608585      7.56457775
H       6.12597392    -10.96926626      7.07164429
C       7.46750788     11.10465411     -0.02411306
H       6.59994516    -10.98905411      8.59525165
H      11.29431127     15.61994144      8.91159787
H       6.86780087     11.71199931      0.78119031
C       8.24228684     10.27604771     -1.16225612
H      16.85680130      2.91561715     -5.08205903
C      15.75297534      2.69563496     -4.97150392
H       2.12575145      0.77759332     -3.04168327
H       7.72117131      9.17454886     -1.31129784
H      -2.85001211     10.42443679     11.49483827
C      17.12002333    -10.80678622     -8.05844968
H      -2.00340366     -0.57482211      8.73140342
H      -5.75781773      8.48116646     -0.91345320
C       3.36580921     -2.92776904     -3.54030853
H       0.04219823     -2.38550290      9.77714132
C       1.47827866    -10.71783904     17.93062440
H       3.42528842     -3.09249168     -2.33496767
H     -10.96221312    -12.27318740     15.66828373
H       1.07358734     -9.60139962     18.09709691
C       0.73819736     -1.24514060     -4.17972709
H      -2.55108515      8.62346577     -1.39627317
C      -3.21718792     10.93491543     -1.86864781
H      -0.29393107     -0.69577434     -4.38611948
H      -3.43838234     11.62558355     -0.86922735
H      -2.08197096     11.26383383     -2.21945226
H      -3.82233967     11.53055024     -2.76259326
H      17.54383796    -10.12549023     -8.95488497
H      17.17662662    -11.94774680     -8.42921325
H      16.99833341    -10.66998751     -5.54776680
H       3.01859875      0.48950122      6.97902968
H       0.35916082     -0.54409892     10.00661252
H       0.85688870    -11.65060486     18.35694293
H       4.76875780      0.27219314     -4.81841889
H      -9.42680598     -2.95215491     23.99762132
H       4.85288209     15.53097131     20.76176266
H      10.43295296     13.91027261      9.62495847
H       3.23238013     -1.31597835     10.73601688
H      26.59652360      7.39426457     -2.17327896
H      -4.61586602      9.51145856     11.34047393
H      27.28669597      7.54264132     -1.84154741
H      -1.11579804     -1.73908304      5.87975891
H       8.71773800    -12.44197550      6.06838213
H       6.56300308     -6.91332308    -14.31492553
H       4.32246891     -1.99999377      9.70138120
C      -1.02550593     -0.79727580      6.62343190
C     -10.36023239    -12.21627075     16.66255000
C       2.55025190     -0.46850545      7.47743856
C       1.95991892     -1.61505043      8.45538482
C       5.15612387      0.52052021     -2.48995247
C       9.47477601     15.96541957     10.46373751
C       3.16571340     -1.69158847      9.59433434
C      -3.65099257      9.91063320     10.81733117
C      10.46857155     15.10472870      9.60517431
C      -4.92194128      8.42933442     -1.80580164
C       2.29223510     -1.68917977     -4.06136428
C       2.71983865     -0.16998697     -3.53763064
C      16.53626802    -10.36937478     -6.61704252
C      -3.53110087      9.31339786     -1.63265483
C       8.20316552    -11.36962568      6.28375616
H       9.42433663     10.07397130     -0.89948461
H      -3.11177887    -13.81827506    -10.93542386
H      15.52566702     -9.74449394     -6.43269554
H      -9.29850491     -2.27992819     24.37185400
H      -9.75825033    -12.15935171     17.65681531
H      16.54798957      6.55538223     13.80502233
H       5.85487579      0.68077209     -1.57698510
H       5.54909674     15.73758346     21.04636166
H       8.75345276     16.60591185     11.11764753
H       1.96364430     -2.07852960     -5.17840995
H      -4.63863122      7.50286379      2.61347261
H      -7.60821681     21.24378477      9.77869283
H       3.07693920     -4.08386814     -3.29744894
H      -0.90472050      0.20948891      5.97331666
H       8.08579600    -10.46099583      8.32878000
H       4.51299840     -3.23552715     -3.95510777
H      -7.74140317     21.25225612     10.54719116
   94

C       6.90857262     -7.25562417    -13.21925442
C      -3.33980486    -13.05154930    -10.13446808
H       7.58856885     -6.52849196    -12.55081625
C      -0.93624280     -0.92122912      8.23295825
H      -5.65842460      8.53297541     -2.79881574
H       2.04106815     -2.57991056      7.67276143
C       0.39700784     -1.40129486      9.10914734
H       6.57395817     -8.32471830    -12.79147269
H      -9.00630652     -6.97080610    -19.18210136
H      -8.99859421     -7.74019953    -19.05413941
C       4.24870880      0.28987527     -3.74261639
H      16.72384004      5.80190192     13.90397913
C       8.59231388    -10.37525285      5.11875817
H       8.21897100     10.89515925     -2.22249333
H       8.79883067     -9.55696924      4.31252447
H       2.50434080    -10.90151491     17.33784007
C       7.25562578    -10.94907356      7.56436434
H       6.12845846    -10.96804883      7.07124543
C       7.47167341     11.10478542     -0.02476391
H       6.60419768    -11.00225385      8.59577966
H      11.29449625     15.62019211      8.91191877
H       6.87346789     11.71222218      0.78157897
C       8.24651092     10.27608086     -1.16278541
H      16.85683361      2.91560445     -5.08207129
C      15.75300844      2.69561747     -4.97151829
H       2.13193412      0.77027899     -3.04037089
H       7.72569366      9.17453118     -1.31248813
H      -2.93942189     10.36036395     11.34130026
C      17.11909765    -10.80867172     -8.05864750
H      -2.00150603     -0.58430411      8.72510648
H      -5.67210675      8.36557085     -0.88232561
C       3.35232106     -2.93187258     -3.53024298
H       0.04227496     -2.39227021      9.77212285
C       1.47827434    -10.71783640     17.93060914
H       3.42637393     -3.08445490     -2.32237202
H     -10.96220790    -12.27317819     15.66826878
H       1.07358314     -9.60139627     18.09707724
C       0.73349158     -1.25452068     -4.17743783
H      -2.54918413      8.61168752     -1.41912571
C      -3.21862506     10.92321676     -1.93705773
H      -0.30154620     -0.71038726     -4.38141853
H      -3.44154650     11.62058344     -0.94302040
H      -2.08547699     11.25163606     -2.29385842
H      -3.83095012     11.50594998     -2.83440434
H      17.54430329    -10.12386558     -8.95174033
H      17.17664149    -11.94909428     -8.43122166
H      16.99966386    -10.66754587     -5.54811669
H       3.02089474      0.48105898      6.97285220
H       0.35987273     -0.55058779     10.00696935
H       0.85688450    -11.65060125     18.35693003
H       4.77730161      0.28944260     -4.81961512
H      -9.42680130     -2.95215879     23.99760653
H       4.85274134     15.53095279     20.76201348
H      10.43312911     13.91059340      9.62533530
H       3.24106989     -1.32424682     10.74076895
H      26.59653165      7.39426371     -2.17328039
H      -4.61206038      9.50552299     11.25612404
H      27.28670372      7.54264071     -1.84154833
H      -1.12089186     -1.74409841      5.87362224
H       8.71930303    -12.44545191      6.06765139
H       6.56319496     -6.91365694    -14.31547458
H       4.32853922     -2.01599918      9.69393408
C      -1.02608060     -0.80383553      6.61873382
C     -10.36022778    -12.21626233     16.66253546
C       2.55313396     -0.47162778      7.48177552
C       1.96513738     -1.61812364      8.46108897
C       5.16409274      0.52648326     -2.49146938
C       9.47540903     15.96574623     10.46462766
C       3.17290952     -1.69806726      9.59823598
C      -3.70171156      9.85616426     10.61119423
C      10.46895203     15.10504641      9.60577755
C      -4.91350643      8.43385086     -1.83559593
C       2.29015094     -1.68995476     -4.06290064
C       2.72778996     -0.17197930     -3.54317815
C      16.53526047    -10.37079701     -6.61743108
C      -3.51810341      9.30259853     -1.69211131
C       8.20534675    -11.37292289      6.28339440
H       9.42836022     10.07482298     -0.89849446
H      -3.11177913    -13.81828694    -10.93543101
H      15.52590441     -9.74395964     -6.43286898
H      -9.29850031     -2.27993238     24.37183981
H      -9.75824639    -12.15934406     17.65680121
H      16.54800925      6.55535619     13.80503411
H       5.85802486      0.68281821     -1.57363989
H       5.54895354     15.73756772     21.04661649
H       8.75343979     16.60618396     11.11787982
H       1.97804329     -2.07497319     -5.18690991
H      -4.62145421      7.93975092      3.42649621
H      -7.60834936     21.24436058      9.77890441
H       3.06422232     -4.09413781     -3.30905769
H      -0.90887694      0.20334303      5.96857664
H       8.08626719    -10.45892986      8.32758346
H       4.49663361     -3.22952974     -3.95595813
H      -7.74151931     21.25273909     10.54740661
   94

C       6.90875817     -7.25594736    -13.21979433
C      -3.33980569    -13.05155600    -10.13447337
H       7.58875243     -6.52881448    -12.55135485
C      -0.93294410     -0.92841509      8.22850585
H      -5.68478571      8.51486534     -2.80040464
H       2.04743742     -2.58401502      7.68046548
C       0.39921503     -1.40623071      9.10824417
H       6.57414403     -8.32504180    -12.79201314
H      -9.00630663     -6.97080330    -19.18210220
H      -8.99859451     -7.74019685    -19.05414093
C       4.25589754      0.29550176     -3.74424739
H      16.72385873      5.80187656     13.90398876
C       8.59501990    -10.37947691      5.11773784
H       8.22310324     10.89433016     -2.22346922
H       8.80295781     -9.56217295      4.31084740
H       2.50433764    -10.90151679     17.33783147
C       7.25810403    -10.95206890      7.56414859
H       6.13094499    -10.96689063      7.07089780
C       7.47547768     11.10485627     -0.02537877
H       6.60848948    -11.01534732      8.59622576
H      11.29466907     15.62043477      8.91221981
H       6.87866566     11.71230552      0.78197935
C       8.25042461     10.27608430     -1.16326739
H      16.85684450      2.91559878     -5.08207959
C      15.75301960      2.69560978     -4.97152817
H       2.13814868      0.76301453     -3.03914910
H       7.72991351      9.17448284     -1.31365089
H      -3.02601786     10.29770081     11.18867385
C      17.11817178    -10.81054826     -8.05884523
H      -1.99959845     -0.59365783      8.71906882
H      -5.64073818      8.32823249     -0.87908752
C       3.33866710     -2.93600496     -3.52011031
H       0.04244460     -2.39904181      9.76722653
C       1.47827066    -10.71783626     17.93059905
H       3.42746393     -3.07624974     -2.30996952
H     -10.96220362    -12.27316549     15.66825482
H       1.07357986     -9.60139540     18.09706347
C       0.72882001     -1.26378280     -4.17521959
H      -2.55737817      8.59901978     -1.44468055
C      -3.22286329     10.91455965     -1.98989125
H      -0.30909848     -0.72489942     -4.37677474
H      -3.44672614     11.61015395     -0.99499944
H      -2.09067191     11.24222792     -2.34922172
H      -3.83919035     11.49235722     -2.88747801
H      17.54475895    -10.12224843     -8.94858560
H      17.17665394    -11.95043067     -8.43322771
H      17.00098942    -10.66510121     -5.54847729
H       3.02320008      0.47253061      6.96681263
H       0.36063123     -0.55707640     10.00749169
H       0.85688052    -11.65060028     18.35692143
H       4.78567031      0.30682607     -4.82071947
H      -9.42679690     -2.95215760     23.99758724
H       4.85261500     15.53094620     20.76228387
H      10.43328960     13.91090758      9.62569280
H       3.24981576     -1.33252213     10.74560101
H      26.59653513      7.39426330     -2.17328174
H      -4.60434662      9.50158552     11.17177343
H      27.28670705      7.54264040     -1.84154943
H      -1.12591903     -1.74909995      5.86779713
H       8.72087427    -12.44892539      6.06691103
H       6.56338129     -6.91398054    -14.31601488
H       4.33453236     -2.03198548      9.68654389
C      -1.02664728     -0.81040475      6.61434639
C     -10.36022413    -12.21625080     16.66252192
C       2.55606169     -0.47469831      7.48627935
C       1.97038832     -1.62117078      8.46693926
C       5.17201266      0.53250997     -2.49296888
C       9.47603401     15.96606777     10.46550164
C       3.18019941     -1.70456825      9.60222316
C      -3.75755701      9.80094108     10.42056053
C      10.46932009     15.10535733      9.60636138
C      -4.92159732      8.45026307     -1.85343403
C       2.28803932     -1.69067390     -4.06439915
C       2.73572464     -0.17395704     -3.54867636
C      16.53425058    -10.37221702     -6.61781376
C      -3.51498584      9.29466303     -1.74163343
C       8.20753336    -11.37622005      6.28303345
H       9.43207072     10.07566049     -0.89744482
H      -3.11177938    -13.81829326    -10.93543647
H      15.52614140     -9.74342365     -6.43304717
H      -9.29849597     -2.27993145     24.37182101
H      -9.75824339    -12.15933369     17.65678811
H      16.54802925      6.55533122     13.80504436
H       5.86112243      0.68494795     -1.57034318
H       5.54882627     15.73756265     21.04688802
H       8.75342549     16.60645516     11.11809791
H       1.99234858     -2.07145521     -5.19503017
H      -4.53898858      8.29188288      4.17939425
H      -7.60848355     21.24485832      9.77906316
H       3.05149289     -4.10412649     -3.32089707
H      -0.91300457      0.19729979      5.96435168
H       8.08670905    -10.45693338      8.32642230
H       4.48002203     -3.22326630     -3.95676929
H      -7.74163555     21.25315574     10.54756934
   94

C       6.90894207     -7.25626716    -13.22032701
C      -3.33980575    -13.05155920    -10.13447550
H       7.58893242     -6.52913268    -12.55188527
C      -0.92972104     -0.93521829      8.22410888
H      -5.69176067      8.49690923     -2.84112673
H       2.05366043     -2.58780355      7.68804575
C       0.40135527     -1.41092112      9.10729187
H       6.57432793     -8.32536172    -12.79254611
H      -9.00630766     -6.97080609    -19.18210758
H      -8.99859550     -7.74019958    -19.05414598
C       4.26300944      0.30117823     -3.74580109
H      16.72387057      5.80185256     13.90399044
C       8.59770505    -10.38366979      5.11672434
H       8.22691568     10.89349398     -2.22425542
H       8.80706352     -9.56735023      4.30917663
H       2.50433471    -10.90151475     17.33781666
C       7.26057375    -10.95504646      7.56392641
H       6.13341833    -10.96576316      7.07059377
C       7.47881609     11.10484388     -0.02583003
H       6.61280163    -11.02830672      8.59658760
H      11.29479329     15.62064997      8.91247807
H       6.88319381     11.71214209      0.78251511
C       8.25398075     10.27606899     -1.16356535
H      16.85683305      2.91559984     -5.08207781
C      15.75300804      2.69561155     -4.97152603
H       2.14436994      0.75579234     -3.03791974
H       7.73380021      9.17440862     -1.31466860
H      -3.10968842     10.23938379     11.05476774
C      17.11724445    -10.81241534     -8.05904087
H      -1.99773342     -0.60261799      8.71313561
H      -5.63423484      8.31257612     -0.91529413
C       3.32486808     -2.94016374     -3.50986720
H       0.04253937     -2.40561192      9.76217450
C       1.47826769    -10.71783289     17.93058380
H       3.42853127     -3.06785241     -2.29771627
H     -10.96219844    -12.27315047     15.66823957
H       1.07357703     -9.60139139     18.09704448
C       0.72418853     -1.27294170     -4.17300852
H      -2.56904718      8.58773063     -1.48568811
C      -3.22680528     10.91168277     -2.04091315
H      -0.31659218     -0.73934809     -4.37212571
H      -3.45150971     11.59990280     -1.04123661
H      -2.09486952     11.23868279     -2.40052655
H      -3.84501794     11.48974374     -2.93688188
H      17.54520508    -10.12063838     -8.94541830
H      17.17666283    -11.95175541     -8.43522965
H      17.00230925    -10.66265157     -5.54884667
H       3.02530000      0.46425014      6.96077034
H       0.36134592     -0.56339833     10.00803508
H       0.85687814    -11.65059626     18.35690857
H       4.79387275      0.32431586     -4.82166119
H      -9.42679747     -2.95216606     23.99758013
H       4.85253494     15.53097458     20.76260903
H      10.43338634     13.91119708      9.62599891
H       3.25847429     -1.34072625     10.75034427
H      26.59653231      7.39426327     -2.17328179
H      -4.59140308      9.50240951     11.10012351
H      27.28670430      7.54264032     -1.84154959
H      -1.13100320     -1.75333489      5.86193027
H       8.72243790    -12.45237536      6.06616112
H       6.56356781     -6.91430222    -14.31654898
H       4.34029176     -2.04783972      9.67901490
C      -1.02725601     -0.81633924      6.61004573
C     -10.36021981    -12.21623782     16.66250728
C       2.55892262     -0.47744557      7.49078463
C       1.97554641     -1.62395145      8.47272833
C       5.17984501      0.53862935     -2.49438190
C       9.47661396     15.96636931     10.46633194
C       3.18744098     -1.71093133      9.60609883
C      -3.81517995      9.74852368     10.25689588
C      10.46963435     15.10564309      9.60689763
C      -4.93283858      8.47409884     -1.89300494
C       2.28591228     -1.69133509     -4.06581028
C       2.74362553     -0.17591262     -3.55405523
C      16.53323653    -10.37363462     -6.61818868
C      -3.51535234      9.29196530     -1.79563725
C       8.20971046    -11.37949660      6.28267103
H       9.43542086     10.07650029     -0.89619139
H      -3.11177919    -13.81829629    -10.93543867
H      15.52637653     -9.74288510     -6.43322814
H      -9.29849711     -2.27994099     24.37181602
H      -9.75823998    -12.15932268     17.65677412
H      16.54804209      6.55530745     13.80504608
H       5.86409948      0.68721771     -1.56700738
H       5.54874949     15.73758898     21.04720659
H       8.75337963     16.60671672     11.11827556
H       2.00657537     -2.06798555     -5.20272848
H      -4.44626519      8.56742143      4.97742092
H      -7.60859524     21.24521108      9.77909426
H       3.03874511     -4.11381541     -3.33291323
H      -0.91728411      0.19206625      5.96049000
H       8.08710794    -10.45498151      8.32529157
H       4.46318433     -3.21675633     -3.95745715
H      -7.74173561     21.25347499     10.54760285
   94

C       6.90912718     -7.25658824    -13.22085683
C      -3.33980519    -13.05156203    -10.13447515
H       7.58911288     -6.52945182    -12.55241242
C      -0.92674161     -0.94109997      8.21988478
H      -5.69080613      8.48126736     -2.90330440
H       2.05950621     -2.59098290      7.69552952
C       0.40326742     -1.41495573      9.10633808
H       6.57451244     -8.32568256    -12.79307576
H      -9.00630995     -6.97081411    -19.18211747
H      -8.99859757     -7.74020740    -19.05415468
C       4.27012384      0.30681622     -3.74731141
H      16.72386393      5.80183157     13.90398038
C       8.60036102    -10.38781961      5.11572321
H       8.23054732     10.89268853     -2.22482905
H       8.81113975     -9.57248852      4.30751849
H       2.50432867    -10.90149603     17.33778623
C       7.26302363    -10.95798841      7.56370160
H       6.13586802    -10.96464681      7.07033354
C       7.48185578     11.10479505     -0.02607675
H       6.61711924    -11.04110805      8.59687078
H      11.29481181     15.62080944      8.91269519
H       6.88727125     11.71179099      0.78325855
C       8.25732353     10.27607724     -1.16365362
H      16.85680844      2.91560569     -5.08206570
C      15.75298317      2.69561967     -4.97151163
H       2.15067473      0.74853432     -3.03673355
H       7.73750277      9.17434794     -1.31551257
H      -3.19007299     10.18897256     10.96098984
C      17.11631716    -10.81427410     -8.05923393
H      -1.99598610     -0.61036791      8.70744081
H      -5.63461821      8.30114956     -0.97550874
C       3.31098791     -2.94441914     -3.49953332
H       0.04234583     -2.41155570      9.75700420
C       1.47826212    -10.71781396     17.93055418
H       3.42959503     -3.05931280     -2.28563023
H     -10.96218917    -12.27312445     15.66821867
H       1.07357045     -9.60137192     18.09700908
C       0.71965445     -1.28207027     -4.17083681
H      -2.58009658      8.57904023     -1.54510496
C      -3.22918959     10.91374024     -2.09978884
H      -0.32397228     -0.75382234     -4.36752997
H      -3.45443656     11.59546954     -1.09593598
H      -2.09708746     11.23930385     -2.45918584
H      -3.84844662     11.49235568     -2.99458839
H      17.54564306    -10.11903675     -8.94223826
H      17.17666899    -11.95306962     -8.43722723
H      17.00362475    -10.66019830     -5.54922421
H       3.02699367      0.45657805      6.95485029
H       0.36194015     -0.56915043     10.00865833
H       0.85687529    -11.65057699     18.35688379
H       4.80198043      0.34183085     -4.82247617
H      -9.42680362     -2.95218631     23.99758047
H       4.85252536     15.53105320     20.76300684
H      10.43334275     13.91143347      9.62623655
H       3.26692756     -1.34867888     10.75500180
H      26.59652374      7.39426369     -2.17327975
H      -4.57260338      9.51058144     11.05551779
H      27.28669601      7.54264057     -1.84154805
H      -1.13630612     -1.75627759      5.85614083
H       8.72398416    -12.45578941      6.06540860
H       6.56375665     -6.91462615    -14.31708088
H       4.34565277     -2.06340897      9.67132714
C      -1.02810677     -0.82110925      6.60594871
C     -10.36021175    -12.21621508     16.66248727
C       2.56156870     -0.47958456      7.49533022
C       1.98043341     -1.62617349      8.47849019
C       5.18766525      0.54476057     -2.49574030
C       9.47707445     15.96662068     10.46709997
C       3.19448244     -1.71696069      9.60986302
C      -3.86974371      9.70352036     10.13577183
C      10.46982704     15.10587498      9.60737479
C      -4.94394420      8.50335626     -1.94939605
C       2.28382555     -1.69201933     -4.06716395
C       2.75156817     -0.17792910     -3.55936045
C      16.53222004    -10.37505078     -6.61855527
C      -3.51614119      9.29428854     -1.85848542
C       8.21186782    -11.38274009      6.28231275
H       9.43855737     10.07737643     -0.89472413
H      -3.11177857    -13.81829888    -10.93543853
H      15.52661111     -9.74234574     -6.43341128
H      -9.29850482     -2.27996392     24.37182168
H      -9.75823325    -12.15930334     17.65675508
H      16.54803536      6.55528634     13.80503519
H       5.86702700      0.68955393     -1.56366111
H       5.54874914     15.73766005     21.04758707
H       8.75322576     16.60693758     11.11839247
H       2.02078390     -2.06465160     -5.21004317
H      -4.36887370      8.76975807      5.78522062
H      -7.60861952     21.24520752      9.77893696
H       3.02601330     -4.12325739     -3.34510915
H      -0.92192153      0.18819229      5.95714073
H       8.08745525    -10.45305639      8.32419342
H       4.44618422     -3.21009415     -3.95800330
H      -7.74176792     21.25352745     10.54744360
   94

C       6.90931308     -7.25691036    -13.22138504
C      -3.33980422    -13.05156456    -10.13447279
H       7.58929373     -6.52977186    -12.55293771
C      -0.92400762     -0.94609070      8.21603718
H      -5.68672763      8.46639096     -2.97271693
H       2.06498794     -2.59359568      7.70313038
C       0.40498198     -1.41828793      9.10558797
H       6.57469741     -8.32600424    -12.79360358
H      -9.00631284     -6.97082458    -19.18212927
H      -8.99860012     -7.74021761    -19.05416493
C       4.27726031      0.31238524     -3.74880367
H      16.72383260      5.80181527     13.90396083
C       8.60299115    -10.39193142      5.11473726
H       8.23413823     10.89191876     -2.22527510
H       8.81519153     -9.57759405      4.30587510
H       2.50431770    -10.90145569     17.33774150
C       7.26545666    -10.96089881      7.56347762
H       6.13829736    -10.96354723      7.07011836
C       7.48481836     11.10475331     -0.02618898
H       6.62144370    -11.05375544      8.59708138
H      11.29469975     15.62090480      8.91290203
H       6.89123770     11.71138030      0.78416179
C       8.26061454     10.27611903     -1.16361533
H      16.85677780      2.91561390     -5.08204642
C      15.75295228      2.69563072     -4.97148884
H       2.15708502      0.74122099     -3.03561870
H       7.74116652      9.17431649     -1.31624545
H      -3.26953117     10.14290016     10.89231841
C      17.11539074    -10.81612548     -8.05942498
H      -1.99431272     -0.61675755      8.70216921
H      -5.63557077      8.29047755     -1.04486216
C       3.29705461     -2.94879372     -3.48913475
H       0.04189995     -2.41678348      9.75198722
C       1.47825189    -10.71777420     17.93051099
H       3.43064589     -3.05064754     -2.27373637
H     -10.96217478    -12.27308248     15.66819179
H       1.07355780     -9.60133177     18.09695770
C       0.71522401     -1.29118249     -4.16871244
H      -2.59078291      8.57182186     -1.61430993
C      -3.23063983     10.91788390     -2.16513117
H      -0.33123227     -0.76833609     -4.36299505
H      -3.45623195     11.59530698     -1.15858301
H      -2.09811828     11.24125837     -2.52426967
H      -3.85060188     11.49632114     -3.05950589
H      17.54607419    -10.11744437     -8.93904583
H      17.17667298    -11.95437415     -8.43922133
H      17.00493752    -10.65774207     -5.54961044
H       3.02835024      0.44945464      6.94921550
H       0.36245877     -0.57422519     10.00950943
H       0.85686986    -11.65053725     18.35684771
H       4.81000198      0.35934543     -4.82319286
H      -9.42681159     -2.95220909     23.99757570
H       4.85257096     15.53116947     20.76345191
H      10.43312863     13.91160700      9.62642745
H       3.27523143     -1.35631436     10.75971147
H      26.59651123      7.39426446     -2.17327577
H      -4.55072949      9.52207301     11.02128283
H      27.28668390      7.54264112     -1.84154482
H      -1.14183585     -1.75836803      5.85073635
H       8.72551531    -12.45917257      6.06465625
H       6.56394684     -6.91495164    -14.31761152
H       4.35064868     -2.07867630      9.66362966
C      -1.02924704     -0.82504973      6.60223772
C     -10.36019879    -12.21617733     16.66246146
C       2.56401705     -0.48116738      7.50005118
C       1.98506414     -1.62785084      8.48440453
C       5.19550269      0.55086428     -2.49707424
C       9.47737370     15.96680658     10.46782244
C       3.20135697     -1.72265002      9.61367480
C      -3.92153053      9.66377460     10.03900915
C      10.46986833     15.10604338      9.60781702
C      -4.95536858      8.53537157     -2.01249428
C       2.28178478     -1.69275530     -4.06846847
C       2.75957180     -0.18003521     -3.56461132
C      16.53120205    -10.37646694     -6.61891395
C      -3.51720501      9.29903302     -1.92641811
C       8.21400846    -11.38595520      6.28196167
H       9.44164254     10.07828658     -0.89313981
H      -3.11177767    -13.81830106    -10.93543654
H      15.52684609     -9.74180697     -6.43359692
H      -9.29851524     -2.27999080     24.37182513
H      -9.75822197    -12.15927024     17.65673051
H      16.54800215      6.55526939     13.80501409
H       5.86994998      0.69190597     -1.56034317
H       5.54880841     15.73776418     21.04800725
H       8.75290934     16.60709185     11.11846177
H       2.03497999     -2.06147827     -5.21699301
H      -4.30085636      8.93265483      6.59509532
H      -7.60850419     21.24469814      9.77862872
H       3.01330065     -4.13246115     -3.35749847
H      -0.92677986      0.18521814      5.95432187
H       8.08775643    -10.45116206      8.32312990
H       4.42904872     -3.20332381     -3.95840420
H      -7.74168529     21.25316501     10.54712813
   94

C       6.90947900     -7.25721585    -13.22195344
C      -3.33980010    -13.05152339    -10.13445385
H       7.58946685     -6.53008006    -12.55351048
C      -0.92143517     -0.95048244      8.21009052
H      -5.67568779      8.44356492     -3.04387304
H       2.07310683     -2.59413888      7.71970550
C       0.40604395     -1.41904355      9.10521906
H       6.57487020     -8.32631313    -12.79417524
H      -9.00629938     -6.97077983    -19.18209263
H      -8.99858819     -7.74017383    -19.05413396
C       4.29027886      0.32336067     -3.75212648
H      16.72375208      5.80181745     13.90395314
C       8.60587327    -10.39651924      5.11371226
H       8.23779155     10.89054271     -2.22622883
H       8.81967373     -9.58322006      4.30415724
H       2.50425844    -10.90118632     17.33758517
C       7.26783251    -10.96389409      7.56391559
H       6.14099129    -10.95967966      7.06976550
C       7.48868912     11.10478889     -0.02593010
H       6.62631250    -11.07047722      8.59796387
H      11.29441515     15.62092271      8.91323090
H       6.89639374     11.71107330      0.78562309
C       8.26413317     10.27624463     -1.16368529
H      16.85665692      2.91566089     -5.08201493
C      15.75282822      2.69569544     -4.97145247
H       2.16956226      0.72714435     -3.03473271
H       7.74514992      9.17441052     -1.31770983
H      -3.42522069     10.00422053     10.49962800
C      17.11427035    -10.81956279     -8.05957439
H      -1.99299770     -0.62167499      8.69371516
H      -5.63302241      8.27409564     -1.12139820
C       3.27047874     -2.95817357     -3.46877321
H       0.03859391     -2.42087392      9.74365561
C       1.47819573    -10.71751696     17.93036419
H       3.43522516     -3.03361256     -2.25132418
H     -10.96213609    -12.27297242     15.66815272
H       1.07348491     -9.60107587     18.09678088
C       0.70506877     -1.30897113     -4.16309679
H      -2.60839170      8.55806973     -1.69049857
C      -3.23215605     10.92424500     -2.23450852
H      -0.34312369     -0.79114786     -4.35875111
H      -3.45881926     11.59623164     -1.22480770
H      -2.09895202     11.24393525     -2.59317998
H      -3.85390182     11.50107943     -3.12864829
H      17.54585746    -10.11451734     -8.93366490
H      17.17684243    -11.95691851     -8.44247547
H      17.00638581    -10.65446101     -5.55018690
H       3.02855694      0.44162362      6.94129527
H       0.36145518     -0.57795086     10.01189194
H       0.85684386    -11.65028868     18.35672652
H       4.82514920      0.39116788     -4.82458991
H      -9.42675544     -2.95204824     23.99740376
H       4.85219013     15.53101275     20.76342173
H      10.43269304     13.91174969      9.62669653
H       3.28858760     -1.36384531     10.76947382
H      26.59648769      7.39426669     -2.17327341
H      -4.50224887      9.49570640     10.67170769
H      27.28666125      7.54264242     -1.84154386
H      -1.15438670     -1.75740019      5.84171482
H       8.72668950    -12.46251073      6.06365223
H       6.56410141     -6.91525145    -14.31817456
H       4.35840101     -2.09993750      9.64907503
C      -1.03470651     -0.82763641      6.59660452
C     -10.36016020    -12.21606716     16.66242232
C       2.56671350     -0.48028368      7.50866361
C       1.99166794     -1.62589474      8.49682598
C       5.20973696      0.56286666     -2.49979838
C       9.47739343     15.96690470     10.46864291
C       3.21227609     -1.72833654      9.62222631
C      -4.02495630      9.54183177      9.59456629
C      10.46969916     15.10618094      9.60837137
C      -4.97288432      8.58784684     -2.07635196
C       2.27612258     -1.69554166     -4.06885372
C       2.77488811     -0.18552004     -3.57351765
C      16.53046832    -10.37749127     -6.61960875
C      -3.51770639      9.30641014     -1.99906974
C       8.21580232    -11.38925892      6.28180260
H       9.44483818     10.07988017     -0.89073556
H      -3.11177660    -13.81826260    -10.93541594
H      15.52727852     -9.74098272     -6.43410194
H      -9.29845674     -2.27982476     24.37164303
H      -9.75818431    -12.15916191     17.65669192
H      16.54791768      6.55527056     13.80500571
H       5.87543758      0.69643943     -1.55471086
H       5.54840818     15.73762175     21.04801467
H       8.75221330     16.60707179     11.11860455
H       2.06113651     -2.05732105     -5.22756683
H      -4.12035790      9.28411271      8.42219437
H      -7.60795419     21.24264930      9.77839801
H       2.99112778     -4.15084172     -3.38373681
H      -0.93705699      0.18421906      5.95037700
H       8.08693501    -10.44595393      8.32168665
H       4.39570895     -3.18828885     -3.96037803
H      -7.74116572     21.25126849     10.54689030
