   94

C       7.14918359     -6.80274734     -7.69376504
C       5.71248393     -7.63540005     -7.24320535
H       7.41287041     -5.95968933     -6.81648974
C       3.60862814     -1.24471452      4.90745551
H     -18.89185999     -7.18329685     -1.80818867
H       4.70818232     -7.04364324     -6.82055152
C       4.82817670     -1.79069105      5.94336769
H       5.76841773     -8.46372327     -6.32167889
H      -7.81523282     -6.27941550    -16.91792814
H      -7.80752163     -7.04880949    -16.78996947
C       8.87971374      1.10592351      3.67497465
H      14.01585011      6.01792587     10.72756156
C       7.35592467     -3.12974079      3.85099496
H       6.86971475      6.21976491     -5.52309400
H       7.67001475     -2.62942114      2.83982811
H       2.84359232     -8.54986646     13.57064803
C       5.43830192     -3.43200889      5.93916904
H       4.58309955     -4.30527340      5.70450590
C       5.64097202      8.15741524     -5.80666733
H       5.41423262     -4.05816206      7.02098994
H       6.27979786      9.03485530     -6.33901573
H       4.66083437      8.67798266     -6.31189140
C       6.04504497      6.82235732     -4.84796378
H       8.11685107      1.29189459      0.98898017
C       7.32454909      1.22825630      1.89716267
H      10.44407532      2.81501287      4.33949195
H       5.11143750      6.07579188     -5.16919497
H      -3.00408555     13.84794160     10.96389429
C       8.54689855     -7.63579025     -8.26625699
H       2.76744727     -0.48216694      5.38661297
H     -19.27118577     -7.16726916     -1.12682601
C      -1.64604397     -8.76248572      0.36625630
H       3.95591769     -1.98734362      6.80783174
C       1.81749416     -8.36670803     14.16348096
H      -2.45704623     -9.23338234      1.05525334
H      -9.96862842    -12.03742337     15.59195479
H       1.41344015     -7.24997269     14.32949163
C      -3.95008094      0.02188444     -7.52418447
H       6.03989261      8.94395034     -2.69871392
C       3.88998341      7.67047579     -2.16723503
H      -4.45424832      0.92846258     -8.05155203
H       3.83852885      8.19243305     -1.06354478
H       3.36715266      6.55534504     -2.03939046
H       2.99688185      8.18565560     -2.84767995
H       8.82891809     -7.44633761     -9.46018033
H       8.44790942     -8.82861553     -8.58874065
H      10.36376163     -8.23985835     -6.46010743
H       5.81943638      1.59216934      4.74655771
H       5.27727306      0.46188887      6.90321411
H       1.19634424     -9.29969428     14.58973815
H       6.70114162      1.63368132      0.95465115
H      -9.42675544     -2.95204824     23.99740376
H       4.78383077     13.79203709     17.27394701
H       3.36713233     13.38598886     20.36018827
H       6.15917716     -0.98190448      8.90710534
H      18.06949782      4.47561687     -0.64462133
H      -4.76113507     12.91559780     10.66978309
H      18.75967138      4.62399260     -0.31289178
H       3.74302360     -2.26056132      2.58572534
H       7.08906982     -5.04538527      4.77586180
H       6.89049789     -5.83114846     -8.43021746
H       7.62019873     -1.15828506      8.26815194
C       3.20025488     -1.42430746      3.30144174
C      -9.36398366    -11.98103581     16.58463273
C       6.55426541      0.64325663      5.02986664
C       5.87068947     -0.42301439      6.27216373
C       7.32549340      0.88414087      3.51906554
C       5.07494459     14.28628275     18.35935228
C       6.56940753     -0.82707448      7.76748491
C      -4.20622018     14.01157358     10.75361368
C       4.08796833     13.76590189     19.51578233
C       6.50224465      6.68886624     -3.18199656
C      11.09573245      0.63433100      4.99263367
C      10.21239119      1.65397021      4.26562147
C       9.95373664     -7.55256624     -7.36905072
C       5.48216308      7.85467024     -2.61451787
C       6.90997903     -3.89447542      5.19134815
H       7.54280988      6.72662838     -2.49886655
H       5.09077887     -8.28394482     -8.09834337
H       2.03538346     -1.78280084      3.11861382
H      -9.29845674     -2.27982476     24.37164303
H      -8.76468144    -11.92361332     17.58048606
H      13.84001577      6.77137903     10.62861425
H       7.37403555      1.21798693      5.72183367
H       6.24044508     13.98951994     18.60566743
H       5.01553152     15.50701248     18.24350919
H      -3.44591357     -0.88469371     -6.99681691
H       6.67640904      5.65893026     -2.49686008
H      -4.35808925     14.63018583      9.69987001
H      -0.83504173     -8.29158915     -0.32274080
H       3.38855686     -0.43304935      2.59226297
H       7.96780675     -3.89959441      5.83487253
H      10.88052810     -6.77319867     -7.41306104
H      -4.70157084     14.65256910     11.68090732
   94

C       7.14916931     -6.80271422     -7.69386482
C       5.71256871     -7.63545504     -7.24315395
H       7.41285504     -5.95953366     -6.81670631
C       3.60741626     -1.24648091      4.90567267
H     -18.89187348     -7.18331500     -1.80819971
H       4.70828970     -7.04376427     -6.82035545
C       4.82764517     -1.78944663      5.94265877
H       5.76863800     -8.46379681     -6.32165330
H      -7.81523420     -6.27942117    -16.91793656
H      -7.80752293     -7.04881506    -16.78997727
C       8.88298716      1.10422597      3.68102264
H      14.01596953      6.01788862     10.72756474
C       7.35699206     -3.13326221      3.84816932
H       6.87581315      6.21688750     -5.52811775
H       7.67295353     -2.63569070      2.83616291
H       2.84361271     -8.54991032     13.57064325
C       5.43813077     -3.43053559      5.93663745
H       4.58279764     -4.30292835      5.69934205
C       5.64557128      8.15481670     -5.80994888
H       5.41314603     -4.05585300      7.01882704
H       6.28546260      9.03380098     -6.33836687
H       4.66272449      8.67328277     -6.31109719
C       6.04796230      6.81831972     -4.85446976
H       8.11621048      1.28528805      0.99532283
C       7.32316035      1.22559119      1.90312670
H      10.45056753      2.81522160      4.33795697
H       5.11592957      6.06837702     -5.17300536
H      -2.80197196     13.36385827     10.96256432
C       8.54691011     -7.63571743     -8.26634879
H       2.76400625     -0.48647655      5.38474873
H     -19.27119962     -7.16728779     -1.12683724
C      -1.64609298     -8.76256619      0.36621264
H       3.95720383     -1.98521473      6.80912751
C       1.81751701     -8.36672954     14.16347543
H      -2.45709445     -9.23345980      1.05521270
H      -9.96859377    -12.03745272     15.59193612
H       1.41343277     -7.25000821     14.32950758
C      -3.95008103      0.02184756     -7.52423934
H       6.03460041      8.95000357     -2.68528323
C       3.88840703      7.67440272     -2.16181433
H      -4.45424837      0.92842384     -8.05161025
H       3.83158013      8.19303348     -1.05637443
H       3.36522042      6.55948363     -2.03588979
H       2.99569797      8.18754909     -2.84426454
H       8.82902294     -7.44611507     -9.46022530
H       8.44794246     -8.82849508     -8.58901901
H      10.36332941     -8.23978059     -6.45975963
H       5.81683782      1.59089141      4.74621257
H       5.27260050      0.46275479      6.90298027
H       1.19635705     -9.29970533     14.58973745
H       6.68983325      1.63196639      0.96760601
H      -9.42677490     -2.95210191     23.99745151
H       4.80482112     13.80039163     17.29531116
H       3.38773217     13.39437761     20.38141451
H       6.16406253     -0.97652517      8.90755487
H      18.06952545      4.47560943     -0.64463739
H      -4.59796660     12.44481667     10.66273774
H      18.75969792      4.62398629     -0.31290610
H       3.74231523     -2.26208194      2.58400396
H       7.08878018     -5.04702275      4.77687930
H       6.89035920     -5.83119375     -8.43037555
H       7.62594712     -1.15340810      8.26179924
C       3.19866652     -1.42629949      3.29962901
C      -9.36406895    -11.98104125     16.58468579
C       6.55412054      0.64500006      5.03321970
C       5.86903547     -0.42143380      6.27339389
C       7.32864147      0.88302554      3.52467621
C       5.09572836     14.29470220     18.38074133
C       6.57194134     -0.82375346      7.76688630
C      -3.99880466     13.50417766     10.76325658
C       4.10867652     13.77430023     19.53710044
C       6.49877936      6.69365581     -3.18730888
C      11.10099941      0.63365352      4.99161550
C      10.21689308      1.65433141      4.26705989
C       9.95365329     -7.55264776     -7.36898100
C       5.48046263      7.85812366     -2.61070567
C       6.90974737     -3.89512399      5.18982236
H       7.54486910      6.72978088     -2.51337585
H       5.09081040     -8.28401282     -8.09824384
H       2.03401717     -1.78526546      3.11594911
H      -9.29847754     -2.27988146     24.37169670
H      -8.76464611    -11.92364161     17.58046788
H      13.84014998      6.77134475     10.62861381
H       7.37277257      1.22227501      5.72479241
H       6.26122610     13.99793951     18.62707071
H       5.03631495     15.51542554     18.26483620
H      -3.44591380     -0.88472854     -6.99686804
H       6.67157842      5.66064009     -2.50729190
H      -4.72564500     15.35257289      9.69605097
H      -0.83509172     -8.29167284     -0.32278786
H       3.38549491     -0.43503070      2.59010884
H       7.96717909     -3.90017936      5.83392274
H      10.88069125     -6.77358102     -7.41311564
H      -5.03520035     15.34625395     11.55945989
   94

C       7.14915438     -6.80267880     -7.69396211
C       5.71265283     -7.63550772     -7.24310009
H       7.41283897     -5.95937571     -6.81692036
C       3.60619855     -1.24822643      4.90390253
H     -18.89188434     -7.18332946     -1.80820840
H       4.70839654     -7.04388293     -6.82015681
C       4.82710627     -1.78818268      5.94195493
H       5.76885764     -8.46386806     -6.32162531
H      -7.81523531     -6.27942580    -16.91794342
H      -7.80752397     -7.04881961    -16.78998364
C       8.88623272      1.10255482      3.68709217
H      14.01605464      6.01786781     10.72757035
C       7.35805161     -3.13676663      3.84535135
H       6.88189836      6.21401810     -5.53309528
H       7.67588006     -2.64193864      2.83251743
H       2.84363130     -8.54994425     13.57063747
C       5.43795541     -3.42904115      5.93410850
H       4.58249760     -4.30055923      5.69418028
C       5.65015351      8.15222530     -5.81319471
H       5.41205654     -4.05352301      7.01666542
H       6.29111528      9.03273573     -6.33767311
H       4.66460860      8.66857676     -6.31024958
C       6.05086920      6.81428772     -4.86094199
H       8.11556855      1.27868503      1.00170584
C       7.32174512      1.22296192      1.90909632
H      10.45702870      2.81543430      4.33641125
H       5.12042264      6.06097299     -5.17676368
H      -2.65109763     12.95617382     10.95166474
C       8.54692074     -7.63564255     -8.26643849
H       2.76056733     -0.49077613      5.38290434
H     -19.27121075     -7.16730260     -1.12684608
C      -1.64614176     -8.76264186      0.36617208
H       3.95848350     -1.98306978      6.81041920
C       1.81753803     -8.36674082     14.16346876
H      -2.45714249     -9.23353257      1.05517503
H      -9.96855770    -12.03747695     15.59191644
H       1.41342354     -7.25003339     14.32952179
C      -3.95008082      0.02181739     -7.52428472
H       6.02933348      8.95594067     -2.67180076
C       3.88682836      7.67835041     -2.15634454
H      -4.45424810      0.92839234     -8.05165806
H       3.82462554      8.19363429     -1.04918243
H       3.36328346      6.56364444     -2.03235397
H       2.99452265      8.18947133     -2.84079928
H       8.82912684     -7.44589043     -9.46026814
H       8.44797459     -8.82837252     -8.58929535
H      10.36289626     -8.23970079     -6.45940994
H       5.81423582      1.58962609      4.74588164
H       5.26793049      0.46363037      6.90275592
H       1.19636842     -9.29970640     14.58973571
H       6.67855882      1.63024521      0.98065953
H      -9.42678910     -2.95214155     23.99748781
H       4.82528032     13.80877264     17.31625614
H       3.40796258     13.40276747     20.40228657
H       6.16892936     -0.97110851      8.90799439
H      18.06954615      4.47560443     -0.64464968
H      -4.44884552     12.02643682     10.65249512
H      18.75971779      4.62398214     -0.31291705
H       3.74159687     -2.26358023      2.58229276
H       7.08847952     -5.04863563      4.77790175
H       6.89021983     -5.83123672     -8.43053106
H       7.63165106     -1.14850089      8.25543347
C       3.19706966     -1.42827158      3.29782936
C      -9.36415284    -11.98104155     16.58473783
C       6.55395332      0.64676814      5.03657742
C       5.86737512     -0.41983614      6.27463325
C       7.33175840      0.88194443      3.53029507
C       5.11606080     14.30311362     18.40170559
C       6.57446500     -0.82040815      7.76628812
C      -3.84376547     13.07665522     10.74768796
C       4.12896513     13.78269672     19.55802206
C       6.49528457      6.69847707     -3.19261995
C      11.10624052      0.63298983      4.99058416
C      10.22136680      1.65470599      4.26849517
C       9.95356902     -7.55272735     -7.36890923
C       5.47876226      7.86157215     -2.60686865
C       6.90950855     -3.89575263      5.18829854
H       7.54678891      6.73302695     -2.52787486
H       5.09084125     -8.28407849     -8.09814185
H       2.03264300     -1.78771072      3.11330036
H      -9.29849270     -2.27992334     24.37173734
H      -8.76460935    -11.92366479     17.58044862
H      13.84024510      6.77132592     10.62861678
H       7.37149088      1.22658029      5.72774678
H       6.28155640     14.00634696     18.64804062
H       5.05664794     15.52383303     18.28576305
H      -3.44591371     -0.88475720     -6.99691062
H       6.66668737      5.66241508     -2.51770933
H      -5.02712704     15.95872068      9.71416183
H      -0.83514142     -8.29175163     -0.32283166
H       3.38242276     -0.43699308      2.58796907
H       7.96654336     -3.90074358      5.83297590
H      10.88085342     -6.77396158     -7.41316803
H      -5.31385535     15.94653988     11.45562077
   94

C       7.14913946     -6.80264278     -7.69406011
C       5.71273697     -7.63555990     -7.24304718
H       7.41282289     -5.95921726     -6.81713506
C       3.60500328     -1.24999265      4.90212098
H     -18.89189297     -7.18333967     -1.80821504
H       4.70850342     -7.04400113     -6.81995904
C       4.82658572     -1.78693882      5.94123544
H       5.76907727     -8.46393900     -6.32159844
H      -7.81523631     -6.27942905    -16.91794873
H      -7.80752493     -7.04882280    -16.78998863
C       8.88947671      1.10088662      3.69315875
H      14.01613741      6.01785299     10.72757510
C       7.35912617     -3.14028620      3.84252231
H       6.88796837      6.21116291     -5.53803014
H       7.67881508     -2.64819242      2.82887428
H       2.84365321     -8.54998995     13.57063283
C       5.43779807     -3.42756578      5.93156411
H       4.58222077     -4.29820509      5.68900259
C       5.65471442      8.14964562     -5.81641013
H       5.41098607     -4.05121200      7.01448707
H       6.29675115      9.03166502     -6.33693878
H       4.66648195      8.66387037     -6.30935126
C       6.05376314      6.81026733     -4.86738442
H       8.11494511      1.27207080      1.00810843
C       7.32032334      1.22034785      1.91505011
H      10.46347939      2.81563131      4.33483687
H       5.12491496      6.05358485     -5.18047379
H      -2.49872039     12.55464925     10.94046012
C       8.54693135     -7.63556717     -8.26652888
H       2.75715772     -0.49510963      5.38105723
H     -19.27121957     -7.16731303     -1.12685281
C      -1.64619085     -8.76272085      0.36612890
H       3.95978240     -1.98094752      6.81168628
C       1.81756250     -8.36676389     14.16346349
H      -2.45719078     -9.23360859      1.05513485
H      -9.96852253    -12.03750183     15.59189722
H       1.41341824     -7.25007029     14.32953810
C      -3.95008132      0.02179604     -7.52432187
H       6.02409046      8.96176594     -2.65827173
C       3.88524413      7.68232638     -2.15083237
H      -4.45424852      0.92837088     -8.05169554
H       3.81766169      8.19424409     -1.04197604
H       3.36133828      6.56783522     -2.02878984
H       2.99335237      8.19143109     -2.83728973
H       8.82923071     -7.44566522     -9.46031163
H       8.44800674     -8.82824943     -8.58957243
H      10.36246339     -8.23962073     -6.45906156
H       5.81165943      1.58833026      4.74554475
H       5.26329735      0.46446964      6.90251974
H       1.19638278     -9.29971904     14.58973514
H       6.66733746      1.62849771      0.99379106
H      -9.42680300     -2.95217237     23.99752014
H       4.84530521     13.81721309     17.33687710
H       3.42785454     13.41120423     20.42286970
H       6.17381075     -0.96570416      8.90840295
H      18.06956383      4.47560180     -0.64466143
H      -4.29970476     11.60906521     10.64125464
H      18.75973473      4.62398009     -0.31292751
H       3.74089135     -2.26509095      2.58056736
H       7.08819045     -5.05025725      4.77890934
H       6.89008048     -5.83127899     -8.43068714
H       7.63734429     -1.14360499      8.24903457
C       3.19548758     -1.43025901      3.29601916
C      -9.36423767    -11.98104268     16.58479033
C       6.55379476      0.64851821      5.03991680
C       5.86574226     -0.41826669      6.27585936
C       7.33487159      0.88086472      3.53589808
C       5.13600537     14.31156929     18.42234041
C       6.57701121     -0.81708394      7.76566963
C      -3.68694433     12.64736244     10.73530083
C       4.14888379     13.79114079     19.57862956
C       6.49175827      6.70333412     -3.19793470
C      11.11147811      0.63232288      4.98952534
C      10.22583535      1.65507391      4.26990761
C       9.95348477     -7.55280651     -7.36883827
C       5.47705979      7.86502010     -2.60301181
C       6.90928565     -3.89639511      5.18675759
H       7.54856701      6.73637137     -2.54236470
H       5.09087212     -8.28414355     -8.09804087
H       2.03128394     -1.79017110      3.11064374
H      -9.29850738     -2.27995560     24.37177254
H      -8.76457357    -11.92368892     17.58042985
H      13.84033583      6.77131270     10.62861955
H       7.37022140      1.23085951      5.73067451
H       6.30150043     14.01480828     18.66868421
H       5.07657424     15.53228409     18.30636248
H      -3.44591439     -0.88477829     -6.99694709
H       6.66173314      5.66425932     -2.52811671
H      -5.32438659     16.55149461      9.73281103
H      -0.83519154     -8.29183370     -0.32287819
H       3.37936411     -0.43897109      2.58582107
H       7.96592253     -3.90132153      5.83201304
H      10.88101555     -6.77434184     -7.41322110
H      -5.59785381     16.55473711     11.35118687
   94

C       7.14912506     -6.80260726     -7.69416070
C       5.71282173     -7.63561287     -7.24299714
H       7.41280739     -5.95905946     -6.81735228
C       3.60385077     -1.25180898      4.90031123
H     -18.89189981     -7.18334536     -1.80821982
H       4.70861089     -7.04412023     -6.81976413
C       4.82610114     -1.78574042      5.94048795
H       5.76929750     -8.46401103     -6.32157474
H      -7.81523730     -6.27943078    -16.91795261
H      -7.80752590     -7.04882452    -16.78999242
C       8.89273657      1.09920907      3.69920860
H      14.01623085      6.01784183     10.72757810
C       7.36022995     -3.14383910      3.83967212
H       6.89402430      6.20832487     -5.54292491
H       7.68177115     -2.65446713      2.82522412
H       2.84368176     -8.55006046     13.57063108
C       5.43767305     -3.42613504      5.92899477
H       4.58198070     -4.29589056      5.68379959
C       5.65925304      8.14707920     -5.81959965
H       5.40994860     -4.04894493      7.01228277
H       6.30236888      9.03059108     -6.33616755
H       4.66834328      8.65916564     -6.30840521
C       6.05664459      6.80626141     -4.87380029
H       8.11435324      1.26543610      1.01451889
C       7.31890788      1.21773738      1.92097559
H      10.46993312      2.81580298      4.33322489
H       5.12940780      6.04621454     -5.18413909
H      -2.33298580     12.12961466     10.93260626
C       8.54694264     -7.63549227     -8.26662150
H       2.75379578     -0.49950983      5.37919153
H     -19.27122649     -7.16731881     -1.12685764
C      -1.64624043     -8.76280881      0.36607944
H       3.96111804     -1.97887355      6.81291626
C       1.81759387     -8.36681231     14.16346161
H      -2.45723946     -9.23369341      1.05508864
H      -9.96848968    -12.03753091     15.59187942
H       1.41342049     -7.25013264     14.32955956
C      -3.95008320      0.02178380     -7.52435262
H       6.01887257      8.96748096     -2.64470062
C       3.88365482      7.68633319     -2.14528369
H      -4.45425027      0.92836018     -8.05172382
H       3.81068946      8.19486599     -1.03476144
H       3.35938561      6.57205845     -2.02520390
H       2.99218700      8.19343203     -2.83374031
H       8.82933524     -7.44544035     -9.46035730
H       8.44803963     -8.82812677     -8.58985182
H      10.36203156     -8.23954152     -6.45871613
H       5.80912855      1.58697604      4.74518906
H       5.25872517      0.46524141      6.90225825
H       1.19640267     -9.29975625     14.58973757
H       6.65618213      1.62671132      1.00698768
H      -9.42681931     -2.95219741     23.99755263
H       4.86492546     13.82570958     17.35719241
H       3.44743386     13.41968836     20.44318314
H       6.17872978     -0.96034395      8.90876897
H      18.06958044      4.47560164     -0.64467399
H      -4.14291538     11.17193995     10.63208527
H      18.75975058      4.62398025     -0.31293864
H       3.74021394     -2.26663743      2.57881150
H       7.08792721     -5.05190671      4.77989168
H       6.88994166     -5.83132162     -8.43084560
H       7.64305027     -1.13874509      8.24259189
C       3.19393535     -1.43228565      3.29418227
C      -9.36432489    -11.98104828     16.58484430
C       6.55366648      0.65022346      5.04322439
C       5.86416125     -0.41675561      6.27705816
C       7.33799956      0.87976716      3.54147090
C       5.15558788     14.32006814     18.44266404
C       6.57960243     -0.81380986      7.76501920
C      -3.51598415     12.19328669     10.72796385
C       4.16845875     13.79963203     19.59894205
C       6.48820187      6.70822814     -3.20325751
C      11.11672616      0.63164411      4.98843230
C      10.23031342      1.65542530      4.27128754
C       9.95340126     -7.55288625     -7.36876969
C       5.47535625      7.86846884     -2.59913989
C       6.90909351     -3.89707076      5.18518926
H       7.55020456      6.73981634     -2.55684582
H       5.09090359     -8.28420925     -8.09794287
H       2.02995516     -1.79267084      3.10796283
H      -9.29852435     -2.27998129     24.37180643
H      -8.76454022    -11.92371768     17.58041257
H      13.84043575      6.77130287     10.62862116
H       7.36898496      1.23508650      5.73356277
H       6.32108419     14.02332227     18.68901898
H       5.09611653     15.54077695     18.32664757
H      -3.44591649     -0.88479191     -6.99697994
H       6.65671675      5.66617403     -2.53851771
H      -5.64007293     17.18189463      9.74684114
H      -0.83524229     -8.29192473     -0.32293119
H       3.37633452     -0.44098830      2.58364917
H       7.96533113     -3.90193262      5.83102439
H      10.88117837     -6.77472284     -7.41327640
H      -5.89713247     17.19406426     11.24309329
   94

C       7.14911106     -6.80257195     -7.69426338
C       5.71290696     -7.63566627     -7.24294944
H       7.41279232     -5.95890198     -6.81757152
C       3.60273842     -1.25367049      4.89847522
H     -18.89190480     -7.18334678     -1.80822278
H       4.70871882     -7.04423987     -6.81957154
C       4.82565020     -1.78458293      5.93971396
H       5.76951818     -8.46408377     -6.32155364
H      -7.81523827     -6.27943109    -16.91795511
H      -7.80752687     -7.04882485    -16.78999501
C       8.89600826      1.09752692      3.70524477
H      14.01632739      6.01783638     10.72757977
C       7.36136060     -3.14742065      3.83680265
H       6.90006636      6.20550363     -5.54777533
H       7.68474577     -2.66075798      2.82156871
H       2.84371627     -8.55015309     13.57063209
C       5.43757816     -3.42474435      5.92640184
H       4.58177542     -4.29361119      5.67857240
C       5.66376892      8.14452422     -5.82276266
H       5.40894201     -4.04671737      7.01005377
H       6.30796830      9.02951108     -6.33536016
H       4.67019244      8.65446000     -6.30741160
C       6.05951308      6.80226993     -4.88018635
H       8.11379027      1.25878288      1.02094063
C       7.31749530      1.21513495      1.92687540
H      10.47638522      2.81595392      4.33157933
H       5.13390138      6.03886145     -5.18775656
H      -2.16127717     11.69422301     10.92666667
C       8.54695444     -7.63541756     -8.26671592
H       2.75047888     -0.50397189      5.37730912
H     -19.27123149     -7.16732018     -1.12686059
C      -1.64629049     -8.76290437      0.36602453
H       3.96248806     -1.97684374      6.81411061
C       1.81763142     -8.36688335     14.16346296
H      -2.45728855     -9.23378571      1.05503718
H      -9.96845876    -12.03756306     15.59186278
H       1.41342951     -7.25021769     14.32958598
C      -3.95008617      0.02178015     -7.52437648
H       6.01367879      8.97308331     -2.63108592
C       3.88206006      7.69036765     -2.13969292
H      -4.45425308      0.92835948     -8.05174281
H       3.80370886      8.19549685     -1.02753309
H       3.35742493      6.57631118     -2.02158995
H       2.99102638      8.19547063     -2.83014602
H       8.82944025     -7.44521554     -9.46040472
H       8.44807306     -8.82800426     -8.59013308
H      10.36160057     -8.23946285     -6.45837318
H       5.80663903      1.58557013      4.74481796
H       5.25421040      0.46595049      6.90197389
H       1.19642745     -9.29981535     14.58974286
H       6.64509071      1.62488801      1.02025016
H      -9.42683667     -2.95221543     23.99758322
H       4.88418608     13.83420261     17.37722209
H       3.46674641     13.42816795     20.46324596
H       6.18368358     -0.95502310      8.90909431
H      18.06959524      4.47560388     -0.64468680
H      -3.98338287     10.72724504     10.62392917
H      18.75976464      4.62398256     -0.31294994
H       3.73956216     -2.26821448      2.57702707
H       7.08768777     -5.05357969      4.78085016
H       6.88980325     -5.83136431     -8.43100594
H       7.64876603     -1.13391633      8.23610721
C       3.19241038     -1.43434642      3.29232064
C      -9.36441411    -11.98105719     16.58489948
C       6.55356437      0.65189026      5.04650299
C       5.86262886     -0.41529773      6.27823177
C       7.34113802      0.87865784      3.54701634
C       5.17485802     14.32855155     18.46269505
C       6.58223572     -0.81058096      7.76433862
C      -3.33823702     11.72821875     10.72283474
C       4.18773996     13.80811473     19.61898026
C       6.48461474      6.71315709     -3.20858597
C      11.12198065      0.63095751      4.98730729
C      10.23479697      1.65576468      4.27263804
C       9.95331831     -7.55296629     -7.36870304
C       5.47365040      7.87191589     -2.59525021
C       6.90892998     -3.89777533      5.18359514
H       7.55170038      6.74336117     -2.57131123
H       5.09093550     -8.28427525     -8.09784730
H       2.02865410     -1.79520488      3.10525956
H      -9.29854217     -2.27999916     24.37183691
H      -8.76450889    -11.92374986     17.58039651
H      13.84053632      6.77129826     10.62862208
H       7.36777745      1.23926750      5.73641459
H       6.34035653     14.03182420     18.70906055
H       5.11534091     15.54925495     18.34664794
H      -3.44591971     -0.88479839     -6.99700836
H       6.65163641      5.66815796     -2.54890792
H      -5.96440311     17.83052666      9.75894089
H      -0.83529367     -8.29202334     -0.32298979
H       3.37333125     -0.44303939      2.58145565
H       7.96476698     -3.90257254      5.83001151
H      10.88134169     -6.77510426     -7.41333348
H      -6.20201853     17.84498730     11.13373921
   94

C       7.14909730     -6.80253649     -7.69436765
C       5.71299250     -7.63571974     -7.24290359
H       7.41277752     -5.95874446     -6.81779228
C       3.60166424     -1.25557302      4.89661435
H     -18.89190783     -7.18334413     -1.80822385
H       4.70882704     -7.04435966     -6.81938074
C       4.82523147     -1.78346301      5.93891395
H       5.76973914     -8.46415684     -6.32153463
H      -7.81523918     -6.27943006    -16.91795621
H      -7.80752781     -7.04882387    -16.78999639
C       8.89928786      1.09584474      3.71126985
H      14.01641915      6.01783832     10.72758035
C       7.36251676     -3.15102722      3.83391470
H       6.90609362      6.20269895     -5.55257529
H       7.68773725     -2.66706080      2.81790885
H       2.84375621     -8.55026620     13.57063584
C       5.43751221     -3.42339045      5.92378550
H       4.58160396     -4.29136388      5.67332091
C       5.66826077      8.14197901     -5.82589660
H       5.40796523     -4.04452653      7.00780003
H       6.31354847      9.02842199     -6.33451591
H       4.67202844      8.64975085     -6.30636887
C       6.06236703      6.79829297     -4.88653742
H       8.11325305      1.25211354      1.02737681
C       7.31608202      1.21254503      1.93275205
H      10.48283061      2.81608869      4.32990418
H       5.13839467      6.03152517     -5.19132133
H      -1.98845575     11.25768538     10.92161014
C       8.54696654     -7.63534275     -8.26681172
H       2.74720517     -0.50849166      5.37541152
H     -19.27123443     -7.16731737     -1.12686162
C      -1.64634114     -8.76300616      0.36596490
H       3.96389110     -1.97485526      6.81526983
C       1.81767464     -8.36697528     14.16346749
H      -2.45733812     -9.23388413      1.05498119
H      -9.96842940    -12.03759718     15.59184702
H       1.41344485     -7.25032370     14.32961728
C      -3.95008984      0.02178481     -7.52439230
H       6.00850641      8.97857018     -2.61742388
C       3.88045825      7.69442606     -2.13405071
H      -4.45425657      0.92836825     -8.05175178
H       3.79671857      8.19613260     -1.02028145
H       3.35545439      6.58059001     -2.01793803
H       2.98986912      8.19754277     -2.82649815
H       8.82954555     -7.44499050     -9.46045348
H       8.44810684     -8.82788160     -8.59041581
H      10.36117021     -8.23938439     -6.45803230
H       5.80418650      1.58411889      4.74443512
H       5.24975009      0.46660036      6.90166891
H       1.19645666     -9.29989467     14.58975089
H       6.63406067      1.62303030      1.03357954
H      -9.42685355     -2.95222507     23.99760954
H       4.90314624     13.84262951     17.39699748
H       3.48584164     13.43659159     20.48308396
H       6.18867068     -0.94973886      8.90937971
H      18.06960740      4.47560850     -0.64469926
H      -3.82371068     10.28264466     10.61611532
H      18.75977613      4.62398696     -0.31296092
H       3.73893412     -2.26981720      2.57521519
H       7.08747129     -5.05527317      4.78178475
H       6.88966508     -5.83140673     -8.43116768
H       7.65448999     -1.12911537      8.22958093
C       3.19091073     -1.43643675      3.29043568
C      -9.36450495    -11.98106827     16.58495558
C       6.55348429      0.65352455      5.04975507
C       5.86114253     -0.41388898      6.27938166
C       7.34428275      0.87754252      3.55253702
C       5.19387357     14.33696202     18.48246297
C       6.58490934     -0.80739389      7.76362858
C      -3.15862560     11.26124221     10.71866364
C       4.20678334     13.81653403     19.63877379
C       6.48099475      6.71811894     -3.21391565
C      11.12723781      0.63026705      4.98615198
C      10.23928197      1.65609647      4.27396178
C       9.95323572     -7.55304632     -7.36863791
C       5.47193930      7.87535832     -2.59133757
C       6.90879394     -3.89850596      5.18197558
H       7.55305213      6.74700514     -2.58575229
H       5.09096769     -8.28434118     -8.09775366
H       2.02737878     -1.79776857      3.10253535
H      -9.29855915     -2.28000782     24.37186153
H      -8.76447922    -11.92378434     17.58038138
H      13.84062858      6.77130032     10.62862259
H       7.36659475      1.24340822      5.73923272
H       6.35937470     14.04025381     18.72883802
H       5.13431823     15.55766205     18.36640055
H      -3.44592367     -0.88479783     -6.99703089
H       6.64648912      5.67020982     -2.55928106
H      -6.29032722     18.48245180      9.77067701
H      -0.83534577     -8.29212813     -0.32305326
H       3.37035189     -0.44511922      2.57924264
H       7.96422901     -3.90323839      5.82897469
H      10.88150532     -6.77548582     -7.41339194
H      -6.50740447     18.49671158     11.02418665
   94

C       7.14908369     -6.80250069     -7.69447329
C       5.71307823     -7.63577305     -7.24285937
H       7.41276289     -5.95858672     -6.81801435
C       3.60062970     -1.25751733      4.89472732
H     -18.89190872     -7.18333759     -1.80822298
H       4.70893546     -7.04447938     -6.81919152
C       4.82484674     -1.78238187      5.93808609
H       5.76996029     -8.46423002     -6.32151752
H      -7.81523999     -6.27942775    -16.91795589
H      -7.80752868     -7.04882162    -16.78999653
C       8.90257382      1.09416539      3.71728437
H      14.01649954      6.01784872     10.72758000
C       7.36369956     -3.15465814      3.83100704
H       6.91210475      6.19991068     -5.55731834
H       7.69074604     -2.67337364      2.81424356
H       2.84380172     -8.55040074     13.57064265
C       5.43747666     -3.42207468      5.92114390
H       4.58146794     -4.28914998      5.66804288
C       5.67272683      8.13944210     -5.82899814
H       5.40701986     -4.04237419      7.00551945
H       6.31910800      9.02732098     -6.33363340
H       4.67384981      8.64503587     -6.30527461
C       6.06520451      6.79433060     -4.89284790
H       8.11273977      1.24542969      1.03382887
C       7.31466598      1.20997061      1.93860650
H      10.48926577      2.81621072      4.32820240
H       5.14288628      6.02420535     -5.19482814
H      -1.81584413     10.82261068     10.91709752
C       8.54697884     -7.63526764     -8.26690874
H       2.74397593     -0.51307048      5.37349786
H     -19.27123514     -7.16731055     -1.12686067
C      -1.64639252     -8.76311358      0.36590075
H       3.96532906     -1.97291004      6.81639212
C       1.81772368     -8.36708902     14.16347557
H      -2.45738833     -9.23398811      1.05492085
H      -9.96840140    -12.03763260     15.59183200
H       1.41346675     -7.25045158     14.32965403
C      -3.95009382      0.02179761     -7.52439879
H       6.00335210      8.98393850     -2.60370998
C       3.87884746      7.69850412     -2.12834673
H      -4.45426035      0.92838611     -8.05174976
H       3.78971709      8.19676824     -1.01299583
H       3.35347194      6.58489080     -2.01423746
H       2.98871331      8.19964385     -2.82278671
H       8.82965101     -7.44476504     -9.46050340
H       8.44814085     -8.82775860     -8.59069982
H      10.36074039     -8.23930599     -6.45769333
H       5.80176923      1.58262451      4.74404265
H       5.24534531      0.46718891      6.90134362
H       1.19649036     -9.29999510     14.58976193
H       6.62309069      1.62113965      1.04697566
H      -9.42686855     -2.95222520     23.99762948
H       4.92187369     13.85093836     17.41655834
H       3.50476955     13.44491845     20.50272868
H       6.19369415     -0.94449456      8.90962373
H      18.06961628      4.47561545     -0.64471094
H      -3.66448883      9.83992606     10.60844241
H      18.75978445      4.62399339     -0.31297120
H       3.73833030     -2.27144415      2.57337412
H       7.08727966     -5.05698745      4.78269313
H       6.88952707     -5.83144866     -8.43133059
H       7.66022499     -1.12434328      8.22301108
C       3.18943681     -1.43855577      3.28852623
C      -9.36459723    -11.98108085     16.58501245
C       6.55342521      0.65512834      5.05298121
C       5.85970374     -0.41253045      6.28050697
C       7.34743205      0.87642425      3.55803359
C       5.21269499     14.34525508     18.50200617
C       6.58762572     -0.80425053      7.76288755
C      -2.97841702     10.79444043     10.71511823
C       4.22564596     13.82484691     19.65835914
C       6.47733938      6.72311158     -3.21924170
C      11.13249591      0.62957566      4.98496690
C      10.24376635      1.65642382      4.27526005
C       9.95315338     -7.55312617     -7.36857415
C       5.47021960      7.87879288     -2.58739614
C       6.90868704     -3.89926317      5.18032876
H       7.55425739      6.75074731     -2.60016030
H       5.09100006     -8.28440682     -8.09766173
H       2.02612960     -1.80036095      3.09978907
H      -9.29857378     -2.28000613     24.37187807
H      -8.76445102    -11.92382044     17.58036704
H      13.84070482      6.77130985     10.62862284
H       7.36543567      1.24751057      5.74201812
H       6.37819893     14.04856666     18.74839120
H       5.15311563     15.56595429     18.38594571
H      -3.44592796     -0.88479021     -6.99704596
H       6.64127192      5.67232804     -2.56963077
H      -6.61604229     19.13374739      9.78239793
H      -0.83539873     -8.29223849     -0.32312137
H       3.36739627     -0.44722605      2.57701002
H       7.96371888     -3.90393072      5.82791209
H      10.88166914     -6.77586733     -7.41345161
H      -6.81224342     19.14696468     10.91465020
   94

C       7.14907017     -6.80246438     -7.69458017
C       5.71316409     -7.63582604     -7.24281665
H       7.41274837     -5.95842861     -6.81823758
C       3.59963800     -1.25950659      4.89281149
H     -18.89190726     -7.18332730     -1.80822010
H       4.70904402     -7.04459887     -6.81900371
C       4.82449954     -1.78134292      5.93722724
H       5.77018155     -8.46430318     -6.32150218
H      -7.81524068     -6.27942418    -16.91795411
H      -7.80752944     -7.04881817    -16.78999538
C       8.90586528      1.09249139      3.72328826
H      14.01656177      6.01786832     10.72757891
C       7.36491143     -3.15831393      3.82807729
H       6.91809841      6.19713849     -5.56199787
H       7.69377358     -2.67969519      2.81057083
H       2.84385326     -8.55055904     13.57065311
C       5.43747440     -3.42080064      5.91847401
H       4.58137039     -4.28697300      5.66273477
C       5.67716530      8.13691185     -5.83206352
H       5.40610900     -4.04026453      7.00320867
H       6.32464544      9.02620509     -6.33271082
H       4.67565502      8.64031261     -6.30412590
C       6.06802352      6.79038259     -4.89911197
H       8.11224867      1.23873300      1.04029778
C       7.31324543      1.20741440      1.94443932
H      10.49568740      2.81632329      4.32647692
H       5.14737480      6.01690141     -5.19827165
H      -1.64375214     10.38955043     10.91295452
C       8.54699124     -7.63519210     -8.26700685
H       2.74079406     -0.51771250      5.37156621
H     -19.27123342     -7.16729988     -1.12685764
C      -1.64644481     -8.76322632      0.36583207
H       3.96680566     -1.97101257      6.81747437
C       1.81777902     -8.36722692     14.16348781
H      -2.45743935     -9.23409734      1.05485614
H      -9.96837462    -12.03766876     15.59181757
H       1.41349583     -7.25060370     14.32969721
C      -3.95009767      0.02181841     -7.52439442
H       5.99821231      8.98918457     -2.58993933
C       3.87722581      7.70259626     -2.12257012
H      -4.45426399      0.92841271     -8.05173562
H       3.78270322      8.19739714     -1.00566484
H       3.35147576      6.58920809     -2.01047714
H       2.98755700      8.20176808     -2.81900095
H       8.82975655     -7.44453903     -9.46055437
H       8.44817500     -8.82763512     -8.59098504
H      10.36031105     -8.23922755     -6.45735621
H       5.79938615      1.58108777      4.74364246
H       5.24099904      0.46771111      6.90099768
H       1.19652880     -9.30011891     14.58977648
H       6.61217950      1.61921754      1.06043828
H      -9.42688017     -2.95221480     23.99764080
H       4.94044246     13.85909242     17.43595207
H       3.52358154     13.45312008     20.52221787
H       6.19875973     -0.93929693      8.90982376
H      18.06962129      4.47562469     -0.64472143
H      -3.50581029      9.39925806     10.60081759
H      18.75978904      4.62400178     -0.31298042
H       3.73775221     -2.27309507      2.57150068
H       7.08711628     -5.05872434      4.78357156
H       6.88938914     -5.83148995     -8.43149452
H       7.66597647     -1.11960324      8.21639427
C       3.18799002     -1.44070405      3.28658988
C      -9.36469082    -11.98109439     16.58506998
C       6.55338712      0.65670238      5.05618138
C       5.85831601     -0.41122574      6.28160570
C       7.35058499      0.87530543      3.56350617
C       5.23138497     14.35340182     18.52137154
C       6.59038960     -0.80115547      7.76211276
C      -2.79778329     10.32784072     10.71208684
C       4.24438623     13.83302436     19.67777961
C       6.47364611      6.72813237     -3.22455906
C      11.13775386      0.62888611      4.98375216
C      10.24824852      1.65674969      4.27653386
C       9.95307123     -7.55320571     -7.36851166
C       5.46848789      7.88221557     -2.58341971
C       6.90861244     -3.90004907      5.17865160
H       7.55531389      6.75458622     -2.61452656
H       5.09103252     -8.28447200     -8.09757140
H       2.02490791     -1.80298254      3.09701840
H      -9.29858438     -2.27999303     24.37188420
H      -8.76442418    -11.92385763     17.58035337
H      13.84075700      6.77132729     10.62862304
H       7.36429987      1.25157530      5.74477130
H       6.39689180     14.05673521     18.76776925
H       5.17179764     15.57410266     18.40532857
H      -3.44593216     -0.88477555     -6.99705183
H       6.63598206      5.67451047     -2.57995068
H      -6.94133303     19.78389726      9.79414210
H      -0.83545276     -8.29235409     -0.32319415
H       3.36446498     -0.44935931      2.57475687
H       7.96323972     -3.90465167      5.82682060
H      10.88183310     -6.77624868     -7.41351240
H      -7.11655744     19.79577614     10.80514127
   94

C       7.14900838     -6.80233250     -7.69456992
C       5.71323031     -7.63580054     -7.24260212
H       7.41268825     -5.95811604     -6.81840027
C       3.59620078     -1.26106883      4.89048416
H     -18.89185999     -7.18329685     -1.80818867
H       4.70915372     -7.04465796     -6.81857088
C       4.82250781     -1.77756068      5.93649444
H       5.77043191     -8.46430680     -6.32132831
H      -7.81523282     -6.27941550    -16.91792814
H      -7.80752163     -7.04880949    -16.78996947
C       8.91100740      1.09028669      3.73524520
H      14.01585013      6.01792589     10.72756160
C       7.36626725     -3.16402177      3.82324959
H       6.92992955      6.19188966     -5.57061982
H       7.69850733     -2.69086898      2.80414748
H       2.84368009     -8.55003590     13.57060725
C       5.43625978     -3.41656902      5.91398286
H       4.57998003     -4.28091274      5.65292936
C       5.68526741      8.13187329     -5.83745505
H       5.40311825     -4.03448336      6.99937047
H       6.33478826      9.02360909     -6.33092595
H       4.67837822      8.63062555     -6.30097923
C       6.07353952      6.78267596     -4.91083008
H       8.11167875      1.22676326      1.05355259
C       7.30985909      1.20291194      1.95555694
H      10.50561905      2.81826827      4.32494643
H       5.15631578      6.00238372     -5.20422974
H      -1.45165947      9.94286106     10.89471213
C       8.54694210     -7.63502599     -8.26700827
H       2.73365357     -0.52381052      5.36921361
H     -19.27118577     -7.16726916     -1.12682601
C      -1.64644565     -8.76288164      0.36603114
H       3.96838806     -1.96549183      6.82053345
C       1.81759845     -8.36663918     14.16341506
H      -2.45744790     -9.23377825      1.05502820
H      -9.96826813    -12.03749361     15.59173715
H       1.41323803     -7.25004102     14.32961514
C      -3.95008094      0.02188444     -7.52418447
H       5.98809275      8.99913196     -2.56242107
C       3.87410667      7.71034480     -2.11060939
H      -4.45424832      0.92846258     -8.05155203
H       3.76860922      8.19860853     -0.99088904
H       3.34773885      6.59738079     -2.00215632
H       2.98531141      8.20512932     -2.81125155
H       8.82982382     -7.44416883     -9.46049463
H       8.44816449     -8.82740064     -8.59125579
H      10.35962163     -8.23898627     -6.45672153
H       5.79392364      1.57970520      4.74346960
H       5.23132714      0.47086221      6.90084793
H       1.19635430     -9.29952535     14.58972132
H       6.59043078      1.61485265      1.08625715
H      -9.42675544     -2.95204824     23.99740376
H       4.95970837     13.86713807     17.45613312
H       3.54303172     13.46105583     20.54239489
H       6.20582223     -0.92729015      8.91113749
H      18.06949782      4.47561687     -0.64462133
H      -3.34019922      8.94081008     10.57859048
H      18.75967138      4.62399260     -0.31289178
H       3.73494210     -2.27413975      2.56927421
H       7.08557909     -5.06063471      4.78595661
H       6.88915465     -5.83146118     -8.43155745
H       7.67477587     -1.10916974      8.20505843
C       3.18389672     -1.44238445      3.28417131
C      -9.36470736    -11.98089562     16.58506287
C       6.55207838      0.66097504      5.06267702
C       5.85434457     -0.40688295      6.28465846
C       7.35528753      0.87472674      3.57426193
C       5.25081878     14.36136895     18.54154604
C       6.59386511     -0.79312983      7.76185150
C      -2.58606776      9.81191140     10.69947924
C       4.26384225     13.84098832     19.69797596
C       6.46642642      6.73790817     -3.23454803
C      11.14602976      0.62922447      4.98238249
C      10.25567447      1.65891551      4.27888590
C       9.95289734     -7.55322895     -7.36830542
C       5.46532324      7.88873061     -2.57462599
C       6.90725692     -3.90015430      5.17618824
H       7.55696021      6.76191770     -2.64194925
H       5.09102278     -8.28445106     -8.09729856
H       2.02104446     -1.80495693      3.09309498
H      -9.29845674     -2.27982476     24.37164303
H      -8.76431804    -11.92368327     17.58027356
H      13.84001578      6.77137904     10.62861427
H       7.36129552      1.26007974      5.75040333
H       6.41630702     14.06458925     18.78789881
H       5.19141976     15.58209677     18.42567562
H      -3.44591357     -0.88469371     -6.99681691
H       6.62502256      5.67853632     -2.60004518
H      -7.28761883     20.45158599      9.86680660
H      -0.83544342     -8.29198511     -0.32296600
H       3.35781215     -0.45116436      2.57160824
H       7.96107776     -3.90477473      5.82552882
H      10.88202777     -6.77672641     -7.41353538
H      -7.42083090     20.46020521     10.63530201
