   94
energy=      0.00000000
C      -5.02175181     -0.59623637     -1.23284595
C      -3.32004137     -0.56497103     -0.99340769
H      -5.31689877      0.08920366     -2.22806462
C      -6.12856409     -0.32754629      0.06526583
H      -5.33434054     -1.60034903     -1.89601123
H      -2.96167468      0.57184412     -0.68366112
C      -1.96999963     -0.71528216     -1.88177547
H      -2.95468811     -1.48865474     -0.25820780
H      -6.00096578     -3.73385313    -11.08085209
H      -5.99325459     -4.50324712    -10.95289342
C      -0.61924194     -0.85711108     -2.76541775
H      -1.07165724     -0.20011028     -3.71107449
C       1.01240226     -0.51597125     -2.34909458
H      -0.84189148     -2.02681001     -3.10045596
H       1.43209471      0.26911470     -3.22458367
H       1.67482649     -1.41787239     -2.90652574
C       1.67182454     -0.10506278     -0.78607135
H       2.62347348      0.67694713     -1.03489791
C       1.00819226      0.45634802      0.74937884
H       2.41350546     -1.08688973     -0.56823592
H       0.57509519      1.53701111      0.30377722
H       2.02192105      0.06091138      1.34916241
C       0.07444524      0.46933523      2.25518339
H       0.93237267      1.15409363      2.83886687
C       3.24456091      3.50273197    -10.56259727
H      -0.14760771     -0.75698099      2.24976034
H       2.59855411      4.31085947    -11.02197602
H      10.34077794     -4.52847388     -8.93286079
C      11.42934145     -4.22288313     -8.44525011
H      -5.93045127      0.77707902      0.58710827
H      -5.94664649     -1.14393699      0.98345073
C      -7.79655113     -0.26979287      0.08541807
H      -8.57010037      0.65220100     -0.05487797
C      -1.19234712      0.95073004      3.40349874
H      -8.62620057     -1.12589174      0.29613188
H      -1.05636232      2.17289026      3.62075489
H      -0.83474260      0.54207355      4.53171539
C      -2.93067329      0.78881070      3.53089622
H      -3.30223700      1.58487535      2.65269697
C      -4.22361425      0.97743219      4.67894138
H      -3.12320091     -0.40027239      3.22636118
H      -4.29976597      1.98536505      5.39645429
H      -4.43003361      0.13726399      5.56929015
H      -5.42921309      1.02631249      4.37321697
H      11.37860159     -3.07618395     -7.99957462
H      12.29817893     -4.28262618     -9.31569392
H      11.69980859     -5.00424792     -7.53287035
H       8.30291649     -1.08951313      9.42553352
H       5.25333651     -0.89517914     11.13129331
H       8.59622758     -1.42927589      6.45327569
H      11.29571754     -1.28146860      7.70809075
H       5.54127447     -1.17000529      8.19987618
H      12.53114051     -0.22328247      2.58030119
H      -0.50624532      6.51487553     14.95614780
H      15.24138583      0.01331889      3.77865364
H      15.47978836     -0.53683656      0.82536305
H      -0.27198007      5.22274772     12.27535725
H      18.12755954     -0.30340450      2.05947197
H      18.10956351     -0.76984431     -0.92621965
H      -8.75996309     -0.37642203     18.60285500
H      20.89752136     -0.66617513      0.18338923
H      -9.49191010     -0.97935256     15.32328948
C       7.88365320     -0.25819891      8.59652807
C       8.84955671     -0.45712553      7.18460911
C       6.16789139     -0.24756403      8.74787314
C       5.58852116     -0.07214344     10.30782089
C      10.50370690     -0.40649510      7.43229967
C      13.31631410      0.69985128      2.60066598
C      14.97874339      0.72228312      2.79159877
C      -0.24391448      6.40767537     12.51393444
C      -0.37867869      7.22111011     13.95343683
C      15.93079024      0.49229749      1.36652242
C      17.66057733      0.46065837      1.19089762
C      18.53217152      0.22359743     -0.29820446
C      20.25135817      0.19992911     -0.42657454
C      -9.41529573     -0.42239784     16.35328839
C      -9.31701444      0.33165647     17.76891480
H      20.82933297      0.02878445     -1.51038389
H     -10.43423099      0.61743450     18.18997048
H       8.28878891      0.78259852      9.15003369
H       5.46125002      0.91235688     11.00385213
H       8.57992629      0.25958933      6.20590078
H      11.27162358      0.52977464      7.48533085
H       5.53177598      0.52268392      8.00843066
H      12.52832519      1.58900383      2.36089305
H       0.57428231      7.92340087     14.30037036
H      15.24687637      1.69874256      3.51301100
H      15.48076990      1.30213178      0.53159977
H      -0.10306911      6.82890368     11.38942717
H      18.13100076      1.45322329      1.78220313
H      18.11279086      0.97681582     -1.20188767
H      -8.67658532      1.37553381     17.68357912
H      20.90134672      1.20865409     -0.11085911
H      -1.33791696      7.99661502     13.98020717
   94
energy=      0.00000000
C      -5.40434226     -0.56803251     -1.02614829
C      -3.90383872     -0.62111195     -0.23713775
H      -5.43948530      0.06645429     -2.10046317
C      -6.55839892     -0.26746082      0.20737653
H      -5.56901128     -1.48335277     -1.85997562
H      -3.66917582      0.61200981     -0.14056080
C      -2.36961273     -1.04199715      0.20162738
H      -4.02190318     -1.82818331      0.01914460
H      -6.00107002     -3.73394695    -11.08085471
H      -5.99335883     -4.50334095    -10.95289605
C      -1.21686524     -1.01321115     -1.01079572
H      -1.71668528     -0.14493161     -1.72348332
C       0.35482993     -0.61563940     -1.53793150
H      -1.35626882     -2.22159125     -1.23760645
H       0.36507250      0.10489963     -2.55776631
H       0.70230119     -1.47084969     -2.37462977
C       1.55968358     -0.11306782     -0.42171857
H       2.47771320      0.50984449     -1.01418846
C       1.14053659      0.66931253      1.08180360
H       2.36718565     -1.06994457     -0.37544077
H       0.76568816      1.78526358      0.65999334
H       2.29438488      0.53430436      1.51780594
C       0.27190368      0.57323329      2.60984137
H       1.19851572      1.03301177      3.28637501
C       3.24234319      3.50504662    -10.56323360
H       0.18687208     -0.66746167      2.69257110
H       2.59633639      4.31317411    -11.02261235
H      10.33279905     -4.53428062     -8.94662119
C      11.42198583     -4.23072006     -8.45913364
H      -6.39297313      0.84659670      0.73434967
H      -6.48985095     -1.05495918      1.17134857
C      -8.19606081     -0.26492357      0.01295288
H      -8.90489665      0.68178711     -0.23037702
C      -1.03468994      1.15805035      3.65538064
H      -8.95911825     -1.19321632      0.13583728
H      -0.87150106      2.38996905      3.74590469
H      -0.70611078      0.78439342      4.80033153
C      -2.77733274      1.05202904      3.81017019
H      -3.15145054      1.83123215      2.91025483
C      -4.12855780      1.20829968      4.88692964
H      -2.94088429     -0.16858564      3.73121200
H      -4.20755104      2.22352148      5.59140651
H      -4.34930113      0.35643020      5.76509635
H      -5.32039593      1.21395818      4.52118200
H      11.36912993     -3.08402903     -8.01368230
H      12.29161373     -4.29221520     -9.32866604
H      11.69440061     -5.01235538     -7.54756502
H       8.25801322     -1.13802236      9.51390964
H       5.11031657     -0.94887998     11.18679631
H       8.54346094     -1.48958867      6.54481960
H      11.27298603     -1.34579634      7.68375506
H       5.50434939     -1.23212978      8.28345537
H      12.58454348     -0.19622900      2.57438774
H      -0.57035686      6.69003769     15.00317771
H      15.31540966      0.00790440      3.68230388
H      15.56199170     -0.52463601      0.73829888
H      -0.30902841      5.38441903     12.31337892
H      18.21532509     -0.29567492      1.97781111
H      18.23423992     -0.76427247     -0.99340848
H      -8.97677746     -0.44350135     18.73299670
H      21.02087251     -0.65523075      0.10892714
H      -9.67560273     -1.06425409     15.36149228
C       7.83568874     -0.31355347      8.68068524
C       8.80344783     -0.51194699      7.26600540
C       6.11699107     -0.30189306      8.83340773
C       5.47408131     -0.13086615     10.37021514
C      10.46722140     -0.47079342      7.45141002
C      13.38476083      0.71408790      2.55975577
C      15.05356742      0.72851607      2.70386229
C      -0.28634065      6.56960110     12.55077486
C      -0.42710785      7.37990230     13.99133105
C      16.01712342      0.49998309      1.28354750
C      17.75078777      0.46845360      1.10851653
C      18.64887364      0.23327556     -0.36733733
C      20.36989083      0.20895629     -0.49871060
C      -9.49568076     -0.52128943     16.37675227
C      -9.10752159      0.18432175     17.72453296
H      20.95070930      0.03777180     -1.58176360
H      -2.41293704     -1.50887561      1.34099202
H       8.24481429      0.71962372      9.24398386
H       5.27892404      0.84976106     11.05559731
H       8.52952709      0.21377524      6.29547441
H      11.25193595      0.45282769      7.46175210
H       5.49331226      0.47900200      8.09504602
H      12.58625282      1.60225781      2.35312748
H       0.54749879      8.06941860     14.30270120
H      15.32520080      1.71247253      3.41314389
H      15.56380769      1.30539415      0.44676779
H      -0.13408368      6.99416395     11.42878829
H      18.21920066      1.46141092      1.70001410
H      18.23771876      0.99082366     -1.27068118
H      -8.89510411      1.35948531     17.77255509
H      21.02497037      1.21500156     -0.18479919
H      -1.39361839      8.14511180     14.04456288
