   94

C      -8.28630553     -5.21846251     -5.51137760
C      -7.15051852     -5.74061510     -4.50162844
H      -9.11564862     -4.83713751     -6.24876565
C      -9.99211367     -1.09829321      5.88981996
H     -18.89185999     -7.18329685     -1.80818867
H      -6.60486595     -4.80311280     -3.92675161
C      10.04990559     -5.11511035      7.46055257
H      -7.62628290     -6.47988304     -3.64473764
H      -7.31887601     -5.77374841    -16.93688809
H      -7.31116482     -6.54314240    -16.80892942
C       6.73420389      1.07028258      9.77552628
H       5.56442615      1.44984237      9.70018175
C       9.95503521     -5.91551780      6.13929300
H       6.59030780     -0.15597861      9.84041927
H      10.10262335     -5.02107740      5.34991992
H       1.53490923     -5.84546008     10.81668145
C       9.74005589     -7.54118842      5.97222326
H       8.73001275     -7.73283410      5.28946703
C       5.25376639      3.15742445     -3.49555550
H       9.27176955     -8.08026109      6.97886996
H       6.03423483      2.31540173     -3.79877694
H       5.01902837      4.35194754     -3.77196923
C       4.81288965      2.25619736     -4.91553722
H       6.16342608      3.12734177     -7.19598938
C       5.33525052      3.12174591     -6.30078833
H       4.72384844      1.42212676     -5.82350712
H       5.14636220      4.12873021     -6.95054505
H      -0.88914472     13.61687686     12.12272325
C      12.37234461     -6.91729667    -13.67192055
H     -10.39261584      0.01667790      5.73420784
H     -19.27118577     -7.16726916     -1.12682601
C      -9.30897803      4.96232714    -10.51107341
H     -10.66126281     -1.97109792      5.42266974
C       0.50937416     -5.60287082     11.40887776
H     -10.40895073      4.90076610    -10.25089213
H      -1.71521124     -6.55592136     11.64342701
H       0.50638269     -4.39594932     11.32828548
C       4.06359392      1.00731550     -4.03981033
H       6.11846644      4.35584149     -1.57076320
C       4.27890753      3.38137839     -0.65941337
H       3.07151548      0.61244122     -3.48614654
H       4.08203724      4.40255292      0.01556899
H       4.07219511      2.65389471      0.32345459
H       3.08228426      3.34766359     -0.97663377
H      11.94284700     -5.83658463    -13.37948360
H      12.89496904     -7.08642857    -14.73783995
H      12.27921780     -7.82887681    -12.89843808
H       8.31981147      2.07896712     13.28500877
H       6.13257083      4.38500902     12.82650014
H      -0.38110294     -7.83987326     12.07297424
H       8.91730122      1.56917674     10.66282073
H      -8.70101793     -4.16259184     22.46177845
H       6.57721182      7.20856129     11.20282494
H      -2.34926645     13.47707260     24.28447819
H       8.82715965      5.67284583     13.38027854
H       7.84774341      1.80798177     -2.10972680
H      -2.64619425     12.68453305     11.82861205
H      18.54992096      0.44742164     -4.91105982
H       1.15332696      1.56248734    -14.18198804
H      11.24303255     -9.15412826      4.56954678
H      28.97086895     -1.67644067      0.07601537
H       9.20677617      5.27098084     11.59121625
C      -8.66001723     -1.39986926      6.66538101
C      -0.58206173     -6.62479141     12.12699289
C       7.49558553      2.44215122     12.43892092
C       7.27601748      4.10592080     12.50448143
C       7.73735101      1.70956100     10.95122268
C       7.60610734      6.92169787     11.76854864
C       8.22774689      5.47524153     12.31537235
C      -2.09127935     13.78050884     11.91244264
C      -1.82991536     14.44140264     23.89137868
C       6.98827526      2.24257606     -1.32280189
C      18.57578680      0.95557944     -5.98786911
C      19.23606922      0.17858371     -7.14141650
C      28.89209537     -0.51999665     -0.02702431
C       5.61639914      3.23185159     -1.77316165
C      11.09277569     -8.35590757      5.46439439
H       7.91856034      2.64875123     -0.61792605
H      -6.28252165     -6.37001071     -5.09960272
H      -7.67140363     -1.62367139      7.24096302
H      -8.57271924     -3.49036836     22.83601772
H      -0.68418376     -6.45878265     13.34547340
H       7.03773061      1.29285982      8.60042675
H       6.65117839      1.80880002     13.08013475
H       8.02947270      8.05561667     11.79819129
H      -1.31056426     15.40573269     23.49827917
H       4.30397594      0.03550139     -3.34668325
H       6.91145088      1.14559882     -0.74568441
H      -2.24314842     14.39912108     10.85869898
H      18.12008600      2.03042596     -6.22335482
H       1.09358106      2.33690907    -14.25341160
H      12.22776648     -8.32857644      5.87913570
H      28.81334465      0.63645392     -0.13000798
H      -2.58663002     14.42150435     12.83973628
   94

C      -8.28640323     -5.21847892     -5.51137395
C      -7.15063206     -5.74063483     -4.50160983
H      -9.11572957     -4.83714665     -6.24877667
C      -9.99241381     -1.09824004      5.88971990
H     -18.89187643     -7.18330024     -1.80818853
H      -6.60498831     -4.80313191     -3.92672606
C      10.04972359     -5.11523971      7.46115300
H      -7.62640492     -6.47990317     -3.64472434
H      -7.31878190     -5.77376282    -16.93687888
H      -7.31106713     -6.54315654    -16.80891887
C       6.73371868      1.07170384      9.77644054
H       5.56406327      1.45176476      9.70167391
C       9.95422185     -5.91576964      6.14001377
H       6.58984600     -0.15454546      9.84128019
H      10.10101702     -5.02130888      5.35052102
H       1.53479915     -5.84569472     10.81681084
C       9.73934606     -7.54146450      5.97310819
H       8.72928558     -7.73329964      5.29043672
C       5.26326187      3.15336620     -3.49580898
H       9.27111514     -8.08041956      6.97984033
H       6.08000280      2.34569841     -3.80834583
H       5.01029281      4.34436911     -3.76935782
C       4.80621762      2.25483453     -4.91230238
H       6.15982280      3.11842191     -7.18643759
C       5.32366692      3.11936144     -6.29845516
H       4.70806537      1.42270463     -5.82043536
H       5.12249008      4.12744513     -6.94329231
H      -0.88920590     13.61692127     12.12277154
C      13.18051756     -6.90660720    -13.13508829
H     -10.39225644      0.01704365      5.73452264
H     -19.27120184     -7.16727237     -1.12682568
C      -9.30904012      4.96233478    -10.51109230
H     -10.66102144     -1.97162849      5.42284226
C       0.50927666     -5.60298759     11.40898642
H     -10.40901109      4.90077061    -10.25090495
H      -1.71580686     -6.55587915     11.64449458
H       0.50656685     -4.39608955     11.32823322
C       4.05496433      1.00531851     -4.04303353
H       6.12040411      4.35990611     -1.57551249
C       4.28170542      3.38209754     -0.66178058
H       3.04867996      0.62341277     -3.50479307
H       4.08507721      4.40275412      0.01439382
H       4.07449465      2.65036856      0.31762990
H       3.08562753      3.34679849     -0.98051320
H      12.60443582     -5.86381180    -13.05630356
H      13.49394938     -7.03798377    -14.27962629
H      13.13542185     -7.84053228    -12.27255773
H       8.32002132      2.07860111     13.28622629
H       6.13111783      4.38419857     12.82456412
H      -0.38007398     -7.83960014     12.07236855
H       8.91735540      1.57129825     10.66260378
H      -8.70104160     -4.16259307     22.46180124
H       6.57834700      7.20757243     11.19989563
H      -2.34928397     13.47708539     24.28450092
H       8.82630615      5.67187026     13.38039699
H       7.85489012      1.80610620     -2.08900438
H      -2.64625582     12.68457649     11.82865918
H      18.46264864      0.88383671     -4.77135764
H       1.15300648      1.56255714    -14.18214448
H      11.24256661     -9.15345358      4.56963598
H      28.22286275     -2.18714102     -0.69574516
H       9.20619962      5.27029213     11.59121945
C      -8.66035046     -1.39981096      6.66527735
C      -0.58227431     -6.62474961     12.12715262
C       7.49574138      2.44172720     12.44016675
C       7.27520374      4.10537282     12.50456514
C       7.73746331      1.71036300     10.95190522
C       7.60594128      6.92100054     11.76813329
C       8.22712322      5.47451576     12.31533368
C      -2.09134029     13.78055197     11.91248887
C      -1.82993318     14.44141581     23.89140186
C       6.98887490      2.24501537     -1.31221501
C      18.49389929      1.39372961     -5.84720228
C      19.15415425      0.61714776     -7.00104452
C      27.82926766     -1.14502970     -1.03247731
C       5.62076258      3.23331802     -1.77325776
C      11.09204297     -8.35624418      5.46534010
H       7.91360037      2.65506879     -0.60180701
H      -6.28262960     -6.37002961     -5.09957648
H      -7.67175783     -1.62361148      7.24085991
H      -8.57274245     -3.49036946     22.83604014
H      -0.68538250     -6.45878914     13.34555299
H       7.03663145      1.29440782      8.60121385
H       6.65237809      1.80778063     13.08218244
H       8.02873619      8.05507492     11.79977728
H      -1.31058230     15.40574613     23.49830268
H       4.30492923      0.02605477     -3.36425403
H       6.90213948      1.14762275     -0.73795916
H      -2.24320918     14.39916460     10.85874547
H      18.04281478      2.47077742     -6.08149437
H       1.09324834      2.33697711    -14.25357738
H      12.22665256     -8.33014666      5.88119845
H      28.07664427     -0.01617337     -0.88986418
H      -2.58669012     14.42154757     12.83978283
   94

C      -8.28646976     -5.21849885     -5.51138223
C      -7.15070851     -5.74065821     -4.50160958
H      -9.11578654     -4.83715971     -6.24879184
C      -9.99270341     -1.09818878      5.88961186
H     -18.89188910     -7.18330354     -1.80818915
H      -6.60507163     -4.80315477     -3.92672045
C      10.04955177     -5.11532808      7.46177148
H      -7.62648754     -6.47992671     -3.64472786
H      -7.31872500     -5.77377542    -16.93687363
H      -7.31100725     -6.54316889    -16.80891234
C       6.73327962      1.07312988      9.77732411
H       5.56374662      1.45369152      9.70313690
C       9.95336900     -5.91598137      6.14075688
H       6.58942812     -0.15310733      9.84211091
H      10.09936675     -5.02150367      5.35114054
H       1.53470186     -5.84592496     10.81692222
C       9.73857160     -7.54169727      5.97402676
H       8.72850308     -7.73372209      5.29142693
C       5.27301412      3.14907242     -3.49633307
H       9.27038364     -8.08052651      6.98084277
H       6.12481599      2.37756007     -3.81792963
H       5.00138427      4.33624291     -3.76688242
C       4.80075870      2.25266724     -4.90895828
H       6.15623653      3.10887702     -7.17716793
C       5.31250928      3.11638907     -6.29618043
H       4.69349155      1.42249659     -5.81714132
H       5.09865045      4.12537101     -6.93602867
H      -0.88925800     13.61695970     12.12281488
C      14.02745326     -6.84473971    -12.61376736
H     -10.39188641      0.01740714      5.73483077
H     -19.27121430     -7.16727550     -1.12682617
C      -9.30909324      4.96233754    -10.51111170
H     -10.66076920     -1.97216093      5.42300765
C       0.50919283     -5.60309996     11.40907869
H     -10.40906263      4.90077171    -10.25091849
H      -1.71638819     -6.55583291     11.64554681
H       0.50676526     -4.39622544     11.32816434
C       4.04634082      1.00307985     -4.04631476
H       6.12227251      4.36380279     -1.58040559
C       4.28444368      3.38267428     -0.66429298
H       3.02607387      0.63448927     -3.52394817
H       4.08806453      4.40280480      0.01308276
H       4.07679247      2.64670197      0.31164127
H       3.08891662      3.34577049     -0.98453341
H      13.24746438     -5.94626228    -12.71828533
H      14.06955738     -7.02484619    -13.79362455
H      13.99376928     -7.81099727    -11.66815356
H       8.32028166      2.07822977     13.28741165
H       6.12971787      4.38337995     12.82260440
H      -0.37903318     -7.83932073     12.07174862
H       8.91745917      1.57342105     10.66235453
H      -8.70106110     -4.16259395     22.46182037
H       6.57953258      7.20657520     11.19695119
H      -2.34929735     13.47709591     24.28451993
H       8.82550661      5.67088598     13.38048688
H       7.86136359      1.80394447     -2.06903674
H      -2.64630831     12.68461408     11.82870151
H      18.35559401      1.33150965     -4.63645444
H       1.15284926      1.56251147    -14.18229365
H      11.24202199     -9.15279305      4.56982831
H      27.45597113     -2.65829511     -1.48718849
H       9.20567716      5.26959623     11.59119431
C      -8.66067200     -1.39975454      6.66516406
C      -0.58247335     -6.62470290     12.12729706
C       7.49594757      2.44129941     12.44138118
C       7.27443917      4.10481959     12.50462253
C       7.73762700      1.71116421     10.95255576
C       7.60582317      6.92029262     11.76769207
C       8.22655324      5.47378127     12.31526671
C      -2.09139219     13.78058927     11.91253046
C      -1.82994675     14.44142660     23.89142126
C       6.98921740      2.24719978     -1.30215860
C      18.39637689      1.84361455     -5.71090290
C      19.05132119      1.06745416     -6.86798850
C      26.86542296     -1.77724911     -1.98177697
C       5.62499811      3.23468212     -1.77356480
C      11.09124477     -8.35655854      5.46635578
H       7.90856938      2.66101852     -0.58649649
H      -6.28270132     -6.37005100     -5.09957118
H      -7.67209955     -1.62355335      7.24074588
H      -8.57276152     -3.49037024     22.83605894
H      -0.68656668     -6.45879119     13.34561672
H       7.03557690      1.29596020      8.60197007
H       6.65362785      1.80675982     13.08419756
H       8.02804061      8.05452125     11.80133712
H      -1.31059600     15.40575713     23.49832238
H       4.30596598      0.01654409     -3.38215266
H       6.89268127      1.14939410     -0.73092712
H      -2.24326113     14.39920236     10.85878738
H      17.95477048      2.92513086     -5.94258475
H       1.09306394      2.33692856    -14.25373579
H      12.22546002     -8.33171936      5.88335995
H      27.32612019     -0.74662699     -1.66700342
H      -2.58674126     14.42158491     12.83982473
   94

C      -8.28650965     -5.21851847     -5.51139535
C      -7.15075368     -5.74068085     -4.50161888
H      -9.11582241     -4.83717381     -6.24880643
C      -9.99297897     -1.09813890      5.88949649
H     -18.89189785     -7.18330640     -1.80819008
H      -6.60512154     -4.80317715     -3.92672587
C      10.04948718     -5.11534169      7.46233044
H      -7.62653720     -6.47994929     -3.64473972
H      -7.31869158     -5.77378497    -16.93687124
H      -7.31097169     -6.54317824    -16.80890884
C       6.73291730      1.07455002      9.77814776
H       5.56350660      1.45561084      9.70453921
C       9.95257467     -5.91611588      6.14144278
H       6.58908621     -0.15167511      9.84288133
H      10.09779894     -5.02162827      5.35169976
H       1.53462970     -5.84615092     10.81700773
C       9.73782696     -7.54185060      5.97490719
H       8.72775849     -7.73406498      5.29236741
C       5.28319113      3.14453906     -3.49709107
H       9.26966971     -8.08054659      6.98180529
H       6.16871428      2.41086606     -3.82738893
H       4.99249613      4.32754712     -3.76449377
C       4.79654947      2.24971380     -4.90548413
H       6.15293788      3.09874665     -7.16803648
C       5.30198825      3.11285766     -6.29386652
H       4.68014101      1.42156192     -5.81364037
H       5.07504942      4.12250645     -6.92868139
H      -0.88930023     13.61699036     12.12285238
C      14.81573467     -6.78418655    -12.12850465
H     -10.39150235      0.01776885      5.73513281
H     -19.27122294     -7.16727820     -1.12682705
C      -9.30913571      4.96233678    -10.51112949
H     -10.66050291     -1.97269469      5.42316691
C       0.50913509     -5.60320795     11.40914696
H     -10.40910377      4.90077036    -10.25093110
H      -1.71694452     -6.55578042     11.64657753
H       0.50699071     -4.39635698     11.32807087
C       4.03780466      1.00058089     -4.04963963
H       6.12420578      4.36751820     -1.58539132
C       4.28725431      3.38308106     -0.66693334
H       3.00378509      0.64572418     -3.54358215
H       4.09111796      4.40267245      0.01165738
H       4.07923021      2.64285817      0.30549932
H       3.09228229      3.34455054     -0.98867639
H      13.90506534     -6.04540613    -12.35272989
H      14.66738818     -7.02431521    -13.28831172
H      14.87163420     -7.74626190    -11.06809835
H       8.32060659      2.07784212     13.28854193
H       6.12838151      4.38253857     12.82060346
H      -0.37797035     -7.83903326     12.07110827
H       8.91763799      1.57553809     10.66204983
H      -8.70107551     -4.16259452     22.46183493
H       6.58077315      7.20555910     11.19397953
H      -2.34930686     13.47710370     24.28453497
H       8.82476793      5.66988199     13.38053192
H       7.86736966      1.80154760     -2.04991452
H      -2.64635077     12.68464398     11.82873804
H      18.24252693      1.79572924     -4.49796337
H       1.15280255      1.56241249    -14.18241979
H      11.24149748     -9.15209112      4.57003832
H      26.67063618     -3.17735379     -2.29399268
H       9.20521720      5.26888529     11.59112347
C      -8.66097798     -1.39969941      6.66504125
C      -0.58264790     -6.62464935     12.12741959
C       7.49621975      2.44085618     12.44253941
C       7.27373414      4.10424876     12.50463321
C       7.73786678      1.71195521     10.95314959
C       7.60575877      6.91956387     11.76721102
C       8.22604504      5.47302772     12.31515438
C      -2.09143425     13.78061897     11.91256649
C      -1.82995640     14.44143464     23.89143668
C       6.98951491      2.24913156     -1.29266366
C      18.29158020      2.30940960     -5.57122918
C      18.93180906      1.53519805     -6.73759679
C      25.98548920     -2.43017264     -2.88542851
C       5.62925998      3.23592144     -1.77403671
C      11.09047991     -8.35680673      5.46736663
H       7.90369894      2.66659517     -0.57203706
H      -6.28274251     -6.37007116     -5.09957713
H      -7.67242460     -1.62349632      7.24062054
H      -8.57277558     -3.49037074     22.83607327
H      -0.68772572     -6.45878663     13.34565793
H       7.03460149      1.29750621      8.60266716
H       6.65494285      1.80572417     13.08615306
H       8.02738922      8.05394626     11.80286026
H      -1.31060575     15.40576535     23.49833810
H       4.30713927      0.00695349     -3.40035615
H       6.88332414      1.15090238     -0.72463642
H      -2.24330350     14.39923262     10.85882382
H      17.86078791      3.39602352     -5.79927102
H       1.09298574      2.33682638    -14.25387078
H      12.22429460     -8.33323204      5.88552579
H      26.54224707     -1.47462179     -2.48370504
H      -2.58678270     14.42161460     12.83986106
   94

C      -8.28652296     -5.21853287     -5.51140913
C      -7.15076848     -5.74069719     -4.50163223
H      -9.11583627     -4.83718511     -6.24881789
C      -9.99323626     -1.09808938      5.88937313
H     -18.89190196     -7.18330823     -1.80819118
H      -6.60513861     -4.80319363     -3.92673694
C      10.04960962     -5.11525708      7.46274407
H      -7.62655548     -6.47996538     -3.64475485
H      -7.31867133     -5.77379001    -16.93686932
H      -7.31095023     -6.54318315    -16.80890618
C       6.73264948      1.07595512      9.77888270
H       5.56336102      1.45751290      9.70584900
C       9.95193441     -5.91614862      6.14198400
H       6.58883914     -0.15025816      9.84356191
H      10.09643376     -5.02166182      5.35211124
H       1.53459215     -5.84637290     10.81706013
C       9.73721417     -7.54190257      5.97567025
H       8.72715005     -7.73430778      5.29318463
C       5.29405896      3.13978125     -3.49805991
H       9.26907998     -8.08045906      6.98265026
H       6.21182443      2.44547476     -3.83661928
H       4.98394443      4.31828657     -3.76215387
C       4.79368065      2.24603535     -4.90186400
H       6.15031044      3.08811010     -7.15887388
C       5.29239424      3.10882603     -6.29142623
H       4.66804673      1.42001567     -5.80995770
H       5.05199953      4.11888787     -6.92118434
H      -0.88933132     13.61701124     12.12288157
C      15.57219289     -6.72671452    -11.65620003
H     -10.39109994      0.01812981      5.73542799
H     -19.27122707     -7.16727994     -1.12682816
C      -9.30916147      4.96233327    -10.51114277
H     -10.66021871     -1.97322868      5.42331984
C       0.50911308     -5.60331163     11.40918433
H     -10.40912864      4.90076714    -10.25094071
H      -1.71746758     -6.55571970     11.64758134
H       0.50725302     -4.39648424     11.32794518
C       4.02949577      0.99784766     -4.05299574
H       6.12643785      4.37104898     -1.59043611
C       4.29035905      3.38329714     -0.66970781
H       2.98196204      0.65720859     -3.56367237
H       4.09444221      4.40232979      0.01011815
H       4.08203806      2.63880575      0.29919009
H       3.09594201      3.34311923     -0.99294203
H      14.57320127     -6.15570571    -11.96972977
H      15.28129911     -7.02450845    -12.77346937
H      15.74518336     -7.66025520    -10.47913398
H       8.32099686      2.07742898     13.28959764
H       6.12710822      4.38166267     12.81854537
H      -0.37687773     -7.83873621     12.07044226
H       8.91790189      1.57764343     10.66167037
H      -8.70108433     -4.16259480     22.46184419
H       6.58206550      7.20451620     11.19096758
H      -2.34931293     13.47710851     24.28454567
H       8.82408539      5.66884997     13.38051965
H       7.87326637      1.79901310     -2.03175017
H      -2.64638180     12.68466414     11.82876617
H      18.15264708      2.26719960     -4.34548704
H       1.15284301      1.56230501    -14.18249980
H      11.24110349     -9.15129664      4.57016277
H      25.86812437     -3.69700474     -3.11306614
H       9.20481682      5.26815360     11.59099354
C      -8.66126379     -1.39964439      6.66490773
C      -0.58278952     -6.62458725     12.12751442
C       7.49656063      2.44038788     12.44361966
C       7.27308796      4.10365027     12.50457928
C       7.73819177      1.71272849     10.95366465
C       7.60574438      6.91880697     11.76667827
C       8.22559533      5.47224745     12.31498331
C      -2.09146522     13.78063908     11.91259449
C      -1.82996261     14.44143968     23.89144776
C       6.99011221      2.25084802     -1.28379349
C      18.20026470      2.78164630     -5.41830294
C      18.82274514      2.01452794     -6.59847597
C      25.10374213     -3.10767074     -3.78717815
C       5.63380442      3.23702174     -1.77464269
C      11.08985553     -8.35695541      5.46828514
H       7.89934756      2.67183584     -0.55849958
H      -6.28275411     -6.37008504     -5.09958835
H      -7.67272805     -1.62343904      7.24048220
H      -8.57278416     -3.49037100     22.83608239
H      -0.68885150     -6.45877344     13.34567082
H       7.03372724      1.29903659      8.60327733
H       6.65632513      1.80466231     13.08802465
H       8.02677671      8.05334311     11.80433717
H      -1.31061208     15.40577061     23.49834952
H       4.30856138     -0.00268622     -3.41883901
H       6.87444341      1.15217511     -0.71916316
H      -2.24333488     14.39925331     10.85885226
H      17.77234491      3.87007697     -5.64292634
H       1.09299790      2.33671603    -14.25395850
H      12.22327353     -8.33462654      5.88758089
H      25.72198892     -2.20804522     -3.33524873
H      -2.58681326     14.42163462     12.83988931
   94

C      -8.28651300     -5.21853779     -5.51141976
C      -7.15075711     -5.74070258     -4.50164468
H      -9.11583043     -4.83719014     -6.24882394
C      -9.99347188     -1.09803893      5.88924130
H     -18.89190147     -7.18330853     -1.80819216
H      -6.60512661     -4.80319968     -3.92674891
C      10.04998111     -5.11507141      7.46291864
H      -7.62654701     -6.47997039     -3.64476859
H      -7.31866385     -5.77378940    -16.93686736
H      -7.31094268     -6.54318250    -16.80890402
C       6.73248555      1.07733853      9.77950242
H       5.56331953      1.45939100      9.70703714
C       9.95154444     -5.91607705      6.14228458
H       6.58869700     -0.14886326      9.84412572
H      10.09538339     -5.02160357      5.35227955
H       1.53459675     -5.84659181     10.81707349
C       9.73684930     -7.54185471      5.97622162
H       8.72678574     -7.73445448      5.29379631
C       5.30586570      3.13485129     -3.49921678
H       9.26874078     -8.08026886      6.98328650
H       6.25425298      2.48124180     -3.84553522
H       4.97606685      4.30851599     -3.75982761
C       4.79218885      2.24174681     -4.89807493
H       6.14867903      3.07709229     -7.14951118
C       5.28395760      3.10440149     -6.28877855
H       4.65716291      1.41803377     -5.80611209
H       5.02977801      4.11461309     -6.91346884
H      -0.88934822     13.61702001     12.12289825
C      16.30418118     -6.67183364    -11.19149045
H     -10.39067565      0.01849135      5.73571562
H     -19.27122671     -7.16728023     -1.12682921
C      -9.30916580      4.96232882    -10.51114880
H     -10.65991363     -1.97376158      5.42346645
C       0.50913450     -5.60341162     11.40918514
H     -10.40913268      4.90076352    -10.25094531
H      -1.71795091     -6.55564950     11.64855401
H       0.50756000     -4.39660786     11.32778080
C       4.02152268      0.99495183     -4.05635740
H       6.12921593      4.37442966     -1.59551733
C       4.29398752      3.38333108     -0.67262330
H       2.96072791      0.66906622     -3.58418354
H       4.09825484      4.40177897      0.00846527
H       4.08545319      2.63454248      0.29269896
H       3.10011947      3.34148866     -0.99732628
H      15.24942457     -6.27327344    -11.57534339
H      15.90336645     -7.02102272    -12.25704406
H      16.59338664     -7.56971206     -9.90983590
H       8.32144753      2.07698437     13.29056113
H       6.12589405      4.38074525     12.81641382
H      -0.37574930     -7.83842872     12.06974650
H       8.91825254      1.57973328     10.66119834
H      -8.70108718     -4.16259476     22.46184750
H       6.58340695      7.20344126     11.18789690
H      -2.34931567     13.47711012     24.28455118
H       8.82345170      5.66778490     13.38043626
H       7.87942034      1.79648889     -2.01462815
H      -2.64639829     12.68467229     11.82878175
H      18.10166326      2.72073707     -4.17982156
H       1.15294609      1.56222633    -14.18251955
H      11.24097340     -9.15035821      4.57005687
H      25.03103524     -4.18241133     -3.95465031
H       9.20447051      5.26739717     11.59078994
C      -8.66152575     -1.39958807      6.66476255
C      -0.58289156     -6.62451559     12.12757694
C       7.49696715      2.43988814     12.44460218
C       7.27249649      4.10301771     12.50444322
C       7.73860295      1.71347911     10.95408092
C       7.60577561      6.91801739     11.76607877
C       8.22519840      5.47143558     12.31473881
C      -2.09148203     13.78064735     11.91261036
C      -1.82996550     14.44144151     23.89145362
C       6.99135630      2.25243668     -1.27559097
C      18.13784969      3.23594193     -5.25257199
C      18.75681246      2.48060372     -6.44169380
C      24.19136266     -3.77343896     -4.67798266
C       5.63889251      3.23800937     -1.77535786
C      11.08949401     -8.35698501      5.46899377
H       7.89587521      2.67683543     -0.54593693
H      -6.28274067     -6.37008862     -5.09959970
H      -7.67300596     -1.62337993      7.24032957
H      -8.57278692     -3.49037096     22.83608568
H      -0.68993756     -6.45875029     13.34565073
H       7.03296729      1.30054461      8.60377491
H       6.65777084      1.80356692     13.08979071
H       8.02619827      8.05270732     11.80575346
H      -1.31061512     15.40577267     23.49835572
H       4.31031954     -0.01229816     -3.43756227
H       6.86641062      1.15329281     -0.71455832
H      -2.24335202     14.39926202     10.85886844
H      17.70038936      4.32076216     -5.47609416
H       1.09308337      2.33663555    -14.25398307
H      12.22253338     -8.33585161      5.88937013
H      24.85512357     -2.91062226     -4.20742637
H      -2.58683000     14.42164273     12.83990530
   94

C      -8.28648897     -5.21853247     -5.51142330
C      -7.15072970     -5.74069625     -4.50165129
H      -9.11581274     -4.83718816     -6.24882215
C      -9.99368508     -1.09798714      5.88910210
H     -18.89189761     -7.18330730     -1.80819244
H      -6.60509558     -4.80319462     -3.92675680
C      10.05065632     -5.11479951      7.46272837
H      -7.62652189     -6.47996363     -3.64477604
H      -7.31867693     -5.77378378    -16.93686750
H      -7.31095689     -6.54317695    -16.80890451
C       6.73243129      1.07869228      9.77998687
H       5.56338799      1.46123707      9.70808268
C       9.95151333     -5.91591378      6.14221339
H       6.58866696     -0.14749857      9.84455202
H      10.09476813     -5.02146645      5.35207505
H       1.53465178     -5.84681025     10.81704185
C       9.73687146     -7.54172474      5.97642215
H       8.72679186     -7.73452412      5.29408181
C       5.31865367      3.12980873     -3.50051693
H       9.26880794     -8.08000160      6.98357873
H       6.29591338      2.51799877     -3.85404285
H       4.96902868      4.29831134     -3.75746221
C       4.79190041      2.23697837     -4.89407702
H       6.14806147      3.06581638     -7.13981968
C       5.27664754      3.09971396     -6.28584175
H       4.64725238      1.41579728     -5.80209827
H       5.00840914      4.10981343     -6.90545616
H      -0.88934801     13.61701505     12.12289929
C      17.00054784     -6.62887782    -10.74253984
H     -10.39022864      0.01885388      5.73599665
H     -19.27122297     -7.16727908     -1.12682956
C      -9.30915188      4.96232595    -10.51114659
H     -10.65958717     -1.97429290      5.42360808
C       0.50920777     -5.60351030     11.40914378
H     -10.40911903      4.90076149    -10.25094393
H      -1.71838768     -6.55557007     11.64949160
H       0.50792009     -4.39673025     11.32757175
C       4.01384905      0.99194962     -4.05967338
H       6.13263172      4.37770736     -1.60059954
C       4.29822747      3.38320897     -0.67564628
H       2.94007589      0.68138700     -3.60504004
H       4.10264604      4.40104373      0.00673556
H       4.08957251      2.63008752      0.28605455
H       3.10489845      3.33968891     -1.00178489
H      15.92323658     -6.39059861    -11.18688216
H      16.51372020     -7.01323032    -11.75726299
H      17.37626834     -7.51390155     -9.37568563
H       8.32195506      2.07650369     13.29141683
H       6.12473715      4.37978177     12.81419439
H      -0.37457837     -7.83811139     12.06901679
H       8.91869015      1.58180381     10.66061774
H      -8.70108361     -4.16259445     22.46184432
H       6.58479808      7.20233065     11.18475002
H      -2.34931474     13.47710826     24.28455054
H       8.82286327      5.66668287     13.38026758
H       7.88597347      1.79409316     -1.99853558
H      -2.64639745     12.68466699     11.82878192
H      18.07275554      3.13889260     -4.01426280
H       1.15306021      1.56220214    -14.18248738
H      11.24127433     -9.14920098      4.56948116
H      24.18323366     -4.60667582     -4.79715352
H       9.20417556      5.26661232     11.59049788
C      -8.66176294     -1.39953003      6.66460658
C      -0.58294693     -6.62443483     12.12760257
C       7.49743683      2.43935208     12.44547014
C       7.27195757      4.10234641     12.50420938
C       7.73910024      1.71420207     10.95438186
C       7.60585154      6.91719174     11.76539772
C       8.22485156      5.47058805     12.31440626
C      -2.09148179     13.78064231     11.91261116
C      -1.82996471     14.44143983     23.89145322
C       6.99337409      2.25397456     -1.26801239
C      18.09772930      3.65402826     -5.08732318
C      18.73250930      2.90564775     -6.27226410
C      23.28115306     -4.37192155     -5.52917823
C       5.64461666      3.23892853     -1.77614192
C      11.08953857     -8.35687969      5.46930220
H       7.89341718      2.68168193     -0.53431094
H      -6.28271268     -6.37008174     -5.09960610
H      -7.67325722     -1.62331853      7.24016322
H      -8.57278341     -3.49037069     22.83608259
H      -0.69097693     -6.45871728     13.34559306
H       7.03232933      1.30202247      8.60414031
H       6.65927708      1.80243288     13.09143373
H       8.02565343      8.05203530     11.80709412
H      -1.31061449     15.40577118     23.49835561
H       4.31237816     -0.02181840     -3.45646699
H       6.85937756      1.15432593     -0.71078120
H      -2.24335192     14.39925719     10.85886939
H      17.64686506      4.73268124     -5.31381348
H       1.09319642      2.33661124    -14.25395113
H      12.22223366     -8.33685781      5.89066114
H      23.98764974     -3.54686028     -5.04397266
H      -2.58683006     14.42163747     12.83990611
   94

C      -8.28645680     -5.21851769     -5.51141612
C      -7.15069266     -5.74067905     -4.50164791
H      -9.11578834     -4.83717992     -6.24880977
C      -9.99387516     -1.09793482      5.88895668
H     -18.89189114     -7.18330478     -1.80819143
H      -6.60505190     -4.80317938     -3.92675637
C      10.05167674     -5.11446252      7.46200844
H      -7.62648629     -6.47994591     -3.64477292
H      -7.31871817     -5.77377362    -16.93687139
H      -7.31100061     -6.54316696    -16.80890928
C       6.73249000      1.08000374      9.78032179
H       5.56356952      1.46303775      9.70897159
C       9.95194347     -5.91567309      6.14159672
H       6.58875496     -0.14617718      9.84482481
H      10.09470145     -5.02126567      5.35132454
H       1.53476774     -5.84703207     10.81695577
C       9.73741029     -7.54153109      5.97608628
H       8.72728464     -7.73453329      5.29387453
C       5.33233473      3.12465085     -3.50192526
H       9.26943041     -8.07968662      6.98334479
H       6.33661663      2.55549863     -3.86206683
H       4.96286161      4.28769247     -3.75501720
C       4.79253785      2.23180186     -4.88985330
H       6.14832465      3.05431836     -7.12972694
C       5.27030949      3.09482796     -6.28256628
H       4.63804033      1.41339960     -5.79791769
H       4.98779393      4.10455731     -6.89709941
H      -0.88933089     13.61699585     12.12288478
C      17.61958497     -6.63448965    -10.33139348
H     -10.38975835      0.01921656      5.73627229
H     -19.27121658     -7.16727670     -1.12682859
C      -9.30912526      4.96232566    -10.51113625
H     -10.65923873     -1.97482343      5.42374590
C       0.50934384     -5.60361144     11.40905174
H     -10.40909316      4.90076180    -10.25093637
H      -1.71876891     -6.55548245     11.65038778
H       0.50834410     -4.39685513     11.32730935
C       4.00638773      0.98881581     -4.06290919
H       6.13665359      4.38086394     -1.60565316
C       4.30306044      3.38291904     -0.67873511
H       2.91996104      0.69416757     -3.62616187
H       4.10760523      4.40011471      0.00496846
H       4.09438641      2.62542865      0.27929795
H       3.11025953      3.33771211     -1.00627061
H      16.56008152     -6.49805729    -10.85084468
H      17.07089108     -7.00013990    -11.31947857
H      17.97733413     -7.60488744     -8.91318362
H       8.32251656      2.07597991     13.29215233
H       6.12363505      4.37876487     12.81187827
H      -0.37335606     -7.83778555     12.06824645
H       8.91921342      1.58384744     10.65991634
H      -8.70107280     -4.16259412     22.46183387
H       6.58623622      7.20118001     11.18152128
H      -2.34930998     13.47710262     24.28454339
H       8.82231612      5.66553740     13.38000646
H       7.89292030      1.79183025     -1.98340623
H      -2.64637952     12.68464776     11.82876691
H      18.03781152      3.53127876     -3.85986028
H       1.15314740      1.56224036    -14.18241547
H      11.24216206     -9.14772988      4.56811144
H      23.42243969     -4.94915479     -5.56778256
H       9.20392820      5.26579401     11.59010957
C      -8.66197441     -1.39947119      6.66444061
C      -0.58294629     -6.62434618     12.12758430
C       7.49796706      2.43877251     12.44621065
C       7.27146847      4.10162927     12.50386749
C       7.73968219      1.71488917     10.95455503
C       7.60596916      6.91632538     11.76462990
C       8.22455111      5.46969900     12.31397823
C      -2.09146473     13.78062346     11.91259711
C      -1.82996007     14.44143430     23.89144622
C       6.99613499      2.25544488     -1.26098590
C      18.05921613      4.04438032     -4.93408555
C      18.71155226      3.29040560     -6.10613268
C      22.48755196     -4.84672109     -6.29410640
C       5.65094597      3.23975872     -1.77696229
C      11.09011365     -8.35662463      5.46895204
H       7.89193295      2.68637063     -0.52353425
H      -6.28267668     -6.37006558     -5.09960326
H      -7.67348069     -1.62325594      7.23998357
H      -8.57277289     -3.49037043     22.83607237
H      -0.69196044     -6.45867524     13.34549075
H       7.03181712      1.30345761      8.60435935
H       6.66084132      1.80125260     13.09294063
H       8.02513904      8.05132240     11.80835484
H      -1.31061003     15.40576583     23.49834884
H       4.31467373     -0.03125686     -3.47551145
H       6.85333810      1.15525222     -0.70775632
H      -2.24333494     14.39923843     10.85885538
H      17.60133926      5.11905636     -5.16538082
H       1.09330053      2.33665113    -14.25387485
H      12.22250885     -8.33761300      5.89117045
H      23.23975419     -4.08759021     -5.76500185
H      -2.58681359     14.42161833     12.83989197
   94

C      -8.28640786     -5.21849365     -5.51139990
C      -7.15063715     -5.74065124     -4.50163651
H      -9.11574933     -4.83716603     -6.24878787
C      -9.99404142     -1.09788300      5.88880412
H     -18.89188079     -7.18330095     -1.80818948
H      -6.60498690     -4.80315416     -3.92674954
C      10.05300840     -5.11408127      7.46071315
H      -7.62643180     -6.47991715     -3.64476110
H      -7.31877422     -5.77375809    -16.93687548
H      -7.31106092     -6.54315172    -16.80891481
C       6.73264776      1.08126928      9.78051667
H       5.56384991      1.46478884      9.70971428
C       9.95281536     -5.91537418      6.14038673
H       6.58894863     -0.14490298      9.84495155
H      10.09515099     -5.02101786      5.34998067
H       1.53494480     -5.84725936     10.81681260
C       9.73844820     -7.54129179      5.97515714
H       8.72824341     -7.73449909      5.29312225
C       5.34682389      3.11932456     -3.50346822
H       9.27060080     -8.07934871      6.98252867
H       6.37622068      2.59345017     -3.86958991
H       4.95758595      4.27662808     -3.75252909
C       4.79388783      2.22622290     -4.88546047
H       6.14944371      3.04253204     -7.11922657
C       5.26488429      3.08971019     -6.27898422
H       4.62939360      1.41082930     -5.79362517
H       4.96793156      4.09881267     -6.88844170
H      -0.88930149     13.61696377     12.12285816
C      18.12147742     -6.77299558     -9.92902853
H     -10.38926423      0.01957833      5.73654178
H     -19.27120632     -7.16727309     -1.12682669
C      -9.30908200      4.96232389    -10.51111881
H     -10.65886747     -1.97535422      5.42387890
C       0.50954333     -5.60371674     11.40890693
H     -10.40905116      4.90076112    -10.25092362
H      -1.71909404     -6.55538771     11.65124092
H       0.50883256     -4.39698426     11.32699121
C       3.99911277      0.98546485     -4.06610204
H       6.14120830      4.38385074     -1.61070239
C       4.30843696      3.38242550     -0.68189809
H       2.90040007      0.70733995     -3.64753630
H       4.11308419      4.39895986      0.00315038
H       4.09984467      2.62053495      0.27242312
H       3.11615703      3.33552253     -1.01079956
H      17.13977660     -6.61285008    -10.57435474
H      17.55689694     -7.00280245    -10.94628640
H      18.38761408     -7.88777080     -8.49397653
H       8.32312400      2.07541069     13.29277431
H       6.12257716      4.37769163     12.80947204
H      -0.37208179     -7.83745232     12.06743395
H       8.91980954      1.58586165     10.65910188
H      -8.70105485     -4.16259393     22.46181614
H       6.58771180      7.19998876     11.17822074
H      -2.34930200     13.47709326     24.28453069
H       8.82179937      5.66434664     13.37966512
H       7.90023863      1.78967533     -1.96916446
H      -2.64634897     12.68461571     11.82873985
H      17.98502888      3.92353855     -3.71429172
H       1.15326470      1.56230423    -14.18229601
H      11.24361331     -9.14593354      4.56584149
H      22.75823199     -5.23469449     -6.25099143
H       9.20371798      5.26494215     11.58963774
C      -8.66215950     -1.39941265      6.66426372
C      -0.58288914     -6.62425077     12.12752048
C       7.49854849      2.43814730     12.44683179
C       7.27101953      4.10086408     12.50342674
C       7.74033606      1.71553755     10.95460846
C       7.60611702      6.91541799     11.76378896
C       8.22428604      5.46876759     12.31346684
C      -2.09143543     13.78059198     11.91257141
C      -1.82995226     14.44142508     23.89143367
C       6.99956568      2.25680213     -1.25446435
C      18.00757204      4.43415333     -4.78984660
C      18.66680807      3.66882442     -5.95114304
C      21.90805333     -5.10411156     -7.07678788
C       5.65781590      3.24044561     -1.77784114
C      11.09118976     -8.35623936      5.46786152
H       7.89130963      2.69087820     -0.51351612
H      -6.28262347     -6.37004014     -5.09959291
H      -7.67367572     -1.62319342      7.23978966
H      -8.57275546     -3.49037036     22.83605503
H      -0.69288728     -6.45862499     13.34534213
H       7.03141471      1.30484768      8.60444123
H       6.66245524      1.80002302     13.09431990
H       8.02464195      8.05056877     11.80955278
H      -1.31060247     15.40575684     23.49833656
H       4.31720770     -0.04067710     -3.49471803
H       6.84823153      1.15602322     -0.70543000
H      -2.24330586     14.39920708     10.85882975
H      17.54897486      5.50796525     -5.02400012
H       1.09344357      2.33671754    -14.25374875
H      12.22332287     -8.33815750      5.89083504
H      22.66131092     -4.54743495     -6.33350825
H      -2.58678509     14.42158645     12.83986617
   94

C      -8.28630164     -5.21845984     -5.51138060
C      -7.15051485     -5.74061257     -4.50163127
H      -9.11566337     -4.83714764     -6.24875430
C      -9.99438234     -1.09777831      5.88849918
H     -18.89185999     -7.18329685     -1.80818867
H      -6.60484805     -4.80311979     -3.92675242
C      10.05497544     -5.11400620      7.45826032
H      -7.62630997     -6.47987693     -3.64475445
H      -7.31887676     -5.77374912    -16.93688832
H      -7.31116557     -6.54314312    -16.80892965
C       6.73320955      1.08343861      9.78061231
H       5.56467421      1.46790929      9.71059020
C       9.95438502     -5.91532518      6.13797388
H       6.58960402     -0.14270250      9.84521771
H      10.09608107     -5.02095277      5.34747213
H       1.53527908     -5.84772649     10.81652048
C       9.74044352     -7.54133838      5.97290225
H       8.73007606     -7.73480954      5.29118355
C       5.37356069      3.10929760     -3.50654869
H       9.27285278     -8.07932439      6.98042956
H       6.44669809      2.66934225     -3.88281987
H       4.94792588      4.25531567     -3.74716570
C       4.79098313      2.21746737     -4.87644724
H       6.15605079      3.01583974     -7.09483443
C       5.25653922      3.07940437     -6.27103939
H       4.60971619      1.40750484     -5.78468467
H       4.93701928      4.08904925     -6.86969322
H      -0.88914472     13.61687686     12.12272325
C      19.17831068     -6.45770506     -9.28910106
H     -10.38828197      0.02030205      5.73707983
H     -19.27118577     -7.16726916     -1.12682601
C      -9.30897803      4.96232714    -10.51107341
H     -10.65813294     -1.97641206      5.42414327
C       0.50992158     -5.60395980     11.40861542
H     -10.40895073      4.90076610    -10.25089213
H      -1.71974756     -6.55521213     11.65293751
H       0.50977197     -4.39727290     11.32637376
C       3.98343590      0.97747239     -4.07249245
H       6.14975898      4.39018446     -1.62093744
C       4.31925640      3.38181129     -0.68733087
H       2.86283903      0.73264111     -3.68781949
H       4.12417251      4.39732601     -0.00004620
H       4.11220448      2.61157621      0.26010141
H       3.12782264      3.33068407     -1.01805471
H      18.20102334     -6.71902647     -9.90207200
H      18.41536002     -6.90613145    -10.07421592
H      20.01072859     -7.14154269     -7.62372206
H       8.32381434      2.07441913     13.29377545
H       6.12090446      4.37599329     12.80513864
H      -0.36959591     -7.83683549     12.06583771
H       8.92103645      1.58952709     10.65760309
H      -8.70101793     -4.16259184     22.46177845
H       6.58990799      7.19833494     11.17354666
H      -2.34926645     13.47707260     24.28447819
H       8.82140119      5.66207247     13.37838430
H       7.91291111      1.78585029     -1.94498357
H      -2.64619425     12.68453305     11.82861205
H      17.91526518      4.32244988     -3.56955349
H       1.15332687      1.56248792    -14.18199008
H      11.24606616     -9.14358969      4.56120536
H      21.31029529     -5.81909782     -7.50508551
H       9.20336785      5.26338639     11.58795539
C      -8.66253936     -1.39929650      6.66391261
C      -0.58278460     -6.62410515     12.12739014
C       7.49946821      2.43717962     12.44760981
C       7.27026480      4.09966332     12.50201119
C       7.74161472      1.71708747     10.95431365
C       7.60672275      6.91394977     11.76197672
C       8.22406923      5.46713156     12.31200726
C      -2.09127935     13.78050884     11.91244264
C      -1.82991536     14.44140264     23.89137868
C       7.00655290      2.26034220     -1.24360043
C      17.94113061      4.83060815     -4.64636263
C      18.60141076      4.05361595     -5.79991371
C      20.36481974     -6.13854405     -8.17430029
C       5.67070485      3.24233092     -1.77962904
C      11.09314688     -8.35604442      5.46503825
H       7.89221558      2.70113674     -0.49847561
H      -6.28250531     -6.37000489     -5.09959062
H      -7.67407657     -1.62306905      7.23940667
H      -8.57271924     -3.49036836     22.83601772
H      -0.69473885     -6.45853756     13.34503736
H       7.03109745      1.30695944      8.60431503
H       6.66515850      1.79801041     13.09641389
H       8.02462578      8.04920393     11.81061673
H      -1.31056426     15.40573269     23.49827917
H       4.32430752     -0.05914713     -3.53371480
H       6.83953796      1.15883502     -0.70217550
H      -2.24314843     14.39912108     10.85869898
H      17.48543037      5.90545491     -4.88184806
H       1.09358096      2.33690965    -14.25341364
H      12.22496831     -8.33923838      5.88892458
H      21.22377584     -5.54724068     -7.56622463
H      -2.58663002     14.42150435     12.83973628
