   94

C       7.15017743     -6.80539434     -7.68906074
C       5.70773994     -7.63265730     -7.24683450
H       7.41383772     -5.96923340     -6.80524697
C       3.80670252     -1.04909194      4.90132175
H     -18.89185999     -7.18329685     -1.80818867
H       4.70213632     -7.03677362     -6.83306378
C       4.58739031     -1.78646874      6.24490248
H       5.75571904     -8.45936141     -6.32334522
H      -7.81523282     -6.27941550    -16.91792814
H      -7.80752163     -7.04880949    -16.78996947
C       8.76877861      1.53336146      6.13296009
H      14.01585003      6.01792577     10.72756143
C       7.06044829     -2.53092365      3.88637261
H       6.58298915      5.85774038     -4.85831488
H       7.23871325     -1.75872346      3.02088375
H       2.82035719     -8.53687346     13.57806579
C       5.38516845     -3.32785880      6.03723773
H       4.60229891     -4.28499431      5.91894804
C       5.51775691      7.86194117     -5.38361477
H       5.54572267     -4.08325454      7.01142467
H       6.33923719      8.63741778     -5.82212386
H       4.53843640      8.36957788     -5.88306833
C       5.68341477      6.55093729     -4.36128601
H      10.54966960      4.35859799    -14.26297634
C       9.89700599      4.00758961    -13.40909094
H       9.66437632      2.30003130      3.97394739
H       4.97503794      5.61816414     -4.77031259
H      -3.00408555     13.84794160     10.96389429
C       8.54669082     -7.64066111     -8.26143905
H       3.18818670     -0.03997135      5.19212132
H     -19.27118577     -7.16726916     -1.12682601
C      -1.51866549     -8.63375620      0.43502515
H       3.46359577     -2.18766121      6.58642155
C       1.79285249     -8.37802301     14.17329943
H      -2.32966778     -9.10465294      1.12402208
H      -9.97034981    -12.02712852     15.60339245
H       1.42066723     -7.24775990     14.31965463
C      -3.95008086      0.02188449     -7.52418446
H       6.19105106      8.00224143     -2.50341037
C       4.14714718      7.02421978     -1.86331413
H      -4.45424836      0.92846256     -8.05155204
H       4.05801911      7.64200489     -0.79259961
H       3.52334166      6.00229572     -1.54594522
H       3.16518431      7.59920051     -2.35149704
H       8.82392135     -7.46007198     -9.45791699
H       8.44595265     -8.83626064     -8.57265652
H      10.39202870     -8.24756378     -6.48453259
H       5.29382204      1.80148682      7.43802803
H       4.22305586     -0.47533540      8.12873919
H       1.18175430     -9.32143667     14.59430382
H       6.84442364      1.51641298      5.26067810
H      -9.42675544     -2.95204824     23.99740376
H       4.78385924     13.79171281     17.27412426
H       3.36678270     13.38625641     20.36001010
H       5.76728106     -1.92603764      9.84904636
H      18.06949782      4.47561687     -0.64462133
H      -4.76113507     12.91559780     10.66978309
H      18.75967138      4.62399260     -0.31289178
H       3.78071935     -1.87534087      2.40151219
H       7.02132822     -4.63031889      4.53373095
H       6.89862460     -5.82980168     -8.42278838
H       7.25925530     -1.81807446      8.94879997
C       3.36366604     -1.10830976      3.26739781
C      -9.30222126    -11.98348273     16.55487947
C       6.03431902      0.80856162      7.43590591
C       5.26338564     -0.75075289      7.50952133
C       7.22543734      1.23649854      6.36116042
C       5.07503143     14.28621610     18.35939653
C       6.10130642     -1.50768367      8.75866104
C      -4.20622018     14.01157358     10.75361368
C       4.08805888     13.76583130     19.51582798
C       6.80080637      5.98887486     -1.81142964
C      11.18429442      1.03774970      4.72873187
C       9.84011186      1.72173219      4.99756789
C       9.95902100     -7.54856483     -7.37364680
C       5.66600181      6.88414487     -2.66663716
C       6.80355078     -3.55073983      5.10079352
H       7.88480345      6.26328250     -1.34384071
H       5.08911253     -8.28100524     -8.10432520
H       2.19495693     -1.42675812      3.01699010
H      -9.29845674     -2.27982476     24.37164303
H      -8.76948275    -11.91360962     17.58683669
H      13.84001574      6.77137901     10.62861420
H       6.45542525      1.34847728      8.46991952
H       6.24074480     13.98974737     18.60505779
H       5.01537555     15.50697903     18.24402985
H      -3.44591361     -0.88469374     -6.99681691
H       6.84387084      4.83340778     -1.45003024
H      -4.35808925     14.63018583      9.69987001
H      -0.70766323     -8.16285954     -0.25397186
H       3.59976774     -0.09561603      2.59235038
H       7.93071861     -3.54056357      5.61031871
H      10.86920503     -6.74931383     -7.40679178
H      -4.70157084     14.65256910     11.68090732
   94

C       7.14908683     -6.81363275     -7.68609591
C       5.70587547     -7.63963102     -7.24440264
H       7.41255932     -5.97708633     -6.80260555
C       3.76191181     -1.09441835      4.89045128
H     -18.89196965     -7.18333015     -1.80818464
H       4.70057483     -7.04349277     -6.83027921
C       4.59950045     -1.80737949      6.20804799
H       5.75399449     -8.46639838     -6.32105385
H      -7.81565104     -6.27964795    -16.91807173
H      -7.80790801     -7.04903999    -16.79010327
C       8.77563519      1.52549602      5.92182830
H      14.01819946      6.01937841     10.72892418
C       7.08126211     -2.59486813      3.87829811
H       6.56199721      5.93214716     -4.89304041
H       7.27209313     -1.84857032      2.99375004
H       2.82281873     -8.53830262     13.57766348
C       5.38686484     -3.35691973      6.02414928
H       4.60056755     -4.31093622      5.89964665
C       5.49363443      7.93489886     -5.42124822
H       5.53400623     -4.10299939      7.00895745
H       6.31224601      8.71592654     -5.85546970
H       4.51413054      8.43890875     -5.92418151
C       5.66041275      6.62419000     -4.39893173
H      10.37679619      4.04609210    -12.76521440
C       9.71005399      3.67053726    -11.92323301
H       9.87462782      2.36212132      3.90619377
H       4.95210245      5.69045182     -4.80584628
H      -3.00429499     13.84814106     10.96407993
C       8.54567029     -7.64841222     -8.25881596
H       3.09916664     -0.11507392      5.19350015
H     -19.27128903     -7.16729955     -1.12681850
C      -1.53411109     -8.64979394      0.42680922
H       3.49097172     -2.20508030      6.60183371
C       1.79539297     -8.37709924     14.17259722
H      -2.34498773     -9.12033217      1.11619415
H      -9.97051542    -12.02825924     15.60216024
H       1.42018447     -7.24806237     14.32079726
C      -3.95278805      0.02118369     -7.52364171
H       6.17507803      8.07164425     -2.54045033
C       4.13070895      7.08630258     -1.90309435
H      -4.45685736      0.92782436     -8.05100002
H       4.04111895      7.69878575     -0.82959588
H       3.50836006      6.06224617     -1.58977529
H       3.14850861      7.66203390     -2.38995397
H       8.82310655     -7.46752689     -9.45520860
H       8.44478801     -8.84379521     -8.57077114
H      10.38884792     -8.25455471     -6.47950832
H       5.34798911      1.83330298      7.20206264
H       4.31453488     -0.38934841      8.04690965
H       1.18324355     -9.31946955     14.59408581
H       6.81802385      1.68610398      4.82159508
H      -9.42674292     -2.95204761     23.99739691
H       4.78385062     13.79184121     17.27421245
H       3.36679940     13.38625894     20.36009843
H       5.80803777     -1.85164517      9.76184141
H      18.07366044      4.47652560     -0.64322480
H      -4.76134458     12.91578109     10.66996094
H      18.76382345      4.62490478     -0.31147783
H       3.77415940     -1.93719311      2.40643722
H       7.02906467     -4.68147027      4.54828048
H       6.89679554     -5.83843709     -8.42003255
H       7.28788004     -1.78038457      8.89053224
C       3.33599119     -1.16479095      3.25612056
C      -9.30861887    -11.98331784     16.55793069
C       6.08728832      0.84072413      7.19683092
C       5.31849938     -0.71274869      7.39293910
C       7.21865244      1.26885024      6.05274529
C       5.07502080     14.28630616     18.35950236
C       6.14227837     -1.45152370      8.66377707
C      -4.20643041     14.01175670     10.75379343
C       4.08804103     13.76589515     19.51591466
C       6.78663144      6.05631495     -1.85184469
C      11.25552291      0.94366060      4.71429746
C       9.94505173      1.71127669      4.89725059
C       9.95774505     -7.55683835     -7.37056128
C       5.65103837      6.95311493     -2.70375770
C       6.81299406     -3.59618091      5.10439592
H       7.87392866      6.32686122     -1.38969854
H       5.08708505     -8.28749460     -8.10209019
H       2.17080233     -1.49437045      3.00621016
H      -9.29844356     -2.27982378     24.37163533
H      -8.76911486    -11.91468147     17.58644825
H      13.84218239      6.77277776     10.62988823
H       6.55460010      1.38895881      8.20219083
H       6.24071571     13.98980888     18.60521549
H       5.01538319     15.50706674     18.24410379
H      -3.44863350     -0.88544821     -6.99634993
H       6.82859710      4.90019565     -1.49271835
H      -4.35830955     14.63038140      9.70005892
H      -0.72323521     -8.17929505     -0.26260444
H       3.56509369     -0.15228685      2.57951937
H       7.93573350     -3.58560982      5.62405508
H      10.86968619     -6.75963087     -7.40473941
H      -4.70177435     14.65274217     11.68109711
   94

C       7.14703305     -6.82917614     -7.68261248
C       5.70210377     -7.65205837     -7.24149615
H       7.41017742     -5.99227230     -6.79941239
C       3.72079622     -1.13632830      4.88460984
H     -18.89207397     -7.18336216     -1.80818673
H       4.69745998     -7.05498467     -6.82714255
C       4.61420786     -1.82454929      6.17374603
H       5.75016821     -8.47862446     -6.31811831
H      -7.81592514     -6.27977757    -16.91821914
H      -7.80816982     -7.04916848    -16.79024456
C       8.77094713      1.50186117      5.68757359
H      14.01979376      6.02041104     10.73038237
C       7.10174086     -2.66125532      3.87322909
H       6.51216588      6.03501717     -4.90268223
H       7.30461253     -1.94357168      2.96864254
H       2.82534017     -8.53954330     13.57720671
C       5.38882136     -3.38325720      6.01560679
H       4.59774876     -4.33314617      5.88655807
C       5.44569964      8.03860035     -5.43372475
H       5.52180597     -4.11831447      7.01196502
H       6.26109561      8.82524465     -5.86401755
H       4.46749132      8.53166714     -5.94989124
C       5.60825956      6.72624524     -4.41379341
H      10.33559435      3.68368798    -11.41939389
C       9.68164108      3.18672334    -10.62185424
H      10.08471899      2.44595962      3.88743218
H       4.90014280      5.79172340     -4.81946443
H      -3.00457029     13.84836577     10.96442904
C       8.54390401     -7.66270798     -8.25601862
H       3.02138341     -0.18476869      5.20075675
H     -19.27138747     -7.16732925     -1.12681737
C      -1.54954677     -8.66578137      0.41877092
H       3.52307071     -2.21361961      6.62264275
C       1.79799615     -8.37599546     14.17184154
H      -2.36031034     -9.13598078      1.10851478
H      -9.97062321    -12.02939298     15.60094299
H       1.41976679     -7.24819272     14.32187255
C      -3.95575126      0.02054484     -7.52341312
H       6.14539750      8.15906185     -2.55211094
C       4.09938962      7.16022701     -1.92044974
H      -4.45956375      0.92729605     -8.05082985
H       4.00967157      7.76487611     -0.84303057
H       3.48086435      6.13192206     -1.61358992
H       3.11562385      7.73609057     -2.40412567
H       8.82145175     -7.48163641     -9.45237904
H       8.44253620     -8.85780110     -8.56875558
H      10.38435575     -8.26783267     -6.47340433
H       5.40838222      1.85826026      6.93975866
H       4.41382340     -0.29465320      7.95357554
H       1.18481218     -9.31733369     14.59381223
H       6.80897881      1.81365109      4.35573538
H      -9.42672788     -2.95204825     23.99739186
H       4.78384911     13.79191988     17.27431553
H       3.36681868     13.38622762     20.36019750
H       5.84756029     -1.77013768      9.67160059
H      18.07930137      4.47787304     -0.64020168
H      -4.76161976     12.91598984     10.67029674
H      18.76959119      4.62626694     -0.30873058
H       3.76346563     -1.99975931      2.41836106
H       7.03490600     -4.73347898      4.56852047
H       6.89352842     -5.85473308     -8.41700239
H       7.31629517     -1.73463196      8.83298048
C       3.30576678     -1.22184109      3.25185257
C      -9.31507831    -11.98313697     16.56102232
C       6.14219826      0.86297262      6.94124468
C       5.37736671     -0.67374997      7.27051357
C       7.20811074      1.28586200      5.72653357
C       5.07501753     14.28635348     18.35961976
C       6.18467510     -1.38956887      8.56654155
C      -4.20670534     14.01196476     10.75413025
C       4.08802910     13.76591969     19.51601274
C       6.76017324      6.13850716     -1.87443028
C      11.31545198      0.86529712      4.71609756
C      10.04134514      1.70118143      4.80980537
C       9.95566243     -7.57204866     -7.36714980
C       5.62213509      7.04062397     -2.71659128
C       6.82174826     -3.64178848      5.11241910
H       7.85341799      6.40235385     -1.42240120
H       5.08301267     -8.29904221     -8.09950779
H       2.14375234     -1.56415517      3.00678246
H      -9.29842794     -2.27982412     24.37162954
H      -8.76872932    -11.91575929     17.58600719
H      13.84369122      6.77378196     10.63127958
H       6.65248652      1.42220320      7.91510285
H       6.24069364     13.98982619     18.60538440
H       5.01539809     15.50711161     18.24418887
H      -3.45176449     -0.88618144     -6.99611995
H       6.80272344      4.98005243     -1.52300699
H      -4.35860284     14.63061284      9.70041262
H      -0.73878472     -8.19565264     -0.27102479
H       3.52310092     -0.21066405      2.57061140
H       7.94008288     -3.63088060      5.64194171
H      10.87033394     -6.77804135     -7.40298076
H      -4.70204125     14.65294165     11.68144349
   94

C       7.14268126     -6.85684339     -7.68119176
C       5.69468994     -7.67314548     -7.23937103
H       7.40538682     -6.01982051     -6.79811832
C       3.68457180     -1.17229487      4.88366016
H     -18.89215665     -7.18338645     -1.80819480
H       4.69148074     -7.07377208     -6.82488471
C       4.63206176     -1.83681355      6.14171643
H       5.74258829     -8.49882379     -6.31547570
H      -7.81603200     -6.27978217    -16.91832553
H      -7.80828766     -7.04917374    -16.79035415
C       8.75736269      1.44407973      5.41080166
H      14.02063061      6.02112228     10.73179861
C       7.12164293     -2.73035456      3.87039351
H       6.42978340      6.17691502     -4.90977883
H       7.33596838     -2.04401933      2.94506633
H       2.82791933     -8.54058212     13.57662520
C       5.39097225     -3.40583437      6.01096410
H       4.59349619     -4.35031664      5.87882121
C       5.37864884      8.18106647     -5.43985075
H       5.50898776     -4.12837655      7.01954197
H       6.19916581      8.95290250     -5.88649652
H       4.40773529      8.65283151     -5.98804077
C       5.52553882      6.86658626     -4.42185828
H      10.42340446      3.19392103    -10.11636289
C       9.85068917      2.56021829     -9.34282300
H      10.27181595      2.54983207      3.92438109
H       4.81568922      5.93431599     -4.83020263
H      -3.00490832     13.84860976     10.96494112
C       8.54048557     -7.68790159     -8.25507028
H       2.95616438     -0.24551554      5.21420777
H     -19.27146567     -7.16735237     -1.12682297
C      -1.56485183     -8.68143258      0.41095543
H       3.56042203     -2.21171691      6.64738902
C       1.80066534     -8.37470087     14.17097232
H      -2.37551323     -9.15136476      1.10099592
H      -9.97066757    -12.03051936     15.59973480
H       1.41941600     -7.24814073     14.32282081
C      -3.95779647      0.02036203     -7.52379865
H       6.09556297      8.27437293     -2.55455587
C       4.05083615      7.25385055     -1.92451504
H      -4.46127426      0.92724358     -8.05130848
H       3.96214942      7.84633429     -0.84083220
H       3.43907507      6.21890932     -1.62620063
H       3.06351336      7.82941613     -2.40126800
H       8.81819766     -7.50664065     -9.45141226
H       8.43783303     -8.88251387     -8.56881640
H      10.37667320     -8.29279502     -6.46688131
H       5.47354950      1.87458348      6.65705969
H       4.52174987     -0.19254714      7.84766398
H       1.18646816     -9.31501675     14.59343352
H       6.82373463      1.88552137      3.85718318
H      -9.42670715     -2.95204916     23.99738186
H       4.78385687     13.79195087     17.27441941
H       3.36684366     13.38616588     20.36029726
H       5.88678515     -1.68210536      9.57722204
H      18.08712956      4.48039066     -0.63464183
H      -4.76195642     12.91621819     10.67079143
H      18.77778603      4.62866023     -0.30389073
H       3.75009281     -2.05866581      2.43607933
H       7.03846039     -4.78590178      4.59397109
H       6.88717336     -5.88377059     -8.41648116
H       7.34516868     -1.68075649      8.77463854
C       3.27540485     -1.27513904      3.25405334
C      -9.32158096    -11.98293359     16.56413750
C       6.19818161      0.87409208      6.67203350
C       5.44053398     -0.63382948      7.14187868
C       7.19329390      1.28749153      5.38648452
C       5.07502292     14.28635889     18.35973552
C       6.22919190     -1.32221961      8.46590244
C      -4.20704259     14.01219262     10.75462839
C       4.08802545     13.76590719     19.51611089
C       6.71630889      6.24689170     -1.89314330
C      11.36489636      0.81289578      4.73814996
C      10.12522941      1.69798312      4.73441578
C       9.95154266     -7.60004526     -7.36474146
C       5.57379314      7.15602705     -2.72137134
C       6.82961505     -3.68713304      5.12437526
H       7.81405719      6.50386950     -1.44779217
H       5.07484238     -8.31869979     -8.09764425
H       2.11587122     -1.62983922      3.01758849
H      -9.29840695     -2.27982493     24.37161927
H      -8.76832504    -11.91683440     17.58550376
H      13.84450701      6.77447975     10.63262941
H       6.75165570      1.44535739      7.61054167
H       6.24068004     13.98980057     18.60555119
H       5.01542192     15.50711471     18.24427366
H      -3.45415210     -0.88650975     -6.99643074
H       6.75798924      5.08669780     -1.54704634
H      -4.35896958     14.63087752      9.70093721
H      -0.75419719     -8.21159201     -0.27915778
H       3.47884928     -0.26588464      2.56696825
H       7.94357801     -3.67599974      5.66347414
H      10.87172500     -6.81260669     -7.40420022
H      -4.70236942     14.65316054     11.68195193
   94

C       7.13351054     -6.89968206     -7.69093860
C       5.68199646     -7.70501694     -7.24270993
H       7.39639216     -6.06419433     -6.80682084
C       3.65454369     -1.20000043      4.88734596
H     -18.89220581     -7.18339620     -1.80820418
H       4.68148339     -7.10154582     -6.82765390
C       4.65432337     -1.84269971      6.11144143
H       5.73020794     -8.52862789     -6.31737978
H      -7.81598566     -6.27968208    -16.91838252
H      -7.80827157     -7.04907611    -16.79042401
C       8.73765064      1.34722145      5.06408440
H      14.02091458      6.02181261     10.73320447
C       7.14075481     -2.80163288      3.86932176
H       6.34569191      6.34539386     -4.95533795
H       7.36490467     -2.14888798      2.92296163
H       2.83055273     -8.54138224     13.57584138
C       5.39361111     -3.42350675      6.00948738
H       4.58789608     -4.36104616      5.87542776
C       5.31624083      8.34667187     -5.47802813
H       5.49581847     -4.13229147      7.03067409
H       6.15214347      9.07557489     -5.96623219
H       4.35857209      8.78901342     -6.07143035
C       5.44148908      7.02928023     -4.46114490
H      10.57274854      2.54575709     -8.60838884
C      10.08366001      1.94164522     -7.74713697
H      10.40626592      2.66093792      4.02015230
H       4.73047160      6.10095825     -4.87690159
H      -3.00518490     13.84877786     10.96540536
C       8.53403847     -7.72640568     -8.26302027
H       2.90465080     -0.29446681      5.23429828
H     -19.27151180     -7.16736205     -1.12683066
C      -1.57998502     -8.69657287      0.40347330
H       3.60441662     -2.19775645      6.67478379
C       1.80340183     -8.37317920     14.16992056
H      -2.39055638     -9.16633390      1.09372955
H      -9.97064194    -12.03162252     15.59852826
H       1.41913401     -7.24786875     14.32356465
C      -3.95834199      0.02067185     -7.52475903
H       6.02957646      8.41378269     -2.58793515
C       3.99444841      7.36176427     -1.95305547
H      -4.46158098      0.92764954     -8.05232414
H       3.90554014      7.93895215     -0.86137475
H       3.39188515      6.31844436     -1.66452039
H       3.00217897      7.93544782     -2.42120796
H       8.81252152     -7.54360725     -9.45901498
H       8.42868600     -8.92001570     -8.57887950
H      10.36312212     -8.33564766     -6.46540017
H       5.54569378      1.88060469      6.36414998
H       4.64116162     -0.08412688      7.72755683
H       1.18821852     -9.31247991     14.59289509
H       6.86001077      1.90221967      3.32654094
H      -9.42667336     -2.95204436     23.99735092
H       4.78386548     13.79193031     17.27445278
H       3.36687416     13.38607412     20.36034041
H       5.92742143     -1.58761612      9.47739255
H      18.10072616      4.48618743     -0.62433603
H      -4.76222814     12.91637373     10.67124280
H      18.79212786      4.63372445     -0.29484842
H       3.73601781     -2.10961181      2.45840011
H       7.03984572     -4.83784715      4.62413877
H       6.87591656     -5.92772940     -8.42672720
H       7.37598776     -1.61930760      8.71391348
C       3.24792165     -1.31982274      3.26180111
C      -9.32810548    -11.98269615     16.56725719
C       6.25785119      0.87262077      6.39052094
C       5.51028300     -0.59302628      7.00585616
C       7.17355408      1.27621363      5.03370504
C       5.07502673     14.28631618     18.35978003
C       6.27757224     -1.24992634      8.36049191
C      -4.20732003     14.01234976     10.75509128
C       4.08802348     13.76585402     19.51614431
C       6.66369732      6.38629998     -1.93551803
C      11.39398969      0.78829155      4.79457989
C      10.18484907      1.70344152      4.67890223
C       9.94346071     -7.64711972     -7.36919818
C       5.51465913      7.29290103     -2.75778779
C       6.83676347     -3.73138391      5.13975664
H       7.75294694      6.64848086     -1.47228567
H       5.06019753     -8.34876009     -8.10044073
H       2.08975888     -1.68398919      3.03615020
H      -9.29837337     -2.27982027     24.37158865
H      -8.76789967    -11.91789281     17.58492728
H      13.84476830      6.77514861     10.63391163
H       6.86142169      1.45269066      7.28746923
H       6.24066486     13.98972812     18.60564876
H       5.01544505     15.50707013     18.24429031
H      -3.45510574     -0.88637863     -6.99731664
H       6.69422477      5.23409624     -1.56251398
H      -4.35928449     14.63107887      9.70143192
H      -0.76943583     -8.22693486     -0.28689501
H       3.43922229     -0.31259665      2.56955628
H       7.94643497     -3.71998271      5.68803752
H      10.87554123     -6.87441689     -7.41852235
H      -4.70263775     14.65330471     11.68242809
   94

C       7.12206794     -6.93565486     -7.72307478
C       5.67120359     -7.73231039     -7.25884936
H       7.38707724     -6.10399608     -6.83657855
C       3.63265504     -1.21806709      4.89588502
H     -18.89221818     -7.18338885     -1.80821075
H       4.67320257     -7.12602170     -6.84172216
C       4.68168231     -1.84225213      6.08341221
H       5.72183909     -8.55347877     -6.33166891
H      -7.81587971     -6.27956328    -16.91841121
H      -7.80819509     -7.04895989    -16.79046646
C       8.72796541      1.25565278      4.67865910
H      14.02108969      6.02275394     10.73487735
C       7.16081267     -2.87150678      3.87383743
H       6.32527153      6.47414832     -5.04679196
H       7.39144653     -2.25135015      2.90809838
H       2.83314509     -8.54210487     13.57502098
C       5.39714170     -3.43618026      6.01179982
H       4.58164866     -4.36528480      5.87603791
C       5.30125930      8.46013646     -5.58232127
H       5.48236394     -4.13042437      7.04559429
H       6.14677757      9.15648260     -6.10075636
H       4.34936471      8.88802146     -6.19482368
C       5.41608032      7.15072296     -4.55202508
H      10.60631817      1.85070578     -6.68189403
C      10.06917971      1.34771211     -5.77358204
H      10.46638620      2.75044466      4.15941467
H       4.70916646      6.22094379     -4.97117536
H      -3.00524644     13.84877010     10.96551387
C       8.52836962     -7.75641206     -8.28809318
H       2.86810514     -0.33020217      5.26135732
H     -19.27152234     -7.16735510     -1.12683620
C      -1.59498388     -8.71141258      0.39629206
H       3.65544145     -2.17234952      6.70357557
C       1.80610228     -8.37157475     14.16883184
H      -2.40548217     -9.18103090      1.08672517
H      -9.97056362    -12.03270708     15.59733471
H       1.41881275     -7.24752533     14.32426353
C      -3.95786354      0.02116910     -7.52596093
H       5.96150652      8.55924905     -2.68981092
C       3.94675943      7.46948894     -2.04634327
H      -4.46101355      0.92821898     -8.05347781
H       3.84295642      8.04208876     -0.95304473
H       3.35345462      6.41931743     -1.76216694
H       2.95218038      8.03252606     -2.52137858
H       8.80851170     -7.56951518     -9.48306179
H       8.42056297     -8.94873358     -8.60697890
H      10.35202804     -8.37490042     -6.48347559
H       5.62482427      1.87237247      6.06705750
H       4.77151446      0.02636609      7.59380492
H       1.18995089     -9.30986933     14.59232333
H       6.90146992      1.88163280      2.79258028
H      -9.42663637     -2.95203080     23.99730408
H       4.78385329     13.79189362     17.27438442
H       3.36689659     13.38598212     20.36030352
H       5.96832210     -1.48841611      9.37385417
H      18.12330464      4.49790512     -0.61405412
H      -4.76227969     12.91635842     10.67134872
H      18.81511078      4.64301763     -0.28441114
H       3.72291743     -2.15186288      2.48621262
H       7.04048281     -4.88732205      4.65987209
H       6.86453769     -5.96219780     -8.45683589
H       7.40752030     -1.55292588      8.65289438
C       3.22559917     -1.35374893      3.27513337
C      -9.33465336    -11.98243420     16.57038102
C       6.32290016      0.85571689      6.10312006
C       5.58672132     -0.55363146      6.86417019
C       7.16410255      1.24621580      4.68375606
C       5.07500702     14.28625793     18.35972346
C       6.32900214     -1.17532641      8.25204371
C      -4.20738487     14.01233957     10.75521714
C       4.08800321     13.76579237     19.51608504
C       6.62873118      6.56310325     -1.99564318
C      11.38177781      0.77696698      4.88593213
C      10.20036305      1.69985132      4.63205908
C       9.93646756     -7.68892621     -7.39121427
C       5.46964959      7.42608995     -2.85062198
C       6.84424386     -3.77312501      5.16029599
H       7.68994763      6.86588829     -1.49242355
H       5.04642528     -8.37568243     -8.11418843
H       2.06736746     -1.72294689      3.06169172
H      -9.29833672     -2.27980688     24.37154222
H      -8.76747534    -11.91894097     17.58428728
H      13.84486264      6.77604263     10.63536823
H       6.97687222      1.43980856      6.95651128
H       6.24062618     13.98964447     18.60565111
H       5.01544571     15.50701016     18.24420548
H      -3.45499114     -0.88609708     -6.99855256
H       6.63067304      5.45162118     -1.51396213
H      -4.35937944     14.63110128      9.70158134
H      -0.78454106     -8.24201790     -0.29435978
H       3.40987670     -0.34896856      2.57872111
H       7.94946132     -3.76140024      5.71782415
H      10.88283504     -6.93512897     -7.45757277
H      -4.70269672     14.65327775     11.68256859
   94

C       7.12103248     -6.92505824     -7.75318749
C       5.67627846     -7.72645159     -7.27741250
H       7.38854808     -6.09369059     -6.86758139
C       3.61727048     -1.22900770      4.91273520
H     -18.89220599     -7.18337223     -1.80821725
H       4.67707825     -7.12336647     -6.85828997
C       4.70999761     -1.84000539      6.06251336
H       5.73008738     -8.54777632     -6.35028139
H      -7.81577504     -6.27950633    -16.91840068
H      -7.80809736     -7.04890359    -16.79045944
C       8.73852716      1.21037679      4.34990782
H      14.02138442      6.02377971     10.73651578
C       7.18358981     -2.93525714      3.89536440
H       6.39498400      6.49429600     -5.13600765
H       7.41874704     -2.33775987      2.91764317
H       2.83545833     -8.54329583     13.57481259
C       5.39961885     -3.44699529      6.02222912
H       4.57414389     -4.36695747      5.88277526
C       5.34755459      8.44625716     -5.73577006
H       5.46605386     -4.12685953      7.06794939
H       6.18671380      9.15860028     -6.24202186
H       4.38680262      8.89439151     -6.31865730
C       5.47430216      7.17187080     -4.66236643
H      10.32403474      1.28131066     -4.68669759
C       9.62160310      0.81357791     -3.86682475
H      10.46830043      2.79818239      4.30167816
H       4.77692133      6.22962988     -5.06817463
H      -3.00510121     13.84863994     10.96524481
C       8.53228324     -7.74298870     -8.30985720
H       2.84292811     -0.35621780      5.29813147
H     -19.27151014     -7.16733902     -1.12684268
C      -1.60995662     -8.72634076      0.38917321
H       3.70823251     -2.14258056      6.73533362
C       1.80849402     -8.37038346     14.16827591
H      -2.42039258     -9.19577928      1.07979469
H      -9.97049379    -12.03381956     15.59620272
H       1.41816707     -7.24762323     14.32556053
C      -3.95694676      0.02161052     -7.52687950
H       5.91916118      8.67158920     -2.84340657
C       3.93138618      7.55439508     -2.18231250
H      -4.46012046      0.92872434     -8.05425585
H       3.79948454      8.14106926     -1.09862023
H       3.34620940      6.50191848     -1.88908821
H       2.93800510      8.09639412     -2.68294217
H       8.81362338     -7.55391122     -9.50408279
H       8.42588652     -8.93530381     -8.62896902
H      10.35910430     -8.36408887     -6.51050272
H       5.69659008      1.84627423      5.78059243
H       4.90020829      0.12715709      7.45906951
H       1.19135022     -9.30769457     14.59218965
H       6.90451894      1.87715718      2.33035591
H      -9.42663673     -2.95201660     23.99729451
H       4.78382142     13.79190749     17.27428127
H       3.36690941     13.38594932     20.36024820
H       6.00454820     -1.39156507      9.27620478
H      18.13562017      4.50628109     -0.62181371
H      -4.76212501     12.91622727     10.67108558
H      18.82580937      4.64878176     -0.28770719
H       3.71054803     -2.18925645      2.52435352
H       7.04110226     -4.93352075      4.70497761
H       6.86504856     -5.94948513     -8.48495572
H       7.43402283     -1.48725976      8.59997441
C       3.20696867     -1.38023618      3.29756717
C      -9.34127147    -11.98219865     16.57354755
C       6.38202416      0.82272779      5.83546621
C       5.66000762     -0.52214628      6.72935485
C       7.17456044      1.18765269      4.37283263
C       5.07496669     14.28624909     18.35963306
C       6.37703794     -1.10567246      8.15000058
C      -4.20724320     14.01221396     10.75497066
C       4.08796517     13.76578758     19.51599881
C       6.63989856      6.73664605     -2.06533469
C      11.32847744      0.75971874      4.98491404
C      10.19070163      1.68061430      4.56910805
C       9.94137122     -7.67486476     -7.41473286
C       5.46335378      7.51845734     -2.97354568
C       6.85178839     -3.81309053      5.19277388
H       7.68421417      7.09750734     -1.56341898
H       5.05076972     -8.37201548     -8.13063960
H       2.04750612     -1.75063990      3.09710789
H      -9.29833627     -2.27979231     24.37153171
H      -8.76711716    -11.92002608     17.58363151
H      13.84502345      6.77700024     10.63672789
H       7.07386911      1.41068942      6.65094567
H       6.24056720     13.98961471     18.60562431
H       5.01542735     15.50699885     18.24407701
H      -3.45427221     -0.88585796     -6.99963955
H       6.61821126      5.69748414     -1.44366086
H      -4.35924182     14.63097661      9.70133572
H      -0.79963567     -8.25730231     -0.30185453
H       3.38995074     -0.37890218      2.59715861
H       7.95175070     -3.80176417      5.76082098
H      10.88678820     -6.92014027     -7.48499456
H      -4.70255592     14.65313945     11.68233083
   94

C       7.13107687     -6.88002149     -7.74710914
C       5.69084850     -7.69384952     -7.27706255
H       7.39864115     -6.04475499     -6.86494956
C       3.60703186     -1.23872340      4.94027818
H     -18.89216993     -7.18335323     -1.80822627
H       4.68850132     -7.09614364     -6.85774506
C       4.73529132     -1.84379014      6.05335074
H       5.74525994     -8.51788085     -6.35198169
H      -7.81563228     -6.27949594    -16.91830978
H      -7.80794236     -7.04889199    -16.79036211
C       8.75637463      1.19777588      4.11428336
H      14.02166031      6.02446826     10.73715606
C       7.20850499     -2.99067628      3.93179773
H       6.46172582      6.46760141     -5.22113256
H       7.44942117     -2.40259524      2.95108978
H       2.83733137     -8.54551997     13.57567045
C       5.40089573     -3.46185546      6.04023652
H       4.56683201     -4.37309420      5.89311516
C       5.39297332      8.39848859     -5.86959132
H       5.44772522     -4.12974306      7.09569017
H       6.22142483      9.13826631     -6.35376785
H       4.42213482      8.87090759     -6.41578443
C       5.53595722      7.15237688     -4.76519068
H       9.95322334      1.01655702     -3.13438020
C       9.03923761      0.55065341     -2.54480533
H      10.44447306      2.80743958      4.40596874
H       4.84199786      6.19953064     -5.15074441
H      -3.00480889     13.84846642     10.96476050
C       8.54019084     -7.70200105     -8.30443391
H       2.82496808     -0.38089649      5.34729407
H     -19.27147741     -7.16732116     -1.12685353
C      -1.62387385     -8.74050312      0.38165054
H       3.75736217     -2.12090191      6.77144039
C       1.81039598     -8.37013380     14.16865878
H      -2.43432215     -9.20992784      1.07226669
H      -9.97046958    -12.03499506     15.59515622
H       1.41701356     -7.24870585     14.32794813
C      -3.95538033      0.02182495     -7.52691459
H       5.93256553      8.71484351     -2.97515852
C       3.96025715      7.59344507     -2.29076173
H      -4.45881891      0.92885138     -8.05418684
H       3.82718153      8.18367438     -1.20872855
H       3.37565485      6.54280427     -1.99001764
H       2.96650562      8.13131688     -2.79493829
H       8.82151694     -7.51388553     -9.49873083
H       8.43686797     -8.89508682     -8.62242020
H      10.37003507     -8.31804806     -6.51062361
H       5.75473407      1.80067548      5.54290481
H       5.01527366      0.20260059      7.34408288
H       1.19218696     -9.30648867     14.59281720
H       6.77421391      2.03628757      2.04861013
H      -9.42670349     -2.95201334     23.99736380
H       4.78379595     13.79198614     17.27417492
H       3.36693626     13.38600415     20.36020752
H       6.03372200     -1.31326447      9.19634205
H      18.12544801      4.50209698     -0.63629940
H      -4.76183652     12.91606719     10.67061954
H      18.81408545      4.64504961     -0.29915814
H       3.70191331     -2.22425523      2.57258101
H       7.04310472     -4.97595967      4.75391233
H       6.87551846     -5.90490016     -8.47992386
H       7.45219553     -1.43439590      8.56393899
C       3.19207785     -1.40549910      3.33094542
C      -9.34798196    -11.98202914     16.57677063
C       6.43039105      0.77303479      5.61731224
C       5.72098983     -0.50742186      6.61813214
C       7.19533759      1.10166479      4.12598429
C       5.07493283     14.28630653     18.35953894
C       6.41645742     -1.05497442      8.06621781
C      -4.20695230     14.01205323     10.75450227
C       4.08793527     13.76586344     19.51591830
C       6.68292092      6.80598283     -2.17735017
C      11.25713662      0.73248734      5.05853084
C      10.17825658      1.65988971      4.51051218
C       9.94987284     -7.62549462     -7.41106731
C       5.48860691      7.55507825     -3.08881814
C       6.85920519     -3.85192934      5.23408441
H       7.73517019      7.16804380     -1.69500361
H       5.06733161     -8.34127986     -8.13087983
H       2.03141219     -1.77672853      3.14334247
H      -9.29840019     -2.27978787     24.37159791
H      -8.76686677    -11.92118473     17.58298435
H      13.84512003      6.77760932     10.63708652
H       7.15163558      1.36224333      6.40125043
H       6.24051558     13.98965339     18.60559314
H       5.01541811     15.50705262     18.24392886
H      -3.45244290     -0.88557184     -6.99980408
H       6.66095926      5.77658740     -1.54179140
H      -4.35892538     14.63078212      9.70084338
H      -0.81357031     -8.27153065     -0.30944037
H       3.37578375     -0.40741045      2.62737681
H       7.95289973     -3.84218304      5.81430646
H      10.88455189     -6.85653687     -7.47001648
H      -4.70227061     14.65298286     11.68185724
   94

C       7.14142370     -6.83707410     -7.72198158
C       5.70268028     -7.66119897     -7.26365295
H       7.40752298     -5.99826288     -6.84206852
C       3.60581456     -1.25078861      4.96206776
H     -18.89211320     -7.18333837     -1.80823451
H       4.69857302     -7.06664716     -6.84422974
C       4.76499568     -1.85302501      6.03877863
H       5.75648333     -8.48770531     -6.34047532
H      -7.81545615     -6.27947857    -16.91816580
H      -7.80775247     -7.04887329    -16.79021105
C       8.75010113      1.21604291      3.90952073
H      14.02089708      6.02375795     10.73595944
C       7.23805310     -3.03787502      3.95469338
H       6.49226055      6.44879716     -5.31482955
H       7.48568849     -2.46479277      2.96806189
H       2.83939031     -8.54774275     13.57609996
C       5.40941316     -3.47981883      6.04882022
H       4.56821912     -4.38340797      5.89408782
C       5.41886041      8.39116328     -5.94533819
H       5.43951323     -4.13685416      7.11261626
H       6.24158905      9.14574802     -6.41641782
H       4.44326006      8.87791379     -6.47058476
C       5.57187568      7.13749849     -4.85178970
H       9.62861592      1.09471940     -1.76412347
C       8.62919292      0.56389699     -1.39241199
H      10.39987503      2.79916311      4.45696465
H       4.87013040      6.18817696     -5.23164996
H      -3.00459616     13.84837798     10.96439105
C       8.54442413     -7.66564935     -8.28655541
H       2.81666467     -0.40974007      5.39346394
H     -19.27142607     -7.16730800     -1.12686473
C      -1.63629718     -8.75355293      0.37336373
H       3.81239867     -2.10607067      6.79922973
C       1.81253100     -8.36989685     14.16869316
H      -2.44687926     -9.22326094      1.06364540
H      -9.97038547    -12.03621153     15.59409387
H       1.41609948     -7.24981145     14.32999606
C      -3.95312062      0.02181359     -7.52614170
H       5.99229385      8.69214412     -3.04739277
C       4.00677142      7.59603064     -2.35951813
H      -4.45702058      0.92858465     -8.05341964
H       3.89441873      8.17682814     -1.27010729
H       3.40879323      6.55222937     -2.06171202
H       3.01654126      8.15284953     -2.84979241
H       8.82525309     -7.47853142     -9.48111891
H       8.44321259     -8.85918762     -8.60464584
H      10.37346404     -8.27644805     -6.49309257
H       5.80571732      1.73822010      5.33226643
H       5.13227528      0.25814130      7.22428493
H       1.19327382     -9.30528394     14.59314853
H       6.50420114      2.32194452      1.83830002
H      -9.42677106     -2.95202474     23.99744166
H       4.78378698     13.79205379     17.27411062
H       3.36697788     13.38605864     20.36020610
H       6.06419814     -1.24678293      9.11292627
H      18.11217069      4.49486038     -0.64456914
H      -4.76163732     12.91600159     10.67026958
H      18.80022965      4.63936215     -0.30686731
H       3.70339088     -2.25876264      2.61174693
H       7.05250014     -5.01180646      4.78578675
H       6.88555534     -5.86317576     -8.45643666
H       7.47086910     -1.38923153      8.52486335
C       3.18569569     -1.43455521      3.35869875
C      -9.35489658    -11.98185282     16.58008055
C       6.47398643      0.70566936      5.39640846
C       5.78364792     -0.50612916      6.50400160
C       7.19251334      1.03796030      3.86873925
C       5.07491730     14.28635769     18.35948434
C       6.45709489     -1.01724871      7.97933660
C      -4.20673756     14.01198169     10.75413225
C       4.08792257     13.76593965     19.51587941
C       6.70954140      6.76056057     -2.28522950
C      11.16405244      0.70172295      5.08489926
C      10.14453679      1.64352683      4.44392543
C       9.95386857     -7.58345337     -7.39336103
C       5.52396993      7.54378800     -3.17564159
C       6.87238761     -3.88540757      5.26043088
H       7.77807370      7.06768747     -1.80483332
H       5.08079031     -8.30935498     -8.11861742
H       2.02500653     -1.81106539      3.18637616
H      -9.29846589     -2.27979839     24.37167357
H      -8.76660741    -11.92238929     17.58224373
H      13.84435918      6.77690287     10.63591703
H       7.22864791      1.28197932      6.15439587
H       6.24048201     13.98968161     18.60559787
H       5.01542930     15.50709993     18.24381707
H      -3.44952523     -0.88519852     -6.99898994
H       6.69664854      5.66620933     -1.77304990
H      -4.35867223     14.63066500      9.70044066
H      -0.82581441     -8.28411408     -0.31721676
H       3.36585904     -0.43846994      2.65254682
H       7.95989650     -3.87623768      5.85242316
H      10.88072763     -6.80440704     -7.44195883
H      -4.70206183     14.65293174     11.68147056
   94

C       7.14948999     -6.80350186     -7.69234628
C       5.71112937     -7.63465125     -7.24427892
H       7.41318224     -5.96249989     -6.81311416
C       3.63777315     -1.20551669      4.94104226
H     -18.89185999     -7.18329685     -1.80818867
H       4.70643154     -7.04175471     -6.82414399
C       4.83738771     -1.81675219      5.95673721
H       5.76477127     -8.46259121     -6.32225358
H      -7.81523282     -6.27941550    -16.91792814
H      -7.80752163     -7.04880949    -16.78996947
C       8.80012822      1.17209439      3.53115063
H      14.01585007      6.01792583     10.72756150
C       7.32260593     -3.04286732      3.90791536
H       6.53880157      6.41478384     -5.36264128
H       7.59832939     -2.48306661      2.91846157
H       2.84319639     -8.54910385     13.57083210
C       5.44041991     -3.46077245      5.99479961
H       4.58763096     -4.34949855      5.81572521
C       5.45697438      8.37945781     -5.94158299
H       5.43900925     -4.10769210      7.06704672
H       6.27410404      9.13899271     -6.41482955
H       4.48078926      8.86749434     -6.46618669
C       5.62589255      7.09993070     -4.87947576
H       8.08614733      1.44459003      0.78243904
C       7.36489134      1.29413120      1.73923266
H      10.30590441      2.78680672      4.35825492
H       4.91104679      6.16432042     -5.26970531
H      -3.00408555     13.84794160     10.96389429
C       8.54682649     -7.63718047     -8.26488896
H       2.84577623     -0.38863204      5.41819416
H     -19.27118577     -7.16726916     -1.12682601
C      -1.64419417     -8.76066075      0.36729175
H       3.92652502     -2.03167147      6.77838492
C       1.81702460     -8.36701737     14.16377763
H      -2.45519644     -9.23155742      1.05628876
H      -9.97000229    -12.03715339     15.59280125
H       1.41435033     -7.24966596     14.32893548
C      -3.95008093      0.02188444     -7.52418447
H       6.12013536      8.56182567     -3.03149759
C       4.08643572      7.54478315     -2.37622373
H      -4.45424832      0.92846258     -8.05155203
H       3.99250785      8.11935816     -1.28202390
H       3.46317558      6.51474297     -2.08284229
H       3.10897230      8.13123094     -2.85899820
H       8.82735326     -7.45027369     -9.45958212
H       8.44741040     -8.83081410     -8.58416469
H      10.37148578     -8.24168066     -6.46656338
H       5.90720039      1.63577572      4.79893984
H       5.36749843      0.40482769      6.92316380
H       1.19629954     -9.30045428     14.58981355
H       7.01592228      1.68353097      0.65915037
H      -9.42675544     -2.95204824     23.99740376
H       4.78383497     13.79198868     17.27397354
H       3.36707992     13.38602887     20.36016153
H       6.08170279     -1.10824868      8.89696166
H      18.06949782      4.47561687     -0.64462133
H      -4.76113507     12.91559780     10.66978309
H      18.75967138      4.62399260     -0.31289178
H       3.76376427     -2.22619923      2.61307014
H       7.08849240     -4.99661279      4.75235364
H       6.89289575     -5.83064770     -8.42789697
H       7.46952123     -1.27067933      8.41550497
C       3.24006516     -1.38379811      3.33551939
C      -9.36120929    -11.98157325     16.58298376
C       6.55891734      0.60284593      4.93739758
C       5.91104479     -0.46159541      6.23440297
C       7.25485533      0.91586750      3.37036753
C       5.07495762     14.28627279     18.35935893
C       6.51449289     -0.90072201      7.77168925
C      -4.20622018     14.01157358     10.75361368
C       4.08798204     13.76589133     19.51578929
C       6.73667413      6.54849795     -2.31811132
C      11.01189823      0.65892084      5.01660717
C      10.10761779      1.62555619      4.24303173
C       9.95525439     -7.55138493     -7.37038980
C       5.60517753      7.43678125     -3.18492156
C       6.91188906     -3.86811052      5.22123803
H       7.82838310      6.80043735     -1.85570377
H       5.09032629     -8.28305678     -8.10016998
H       2.07314924     -1.73854678      3.16844497
H      -9.29845674     -2.27982476     24.37164303
H      -8.76608192    -11.92334586     17.58128856
H      13.84001575      6.77137902     10.62861423
H       7.35020453      1.18167564      5.64533233
H       6.24048998     13.98955388     18.60557626
H       5.01550809     15.50700748     18.24358696
H      -3.44591357     -0.88469371     -6.99681691
H       6.75133154      5.40036590     -1.93459603
H      -4.35808925     14.63018583      9.69987001
H      -0.83319192     -8.28976414     -0.32170530
H       3.45647304     -0.38884849      2.63938720
H       7.98092730     -3.86761025      5.84749595
H      10.87761038     -6.76662590     -7.41185568
H      -4.70157084     14.65256910     11.68090732
