   94

C       6.90957555     -7.25737927    -13.22222241
C      -3.33980010    -13.05152339    -10.13445385
H       7.58956344     -6.53024424    -12.55377857
C      -1.00162452     -0.91703081      8.15858123
H      -5.63758546      8.35328214     -3.06382518
H       3.03068688     -2.95098480      8.56865750
C       0.27369722     -1.27257793      9.15626975
H       6.57496638     -8.32647664    -12.79444490
H      -9.00629938     -6.97077983    -19.18209263
H      -8.99858819     -7.74017383    -19.05413396
C       4.62151654      0.44331073     -3.84620431
H      16.72377501      5.80178502     13.90396682
C       8.62513723    -10.43199749      5.10729953
H       8.23734705     10.87939632     -2.23528860
H       8.86002196     -9.63653684      4.28528124
H       2.50425844    -10.90118632     17.33758517
C       7.27291647    -10.96469969      7.56834353
H       6.14736118    -10.82653159      7.08878119
C       7.48521860     11.10490586     -0.02916541
H       6.71286671    -11.34162402      8.59033894
H      11.29400384     15.62077208      8.91219061
H       6.90771713     11.71047887      0.79347912
C       8.26118994     10.27611145     -1.16636646
H      16.85665692      2.91566089     -5.08201493
C      15.75282822      2.69569544     -4.97145247
H       0.84573792      0.20262796     -3.16577737
H       7.74584818      9.17396880     -1.33016711
H      -3.10319237     10.14462760     10.32846709
C      17.24382768    -10.53140878     -8.27411694
H      -2.08815839     -0.62940870      8.62447127
H      -5.65001922      8.24939592     -1.13437116
C       3.16332329     -3.03747768     -3.41917734
H      -0.03902012     -2.36074965      9.66603691
C       1.47819573    -10.71751696     17.93036419
H       3.34382709     -3.03540775     -2.19520843
H     -10.96213609    -12.27297242     15.66815272
H       1.07348491     -9.60107587     18.09678088
C       0.97864924     -0.82717347     -3.78774731
H      -2.66428751      8.53796889     -1.76439378
C      -3.21842644     10.94926558     -2.25392428
H      -0.17460432     -0.88837743     -4.14494983
H      -3.43001646     11.62562559     -1.24398661
H      -2.07698517     11.25237338     -2.60507053
H      -3.83373761     11.52837121     -3.15121608
H      17.70065793     -9.96868842     -9.18506134
H      16.72651991    -11.74782163     -7.49521301
H      16.99807399    -10.70977970     -5.69788038
H       3.01390830      0.50527070      6.82631572
H       0.23973932     -0.50401879     10.11844753
H       0.85684386    -11.65028868     18.35672652
H       5.04433870      0.74708158     -4.91278535
H      -9.42675544     -2.95204824     23.99740376
H       4.85192863     15.53102301     20.76400835
H      10.43174852     13.91232935      9.62612434
H       3.31983851     -1.60720962     10.49301900
H      26.59648769      7.39426669     -2.17327341
H      -4.86331319      9.31628426     10.62470807
H      27.28666125      7.54264242     -1.84154386
H      -1.22314356     -1.76433464      5.79031982
H       8.71842681    -12.48184589      6.07271292
H       6.56419701     -6.91541656    -14.31844376
H       4.34418944     -2.20927682      9.49590213
C      -1.09156511     -0.83399364      6.54184161
C     -10.36016020    -12.21606716     16.66242232
C       2.44867861     -0.23546319      7.53324154
C       1.86796223     -1.18114752      8.67553868
C       5.31709655      0.69783205     -2.46983274
C       9.48099625     15.96750426     10.47272837
C       3.15068531     -1.99357973      9.33294177
C      -4.02855115      9.58862467      9.81122943
C      10.47097168     15.10671146      9.60982770
C      -4.99386518      8.60575101     -2.07815917
C       2.34925599     -1.71062678     -4.11875870
C       3.38494398     -0.49781634     -3.97096937
C      16.57403838    -10.73280809     -6.84848284
C      -3.54441942      9.33755553     -2.02282682
C       8.21815162    -11.40391402      6.28786182
H       9.43907560     10.09066140     -0.87426696
H      -3.11177660    -13.81826260    -10.93541594
H      15.65801413     -9.97343688     -6.53884054
H      -9.29845674     -2.27982476     24.37164303
H      -9.75818431    -12.15916191     17.65669192
H      16.54794061      6.55523813     13.80501939
H       5.90978846      0.76514810     -1.47112088
H       5.54814668     15.73763201     21.04860129
H       8.74977012     16.60697455     11.11658355
H       2.12198190     -2.01111741     -5.29873433
H      -4.11046019      9.33756022      8.63825760
H      -7.60795419     21.24264930      9.77839801
H       2.74269489     -4.19652643     -3.45107969
H      -1.02158062      0.17783454      5.89207289
H       8.02630842    -10.31468606      8.29378532
H       4.28783348     -3.31925051     -3.86855240
H      -7.74116572     21.25126849     10.54689030
   94

C       6.91142115     -7.26046542    -13.22735975
C      -3.34031135    -13.05287603    -10.13501163
H       7.59194111     -6.53353558    -12.55923323
C      -1.00281219     -0.91353305      8.16077920
H      -5.64333431      8.38588386     -3.05610379
H       3.03926943     -2.96715050      8.58357468
C       0.27373806     -1.26681902      9.15838827
H       6.57677267     -8.32953494    -12.79954259
H      -9.00646054     -6.97089815    -19.18235656
H      -8.99874209     -7.74028995    -19.05438503
C       4.92023911      0.38022781     -3.72822638
H      16.72381724      5.80181652     13.90402740
C       8.62653983    -10.43480204      5.10817245
H       8.23801556     10.88105352     -2.23524986
H       8.86334172     -9.64068183      4.28541664
H       2.50425196    -10.90125412     17.33774162
C       7.27260092    -10.96417118      7.56964756
H       6.14722619    -10.81497079      7.09280981
C       7.48560883     11.10669190     -0.02885512
H       6.72053827    -11.36177937      8.58846829
H      11.29402890     15.62085176      8.91223276
H       6.90830077     11.71175004      0.79429815
C       8.26180792     10.27819291     -1.16609281
H      16.96780563      2.96423485     -5.15966793
C      15.86396828      2.74431591     -5.04913382
H       0.22995757      0.21623716     -3.36346608
H       7.74655374      9.17607269     -1.33027457
H      -3.09971622     10.14582024     10.33041846
C      17.25041002    -10.50739430     -8.27356019
H      -2.09139830     -0.62871675      8.62402378
H      -5.65763925      8.28626268     -1.12634252
C       3.50063080     -3.09870543     -3.29374459
H      -0.03946580     -2.35578823      9.66497488
C       1.47818181    -10.71758362     17.93050712
H       3.67910796     -3.05161674     -2.07136235
H     -10.96217908    -12.27301184     15.66821911
H       1.07347367     -9.60114319     18.09693374
C       0.33268181     -0.80205399     -4.00443816
H      -2.67196061      8.57384076     -1.75798525
C      -3.22362280     10.98503731     -2.24679320
H      -0.82603495     -0.89443110     -4.32797855
H      -3.43420852     11.66167878     -1.23685427
H      -2.08171775     11.28710200     -2.59735082
H      -3.83842367     11.56446562     -3.14419688
H      17.70871183     -9.96164295     -9.19496979
H      16.70395098    -11.77119499     -7.46921343
H      17.00880752    -10.71039346     -5.70434772
H       3.00747978      0.50845370      6.82944061
H       0.23637902     -0.49993535     10.12204842
H       0.85681978    -11.65035695     18.35685075
H       5.33989317      0.70395071     -4.79033875
H      -9.42677516     -2.95205188     23.99744890
H       4.85193361     15.53104509     20.76404136
H      10.43176561     13.91242955      9.62620073
H       3.32027153     -1.61960489     10.49702429
H      26.67420308      7.42843752     -2.14708206
H      -4.86749241      9.31389028     10.62806160
H      27.36437654      7.57680933     -1.81535061
H      -1.22558296     -1.76544439      5.79366729
H       8.71737971    -12.48310818      6.07497065
H       6.56557400     -6.91822140    -14.32334569
H       4.35072681     -2.20144477      9.48488479
C      -1.09421918     -0.83402973      6.54392881
C     -10.36019862    -12.21610333     16.66248577
C       2.44627676     -0.22866400      7.54329781
C       1.86998340     -1.18069075      8.68221946
C       5.61280288      0.66049666     -2.35607815
C       9.48112224     15.96760122     10.47290273
C       3.15323148     -1.99822353      9.33437205
C      -4.02855501      9.58928683      9.81970765
C      10.47104497     15.10681004      9.60994066
C      -5.00109761      8.64156874     -2.07029663
C       1.63251803     -1.72346605     -4.39426834
C       3.72889530     -0.61945940     -3.81064765
C      16.57758259    -10.73322906     -6.85201805
C      -3.55183115      9.37375989     -2.01598303
C       8.21778108    -11.40480955      6.28963182
H       9.43956873     10.09303047     -0.87332984
H      -3.11205845    -13.81944502    -10.93606747
H      15.65425567     -9.98182763     -6.54640669
H      -9.29847538     -2.27982761     24.37168639
H      -9.75821815    -12.15919482     17.65675243
H      16.54798186      6.55526930     13.80507920
H       6.20579951      0.73494958     -1.35801802
H       5.54815307     15.73765257     21.04863194
H       8.74971643     16.60703515     11.11658975
H       1.48157870     -2.03096256     -5.57304894
H      -4.11037670      9.33839978      8.64696080
H      -7.60797941     21.24272616      9.77845655
H       3.15098039     -4.28330891     -3.28060539
H      -1.02689164      0.17654746      5.89204465
H       8.01946472    -10.30426780      8.29302414
H       4.61598760     -3.33516700     -3.78343246
H      -7.74118950     21.25133678     10.54694918
   94

C       6.91285639     -7.26299588    -13.23157090
C      -3.34065394    -13.05419564    -10.13550615
H       7.59369403     -6.53617861    -12.56364567
C      -1.00371046     -0.91003646      8.16191391
H      -5.64851558      8.41804555     -3.04831498
H       3.04810385     -2.98309922      8.59806800
C       0.27390696     -1.26099532      9.15970044
H       6.57819363     -8.33204641    -12.80371772
H      -9.00660851     -6.97101932    -19.18263536
H      -8.99888323     -7.74040882    -19.05465031
C       5.19838857      0.30670898     -3.61667018
H      16.72385388      5.80184520     13.90408013
C       8.62760548    -10.43729833      5.10868474
H       8.23835120     10.88206971     -2.23537872
H       8.86615190     -9.64453829      4.28512757
H       2.50424805    -10.90130132     17.33784612
C       7.27215595    -10.96345983      7.57064781
H       6.14698284    -10.80343911      7.09668342
C       7.48572838     11.10789433     -0.02872282
H       6.72813216    -11.38128242      8.58602053
H      11.29404019     15.62090512      8.91224695
H       6.90874685     11.71257266      0.79493327
C       8.26208310     10.27961431     -1.16599588
H      17.07882832      3.01279943     -5.23732159
C      15.97497717      2.79294508     -5.12682429
H      -0.37301125      0.18941280     -3.55007138
H       7.74690941      9.17751811     -1.33055852
H      -3.09619812     10.14693231     10.33223517
C      17.25677159    -10.48270097     -8.27276701
H      -2.09436062     -0.62801879      8.62244758
H      -5.66456220      8.32261123     -1.11826531
C       3.83674067     -3.10014922     -3.18147413
H      -0.03979266     -2.35075471      9.66310205
C       1.47817329    -10.71763000     17.93060320
H       3.97717602     -3.06693698     -1.95463598
H     -10.96220957    -12.27304341     15.66827298
H       1.07346723     -9.60119002     18.09703723
C      -0.28797423     -0.82760445     -4.19273721
H      -2.67883108      8.60874310     -1.75195192
C      -3.22829074     11.02004502     -2.23968750
H      -1.44146321     -0.93665618     -4.52391287
H      -3.43789318     11.69696946     -1.22974947
H      -2.08594290     11.32111667     -2.58967688
H      -3.84261627     11.59984178     -3.13715796
H      17.71664934     -9.95513007     -9.20489751
H      16.68136545    -11.79366329     -7.44248752
H      17.01944694    -10.71125765     -5.71115626
H       3.00116851      0.51133366      6.83150893
H       0.23304779     -0.49581694     10.12484855
H       0.85680446    -11.65040439     18.35693432
H       5.61404720      0.66042253     -4.67156033
H      -9.42678828     -2.95205452     23.99748249
H       4.85193765     15.53106064     20.76406433
H      10.43176522     13.91250332      9.62624370
H       3.32081447     -1.63185975     10.50031038
H      26.75191850      7.46260894     -2.12088818
H      -4.87161790      9.31142801     10.63127325
H      27.44209219      7.61097755     -1.78915582
H      -1.22724022     -1.76653270      5.79582993
H       8.71622351    -12.48409055      6.07685569
H       6.56673229     -6.92058702    -14.32741790
H       4.35690566     -2.19380727      9.47343655
C      -1.09640970     -0.83406050      6.54491927
C     -10.36022477    -12.21613161     16.66253682
C       2.44412380     -0.22187621      7.55260054
C       1.87213993     -1.18009752      8.68818759
C       5.89988817      0.61498539     -2.25416994
C       9.48123751     15.96767264     10.47305177
C       3.15575766     -2.00282517      9.33518564
C      -4.02849863      9.58987500      9.82810767
C      10.47110379     15.10688216      9.61002472
C      -5.00757088      8.67664483     -2.06242418
C       1.01682897     -1.72011257     -4.60600694
C       4.03484047     -0.73122979     -3.69163442
C      16.58087514    -10.73410863     -6.85583864
C      -3.55842172      9.40912347     -2.00919924
C       8.21725896    -11.40544972      6.29105518
H       9.43972774     10.09478398     -0.87257240
H      -3.11220431    -13.82058421    -10.93667425
H      15.65061652     -9.99032956     -6.55413340
H      -9.29848776     -2.27982962     24.37171860
H      -9.75824023    -12.15921999     17.65680082
H      16.54801733      6.55529755     13.80513068
H       6.49818162      0.70568268     -1.26033608
H       5.54815807     15.73766710     21.04865330
H       8.74965535     16.60707231     11.11657230
H       0.90589235     -2.06868649     -5.77127513
H      -4.11021546      9.33914167      8.65558348
H      -7.60799612     21.24278535      9.77850377
H       3.44878959     -4.27145976     -3.18667690
H      -1.03154220      0.17518645      5.89081814
H       8.01247396    -10.29398699      8.29207497
H       4.94168862     -3.36720291     -3.67533486
H      -7.74120535     21.25138904     10.54699661
   94

C       6.91386945     -7.26498212    -13.23493833
C      -3.34084675    -13.05546546    -10.13593848
H       7.59482320     -6.53819261    -12.56710211
C      -1.00437237     -0.90657973      8.16186591
H      -5.65308135      8.44950051     -3.04055810
H       3.05713818     -2.99882769      8.61214432
C       0.27412089     -1.25511796      9.16013890
H       6.57922698     -8.33403249    -12.80706963
H      -9.00674760     -6.97114797    -19.18293688
H      -8.99901563     -7.74053494    -19.05493678
C       5.48454690      0.23818181     -3.50442504
H      16.72389027      5.80187333     13.90413551
C       8.62843825    -10.43955963      5.10895709
H       8.23847864     10.88271214     -2.23560505
H       8.86861287     -9.64817730      4.28455117
H       2.50424446    -10.90132768     17.33790575
C       7.27162288    -10.96262286      7.57144383
H       6.14667854    -10.79199427      7.10047355
C       7.48567351     11.10875868     -0.02869193
H       6.73567015    -11.40017826      8.58311536
H      11.29404291     15.62094507      8.91224740
H       6.90909308     11.71313055      0.79546500
C       8.26215380     10.28066052     -1.16599664
H      17.18981723      3.06134263     -5.31497976
C      16.08595043      2.84155658     -5.20452808
H      -0.96097086      0.15216166     -3.73262300
H       7.74706756      9.17858269     -1.33093036
H      -3.09265013     10.14796246     10.33391771
C      17.26289938    -10.45727198     -8.27171776
H      -2.09709573     -0.62733458      8.61962053
H      -5.67077094      8.35820684     -1.11023095
C       4.15907473     -3.08327874     -3.07457031
H      -0.04007902     -2.34565970      9.66035461
C       1.47816707    -10.71765564     17.93065792
H       4.25745564     -3.08263169     -1.84457744
H     -10.96222776    -12.27306516     15.66831272
H       1.07346224     -9.60121583     18.09709564
C      -0.89380992     -0.86006992     -4.38201275
H      -2.68494257      8.64254592     -1.74644788
C      -3.23251098     11.05419759     -2.23263467
H      -2.04193799     -0.98380874     -4.72132521
H      -3.44116300     11.73139168     -1.22269143
H      -2.08974996     11.35437227     -2.58206959
H      -3.84640744     11.63441301     -3.13011697
H      17.72446007     -9.94913834     -9.21476982
H      16.65879396    -11.81526047     -7.41507360
H      17.03000740    -10.71236777     -5.71834918
H       2.99491690      0.51390650      6.83256482
H       0.22964614     -0.49167320     10.12677814
H       0.85679452    -11.65043055     18.35698233
H       5.89048141      0.62079743     -4.55364776
H      -9.42679478     -2.95205596     23.99750300
H       4.85194017     15.53107037     20.76407931
H      10.43175423     13.91256326      9.62626983
H       3.32138450     -1.64393490     10.50288907
H      26.82963024      7.49677726     -2.09469604
H      -4.87569792      9.30889364     10.63434334
H      27.51980420      7.64514338     -1.76296319
H      -1.22823136     -1.76761565      5.79665502
H       8.71499848    -12.48487276      6.07848642
H       6.56763804     -6.92250840    -14.33073098
H       4.36267324     -2.18638389      9.46159388
C      -1.09820313     -0.83413021      6.54468865
C     -10.36023911    -12.21615030     16.66257402
C       2.44214825     -0.21513128      7.56113787
C       1.87436502     -1.17939041      8.69343783
C       6.19392943      0.56979378     -2.15097324
C       9.48134435     15.96772993     10.47318712
C       3.15819606     -2.00739706      9.33540460
C      -4.02839248      9.59038713      9.83642910
C      10.47115332     15.10694042      9.61009387
C      -5.01328488      8.71078412     -2.05462793
C       0.40732018     -1.74924538     -4.79085039
C       4.34158335     -0.82689517     -3.56802550
C      16.58390717    -10.73547756     -6.85997614
C      -3.56423680      9.44353912     -2.00254955
C       8.21663884    -11.40590605      6.29224100
H       9.43968980     10.09620665     -0.87191362
H      -3.11223709    -13.82166774    -10.93723447
H      15.64711541     -9.99891936     -6.56204601
H      -9.29849386     -2.27983064     24.37173822
H      -9.75825121    -12.15923600     17.65683579
H      16.54805244      6.55532517     13.80518444
H       6.79380198      0.67457557     -1.15924061
H       5.54816113     15.73767632     21.04866734
H       8.74958700     16.60709586     11.11654186
H       0.35893362     -2.12177250     -5.94630775
H      -4.10998920      9.33978400      8.66412534
H      -7.60800576     21.24282782      9.77854043
H       3.69467903     -4.22296059     -3.12177734
H      -1.03565297      0.17371292      5.88826910
H       8.00538033    -10.28387066      8.29102022
H       5.24643624     -3.40075688     -3.57276959
H      -7.74121459     21.25142613     10.54703339
   94

C       6.91440282     -7.26645182    -13.23751041
C      -3.34082792    -13.05651458    -10.13622500
H       7.59531728     -6.53962518    -12.56967658
C      -1.00484577     -0.90320234      8.16061782
H      -5.65708395      8.48012437     -3.03290237
H       3.06633603     -3.01432339      8.62584100
C       0.27433139     -1.24919959      9.15969719
H       6.57980268     -8.33551437    -12.80964128
H      -9.00687835     -6.97129297    -19.18327017
H      -8.99913844     -7.74067662    -19.05525049
C       5.77950394      0.17137948     -3.39012236
H      16.72392743      5.80190425     13.90419685
C       8.62916537    -10.44174477      5.10918721
H       8.23839926     10.88289476     -2.23593264
H       8.87096261     -9.65175814      4.28392049
H       2.50423813    -10.90133436     17.33792706
C       7.27102492    -10.96174367      7.57217172
H       6.14634520    -10.78072024      7.10428201
C       7.48545143     11.10921749     -0.02877214
H       6.74315075    -11.41853914      8.57990569
H      11.29403527     15.62096892      8.91223122
H       6.90936006     11.71338410      0.79587300
C       8.26201912     10.28124574     -1.16609837
H      17.30074602      3.10987298     -5.39264137
C      16.19686118      2.89016220     -5.28224214
H      -1.54995259      0.11679574     -3.91319510
H       7.74703635      9.17917564     -1.33138997
H      -3.08907797     10.14890873     10.33546636
C      17.26884000    -10.43111434     -8.27042632
H      -2.09964476     -0.62669399      8.61553691
H      -5.67635033      8.39294234     -1.10230280
C       4.48044603     -3.07110169     -2.96462250
H      -0.04036265     -2.34051708      9.65673077
C       1.47815914    -10.71766133     17.93067607
H       4.53736087     -3.10166952     -1.73404936
H     -10.96223209    -12.27307514     15.66833370
H       1.07345472     -9.60122128     18.09711295
C      -1.50310373     -0.88814650     -4.57275838
H      -2.69042525      8.67526021     -1.74152110
C      -3.23639176     11.08749695     -2.22564869
H      -2.64689089     -1.02599937     -4.91623932
H      -3.44412782     11.76493129     -1.21568404
H      -2.09324805     11.38688545     -2.57453557
H      -3.84990760     11.66818291     -3.12308421
H      17.73217201     -9.94366625     -9.22452363
H      16.63631211    -11.83606015     -7.38702454
H      17.04057540    -10.71377052     -5.72598935
H       2.98868887      0.51617300      6.83265265
H       0.22611963     -0.48751552     10.12782866
H       0.85678558    -11.65043630     18.35699877
H       6.17159518      0.58248894     -4.43432293
H      -9.42679466     -2.95205627     23.99750915
H       4.85194096     15.53107400     20.76408567
H      10.43173035     13.91260683      9.62627585
H       3.32193073     -1.65578726     10.50479696
H      26.90733944      7.53094454     -2.06850632
H      -4.87973577      9.30628562     10.63727357
H      27.59751371      7.67930868     -1.73677324
H      -1.22869716     -1.76873831      5.79611215
H       8.71373388    -12.48560555      6.08003441
H       6.56821636     -6.92400196    -14.33332410
H       4.36800472     -2.17917942      9.44940648
C      -1.09967496     -0.83430188      6.54321820
C     -10.36024078    -12.21615781     16.66259319
C       2.44029862     -0.20843712      7.56892063
C       1.87661629     -1.17857573      8.69798936
C       6.49282539      0.52610456     -2.04459273
C       9.48144160     15.96777074     10.47330643
C       3.16050614     -2.01193606      9.33507165
C      -4.02824201      9.59082192      9.84467246
C      10.47119178     15.10698225      9.61014526
C      -5.01834501      8.74393869     -2.04696198
C      -0.21163818     -1.77889406     -4.98194077
C       4.66256760     -0.92389750     -3.43709129
C      16.58675642    -10.73740158     -6.86448708
C      -3.56941158      9.47701239     -1.99607174
C       8.21596261    -11.40632445      6.29336212
H       9.43945515     10.09721780     -0.87135689
H      -3.11213300    -13.82254776    -10.93765406
H      15.64384366    -10.00762597     -6.57019102
H      -9.29849372     -2.27983078     24.37174404
H      -9.75825083    -12.15924156     17.65685358
H      16.54808774      6.55535531     13.80524307
H       7.09219856      0.64354151     -1.05381455
H       5.54816201     15.73767995     21.04867346
H       8.74951070     16.60710375     11.11649633
H      -0.19305998     -2.17440892     -6.12338691
H      -4.10970569      9.34032610      8.67258692
H      -7.60800851     21.24285406      9.77856705
H       3.93412642     -4.16818514     -3.05778890
H      -1.03935177      0.17207303      5.88438723
H       7.99821126    -10.27397860      8.28998164
H       5.54465257     -3.43870169     -3.47248984
H      -7.74121735     21.25144842     10.54706004
   94

C       6.91448428     -7.26748210    -13.23939513
C      -3.34058104    -13.05717625    -10.13630960
H       7.59525535     -6.54057823    -12.57150236
C      -1.00518048     -0.89991617      8.15832818
H      -5.66049371      8.50954984     -3.02550795
H       3.07568811     -3.02958217      8.63919846
C       0.27453082     -1.24325455      9.15847507
H       6.57993376     -8.33656236    -12.81153526
H      -9.00699421     -6.97145458    -19.18363209
H      -8.99924485     -7.74083394    -19.05558699
C       6.07830135      0.10440026     -3.27397989
H      16.72396547      5.80193932     13.90426471
C       8.62982380    -10.44390158      5.10943256
H       8.23814060     10.88256256     -2.23635220
H       8.87326735     -9.65532735      4.28330517
H       2.50422804    -10.90132333     17.33791343
C       7.27036868    -10.96084447      7.57286994
H       6.14599223    -10.76963462      7.10812878
C       7.48509017     11.10923028     -0.02896210
H       6.75056978    -11.43639530      8.57644612
H      11.29401673     15.62097519      8.91219690
H       6.90957806     11.71331385      0.79614534
C       8.26170497     10.28131452     -1.16629172
H      17.41156036      3.15838276     -5.47029408
C      16.30765588      2.93875246     -5.35994735
H      -2.14599671      0.08763116     -4.09316706
H       7.74685379      9.17923502     -1.33192507
H      -3.08549124     10.14977275     10.33688115
C      17.27460957    -10.40424690     -8.26889780
H      -2.10204786     -0.62611460      8.61038175
H      -5.68137002      8.42653560     -1.09463369
C       4.80818875     -3.06980872     -2.84961310
H      -0.04063676     -2.33534561      9.65233015
C       1.47814817    -10.71764893     17.93066044
H       4.82484440     -3.12138709     -1.62026121
H     -10.96222229    -12.27307247     15.66833320
H       1.07344345     -9.60120825     18.09709220
C      -2.12246462     -0.90828573     -4.76467133
H      -2.69540520      8.70682185     -1.73724603
C      -3.24006995     11.11985747     -2.21876675
H      -3.26275546     -1.06051801     -5.10854867
H      -3.44693794     11.79748371     -1.20875475
H      -2.09657704     11.41860387     -2.56709752
H      -3.85325902     11.70106379     -3.11609344
H      17.73978403     -9.93867954     -9.23406558
H      16.61394503    -11.85610927     -7.35835791
H      17.05118818    -10.71548214     -5.73412306
H       2.98248744      0.51813148      6.83188331
H       0.22247929     -0.48336054     10.12810142
H       0.85677601    -11.65042360     18.35698581
H       6.45441272      0.54364520     -4.31306603
H      -9.42678846     -2.95205557     23.99750080
H       4.85193992     15.53107168     20.76408335
H      10.43169284     13.91263260      9.62626009
H       3.32246139     -1.66740491     10.50609006
H      26.98504616      7.56511164     -2.04231932
H      -4.88373819      9.30360563     10.64006517
H      27.67522075      7.71347426     -1.71058623
H      -1.22883865     -1.76992085      5.79438307
H       8.71243938    -12.48633125      6.08154566
H       6.56845777     -6.92512307    -14.33528657
H       4.37291637     -2.17221317      9.43691524
C      -1.10092855     -0.83459788      6.54067326
C     -10.36022993    -12.21615356     16.66259192
C       2.43854315     -0.20179792      7.57602001
C       1.87887822     -1.17766712      8.70191737
C       6.79340265      0.48376651     -1.93619879
C       9.48152916     15.96779388     10.47340856
C       3.16268567     -2.01645894      9.33424774
C      -4.02805647      9.59118188      9.85283751
C      10.47121865     15.10700625      9.61017751
C      -5.02283819      8.77591305     -2.03955770
C      -0.84645347     -1.80020434     -5.18754228
C       4.99501733     -1.02632642     -3.30107181
C      16.58946669    -10.73991486     -6.86941758
C      -3.57409077      9.50945435     -1.98984572
C       8.21524254    -11.40674720      6.29446815
H       9.43905028     10.09776399     -0.87089301
H      -3.11189808    -13.82308457    -10.93785826
H      15.64084656    -10.01645805     -6.57861021
H      -9.29848784     -2.27983017     24.37173597
H      -9.75823963    -12.15923634     17.65685197
H      16.54812312      6.55538922     13.80530681
H       7.39180540      0.61364080     -0.94624415
H       5.54816063     15.73767815     21.04867159
H       8.74942657     16.60709504     11.11643460
H      -0.76027826     -2.22110870     -6.30907365
H      -4.10937686      9.34077174      8.68096788
H      -7.60800466     21.24286341      9.77858290
H       4.19262431     -4.12309647     -2.98216591
H      -1.04280088      0.17025901      5.87935841
H       7.99098164    -10.26431837      8.28898627
H       5.84775800     -3.47738319     -3.37173448
H      -7.74121390     21.25145537     10.54707585
   94

C       6.91422147     -7.26818235    -13.24074269
C      -3.34014484    -13.05730246    -10.13616833
H       7.59478644     -6.54118356    -12.57274673
C      -1.00541772     -0.89670976      8.15527191
H      -5.66328552      8.53732962     -3.01858203
H       3.08521131     -3.04460452      8.65225598
C       0.27474697     -1.23729476      9.15664293
H       6.57971488     -8.33728116    -12.81289927
H      -9.00708282     -6.97162429    -19.18400388
H      -8.99932332     -7.74099846    -19.05592802
C       6.37807837      0.03718533     -3.15646545
H      16.72400391      5.80197821     13.90433791
C       8.63040230    -10.44599939      5.10966000
H       8.23775338     10.88170269     -2.23684205
H       8.87549080     -9.65884994      4.28266850
H       2.50421473    -10.90129708     17.33786767
C       7.26965928    -10.95991128      7.57351957
H       6.14562416    -10.75871517      7.11198659
C       7.48463487     11.10879266     -0.02924743
H       6.75793020    -11.45375021      8.57273324
H      11.29398801     15.62096362      8.91214460
H       6.90978326     11.71292558      0.79628299
C       8.26126232     10.28085542     -1.16655406
H      17.52220028      3.20685045     -5.54791809
C      16.41827694      2.98729791     -5.43761326
H      -2.74714818      0.06403498     -4.27323023
H       7.74658236      9.17874337     -1.33250931
H      -3.08190214     10.15056059     10.33816665
C      17.28019738    -10.37671109     -8.26713517
H      -2.10433839     -0.62560129      8.60445657
H      -5.68595353      8.45868246     -1.08742681
C       5.14167004     -3.07581867     -2.73107529
H      -0.04086000     -2.33016263      9.64731975
C       1.47813470    -10.71762103     17.93061384
H       5.11863770     -3.13981303     -1.50403733
H     -10.96219942    -12.27305713     15.66831041
H       1.07342906     -9.60117942     18.09703701
C      -2.74968057     -0.92206621     -4.95660475
H      -2.70006632      8.73721872     -1.73364859
C      -3.24372283     11.15121676     -2.21203309
H      -3.88683984     -1.08886196     -5.29878916
H      -3.44978438     11.82897485     -1.20194288
H      -2.09991424     11.44949468     -2.55978066
H      -3.85663810     11.73298639     -3.10919229
H      17.74727143     -9.93410454     -9.24327619
H      16.59167530    -11.87542824     -7.32905791
H      17.06184386    -10.71748930     -5.74278366
H       2.97634884      0.51977724      6.83040326
H       0.21878410     -0.47922246     10.12776862
H       0.85676597    -11.65039504     18.35694565
H       6.73718285      0.50379794     -4.19013156
H      -9.42677708     -2.95205400     23.99747874
H       4.85193715     15.53106396     20.76407288
H      10.43164255     13.91264036      9.62622282
H       3.32302871     -1.67879531     10.50683482
H      27.06274927      7.59927811     -2.01613528
H      -4.88771441      9.30085966     10.64272351
H      27.75292419      7.74763973     -1.68440242
H      -1.22884750     -1.77116347      5.79179540
H       8.71111816    -12.48702080      6.08299151
H       6.56842424     -6.92595568    -14.33674646
H       4.37745724     -2.16551079      9.42415346
C      -1.10206253     -0.83500399      6.53734235
C     -10.36020787    -12.21613780     16.66256952
C       2.43687662     -0.19521643      7.58254442
C       1.88116187     -1.17667829      8.70533375
C       7.09412045      0.44240214     -1.82673249
C       9.48160794     15.96779935     10.47349381
C       3.16476493     -2.02099283      9.33300271
C      -4.02784784      9.59147460      9.86092808
C      10.47123473     15.10701220      9.61019091
C      -5.02690225      8.80651221     -2.03258773
C      -1.49462974     -1.81522008     -5.40428930
C       5.33491232     -1.13241731     -3.16185614
C      16.59205017    -10.74302627     -6.87480430
C      -3.57848373      9.54080316     -1.98396113
C       8.21448107    -11.40714549      6.29553066
H       9.43852579     10.09783071     -0.87049944
H      -3.11157301    -13.82315851    -10.93779735
H      15.63813272    -10.02540215     -6.58734134
H      -9.29847709     -2.27982896     24.37171478
H      -9.75821901    -12.15922079     17.65683040
H      16.54815811      6.55542658     13.80537443
H       7.69164923      0.58487982     -0.83783489
H       5.54815713     15.73767139     21.04866221
H       8.74933563     16.60706995     11.11635685
H      -1.33819042     -2.26358777     -6.49941381
H      -4.10901816      9.34113120      8.68927173
H      -7.60799496     21.24285531      9.77858714
H       4.46951597     -4.08727882     -2.89667936
H      -1.04614546      0.16830248      5.87350067
H       7.98370462    -10.25486392      8.28800563
H       6.15668043     -3.51481308     -3.27001873
H      -7.74120491     21.25144653     10.54707997
   94

C       6.91375377     -7.26866167    -13.24170121
C      -3.33960067    -13.05676934    -10.13580042
H       7.59407580     -6.54156561    -12.57356647
C      -1.00558054     -0.89356209      8.15174005
H      -5.66552745      8.56318268     -3.01229371
H       3.09493747     -3.05939157      8.66504705
C       0.27502656     -1.23132852      9.15438355
H       6.57927675     -8.33777776    -12.81388150
H      -9.00712957     -6.97178756    -19.18435418
H      -8.99936044     -7.74115591    -19.05624386
C       6.67740137     -0.03023733     -3.03791629
H      16.72404190      5.80202001     13.90441439
C       8.63088544    -10.44798521      5.10981693
H       8.23729379     10.88031772     -2.23737765
H       8.87758058     -9.66226643      4.28195148
H       2.50419931    -10.90125811     17.33779283
C       7.26890643    -10.95892150      7.57409012
H       6.14524923    -10.74793011      7.11582014
C       7.48413404     11.10791237     -0.02961011
H       6.76524215    -11.47060077      8.56875070
H      11.29395027     15.62093375      8.91207469
H       6.91001099     11.71223135      0.79629186
C       8.26074761     10.27987273     -1.16685988
H      17.63260778      3.25525029     -5.62549019
C      16.52866949      3.03576211     -5.51520347
H      -3.34986118      0.04421072     -4.45356285
H       7.74628708      9.17770050     -1.33311421
H      -3.07832230     10.15128099     10.33933296
C      17.28558437    -10.34859222     -8.26515310
H      -2.10653466     -0.62515210      8.59807239
H      -5.69030945      8.48924574     -1.08085543
C       5.47844664     -3.08549790     -2.61052202
H      -0.04097581     -2.32498093      9.64187836
C       1.47811986    -10.71758026     17.93053942
H       5.41543536     -3.15647692     -1.38675972
H     -10.96216515    -12.27302943     15.66826531
H       1.07341281     -9.60113750     18.09695144
C      -3.38089497     -0.93194143     -5.14754983
H      -2.70465425      8.76658924     -1.73064926
C      -3.24753822     11.18162660     -2.20547827
H      -4.51504166     -1.11299488     -5.48715493
H      -3.45285868     11.85945527     -1.19527941
H      -2.10344108     11.47961176     -2.55259769
H      -3.86022078     11.76399117     -3.10242429
H      17.75460374     -9.92982756     -9.25202369
H      16.56946764    -11.89402215     -7.29908674
H      17.07253098    -10.71976462     -5.75200021
H       2.97032455      0.52110820      6.82835694
H       0.21511193     -0.47511062     10.12701398
H       0.85675623    -11.65035328     18.35688085
H       7.01887219      0.46271523     -4.06587288
H      -9.42676151     -2.95205167     23.99744405
H       4.85193285     15.53105142     20.76405494
H      10.43158077     13.91262974      9.62616445
H       3.32370159     -1.68997256     10.50709630
H      27.14044701      7.63344309     -1.98995449
H      -4.89167348      9.29805657     10.64525910
H      27.83062225      7.78180431     -1.65822212
H      -1.22884715     -1.77245916      5.78869691
H       8.70977610    -12.48762653      6.08432732
H       6.56821581     -6.92658782    -14.33783327
H       4.38169106     -2.15909540      9.41114796
C      -1.10314252     -0.83549186      6.53353104
C     -10.36017633    -12.21611107     16.66252608
C       2.43531460     -0.18869512      7.58860414
C       1.88349569     -1.17561851      8.70835432
C       7.39422041      0.40156161     -1.71675316
C       9.48167935     15.96778703     10.47356267
C       3.16679069     -2.02556452      9.33140288
C      -4.02762781      9.59171087      9.86895341
C      10.47124127     15.10699973      9.61018600
C      -5.03075732      8.83570638     -2.02619554
C      -2.15102258     -1.82558356     -5.62880619
C       5.67968590     -1.24033954     -3.02038312
C      16.59451067    -10.74673776     -6.88068006
C      -3.58286231      9.57112561     -1.97847159
C       8.21368356    -11.40747142      6.29650396
H       9.43793709     10.09741540     -0.87015073
H      -3.11122245    -13.82267197    -10.93744134
H      15.63570366    -10.03443372     -6.59642487
H      -9.29846241     -2.27982726     24.37168152
H      -9.75819074    -12.15919556     17.65678897
H      16.54819190      6.55546649     13.80544392
H       7.99114216      0.55696328     -0.72927423
H       5.54815177     15.73766019     21.04864593
H       8.74923935     16.60702864     11.11626344
H      -1.91986968     -2.30418294     -6.68926997
H      -4.10864503      9.34141915      8.69750714
H      -7.60798049     21.24282993      9.77857950
H       4.75720947     -4.05556728     -2.80596571
H      -1.04947275      0.16624706      5.86714856
H       7.97639584    -10.24558051      8.28700091
H       6.46867842     -3.55108002     -3.16768269
H      -7.74119136     21.25142215     10.54707215
   94

C       6.91321745     -7.26901207    -13.24239446
C      -3.33906170    -13.05549919    -10.13522784
H       7.59327312     -6.54182484    -12.57408897
C      -1.00567393     -0.89045082      8.14798492
H      -5.66739910      8.58712502     -3.00671593
H       3.10490369     -3.07394433      8.67759804
C       0.27542080     -1.22536110      9.15186037
H       6.57875182     -8.33814401    -12.81460713
H      -9.00712048     -6.97192513    -19.18464155
H      -8.99934363     -7.74128750    -19.05649567
C       6.97556617     -0.09803638     -2.91850031
H      16.72407850      5.80206377     13.90449195
C       8.63126498    -10.44980217      5.10985257
H       8.23681643     10.87842278     -2.23793535
H       8.87949341     -9.66551197      4.28109834
H       2.50418310    -10.90120869     17.33769192
C       7.26812411    -10.95785172      7.57455184
H       6.14487975    -10.73724701      7.11959634
C       7.48363379     11.10660621     -0.03003145
H       6.77252077    -11.48694332      8.56448118
H      11.29390480     15.62088483      8.91198745
H       6.91029187     11.71124639      0.79618104
C       8.26021533     10.27838305     -1.16718474
H      17.74273493      3.30355771     -5.70298621
C      16.63878912      3.08410896     -5.59267909
H      -3.95138494      0.02644621     -4.63430041
H       7.74602664      9.17612094     -1.33371386
H      -3.07476116     10.15194376     10.34039441
C      17.29074927    -10.32003185     -8.26298340
H      -2.10863932     -0.62476162      8.59149437
H      -5.69469702      8.51833171     -1.07500562
C       5.81666308     -3.09695922     -2.48886128
H      -0.04092724     -2.31980876      9.63616586
C       1.47810502    -10.71752898     17.93044032
H       5.71302251     -3.17137248     -1.26939695
H     -10.96212130    -12.27298980     15.66819829
H       1.07339617     -9.60108493     18.09683943
C      -4.01341315     -0.93985036     -5.33712627
H      -2.70942753      8.79520462     -1.72807978
C      -3.25167031     11.21125785     -2.19910974
H      -5.14471400     -1.13433837     -5.67357293
H      -3.45630548     11.88910489     -1.18877689
H      -2.10729960     11.50909513     -2.54554449
H      -3.86413982     11.79423716     -3.09581640
H      17.76175353     -9.92569313     -9.26017444
H      16.54728087    -11.91188311     -7.26839073
H      17.08323886    -10.72227398     -5.76179845
H       2.96446792      0.52213146      6.82587724
H       0.21153969     -0.47103047     10.12600131
H       0.85674775    -11.65030066     18.35679400
H       7.29886922      0.42013763     -3.94052453
H      -9.42674267     -2.95204871     23.99739781
H       4.85192732     15.53103459     20.76403021
H      10.43150888     13.91260003      9.62608530
H       3.32454812     -1.70095253     10.50693334
H      27.21813771      7.66760576     -1.96377729
H      -4.89562273      9.29520676     10.64768636
H      27.90831328      7.81596726     -1.63204570
H      -1.22888682     -1.77379777      5.78538544
H       8.70842304    -12.48809843      6.08550857
H       6.56794125     -6.92709716    -14.33865802
H       4.38568330     -2.15298526      9.39792094
C      -1.10419725     -0.83603093      6.52950344
C     -10.36013719    -12.21607398     16.66246201
C       2.43388362     -0.18223631      7.59429753
C       1.88591547     -1.17449383      8.71108345
C       7.69333313      0.36090815     -1.60658201
C       9.48174494     15.96775653     10.47361563
C       3.16881379     -2.03019702      9.32950614
C      -4.02740602      9.59190287      9.87692692
C      10.47123962     15.10696816      9.61016321
C      -5.03467032      8.86367620     -2.02044876
C      -2.81220377     -1.83193896     -5.86019587
C       6.02812628     -1.34918970     -2.87686629
C      16.59684989    -10.75105308     -6.88707254
C      -3.58750319      9.60062061     -1.97337626
C       8.21286006    -11.40767444      6.29734280
H       9.43733709     10.09652507     -0.86982235
H      -3.11092500    -13.82156565    -10.93678513
H      15.63356388    -10.04352102     -6.60590479
H      -9.29844468     -2.27982517     24.37163724
H      -9.75815665    -12.15916141     17.65672809
H      16.54822360      6.55550800     13.80551306
H       8.28996550      0.52965536     -0.62094403
H       5.54814487     15.73764501     21.04862333
H       8.74913947     16.60697103     11.11615472
H      -2.50093991     -2.34405870     -6.87520686
H      -4.10827054      9.34165226      8.70568685
H      -7.60796252     21.24278827      9.77856041
H       5.05036453     -4.02414060     -2.71303264
H      -1.05281148      0.16413413      5.86058873
H       7.96907318    -10.23643260      8.28593539
H       6.78142912     -3.58664790     -3.06500709
H      -7.74117440     21.25138308     10.54705286
   94

C       6.91444514     -7.27097473    -13.24531730
C      -3.33980010    -13.05152339    -10.13445385
H       7.59443304     -6.54383979    -12.57687336
C      -1.00691301     -0.88580331      8.14733776
H      -5.66898703      8.60562503     -3.00294213
H       3.12650178     -3.10152506      8.70353992
C       0.27721342     -1.21458660      9.15105572
H       6.57983593     -8.34007212    -12.81753987
H      -9.00629938     -6.97077983    -19.18209263
H      -8.99858819     -7.74017383    -19.05413396
C       7.27441344     -0.20378041     -2.78779966
H      16.72377504      5.80178498     13.90396683
C       8.63111800    -10.44887992      5.10620677
H       8.23720553     10.87561845     -2.23813932
H       8.87845407     -9.66519928      4.27647908
H       2.50425844    -10.90118632     17.33758517
C       7.26735692    -10.95434976      7.57299229
H       6.14514921    -10.71506941      7.12434793
C       7.48419543     11.10497780     -0.02994499
H       6.78704708    -11.51481112      8.55387446
H      11.29386860     15.62065970      8.91182196
H       6.91154551     11.71038239      0.79620303
C       8.26024233     10.27613643     -1.16705755
H      17.85242661      3.35084955     -5.78070103
C      16.74859791      3.13088410     -5.67013856
H      -4.56656654      0.01430653     -4.82816141
H       7.74610193      9.17394956     -1.33430854
H      -3.06803572     10.15401523     10.33803014
C      17.29965807    -10.26127807     -8.25652751
H      -2.11322110     -0.62473161      8.58624765
H      -5.70146632      8.54597728     -1.07093570
C       6.20767639     -3.08970970     -2.35193504
H      -0.03892100     -2.31092405      9.62885274
C       1.47819573    -10.71751696     17.93036419
H       6.03136989     -3.16298638     -1.14226695
H     -10.96213609    -12.27297242     15.66815272
H       1.07348491     -9.60107587     18.09678088
C      -4.69043709     -0.94070737     -5.53301115
H      -2.71751669      8.82654597     -1.72598685
C      -3.25836043     11.24288030     -2.19301315
H      -5.81455569     -1.15807012     -5.87067464
H      -3.46198980     11.92099029     -1.18265412
H      -2.11344678     11.54063673     -2.53792885
H      -3.87036378     11.82636729     -3.08970275
H      17.77242723     -9.91545873     -9.27341504
H      16.50084541    -11.94306678     -7.20305280
H      17.10066361    -10.72628881     -5.78070605
H       2.95522017      0.52349973      6.82457514
H       0.20584026     -0.46423739     10.12834857
H       0.85684386    -11.65028868     18.35672652
H       7.57727116      0.35367964     -3.79705264
H      -9.42675544     -2.95204824     23.99740376
H       4.85192824     15.53102303     20.76400921
H      10.43141771     13.91241968      9.62592685
H       3.32765218     -1.72068687     10.50752623
H      27.29617621      7.70178536     -1.93767948
H      -4.90382329      9.29025282     10.64807301
H      27.98634977      7.85016109     -1.60594993
H      -1.23195224     -1.77482729      5.78548982
H       8.70679652    -12.48523488      6.08396794
H       6.56906650     -6.92901221    -14.34153868
H       4.39397395     -2.14264461      9.37420897
C      -1.10843716     -0.83605303      6.52868200
C     -10.36016020    -12.21606716     16.66242232
C       2.43086056     -0.17177076      7.60561171
C       1.89122736     -1.17205202      8.71907227
C       7.99913858      0.30829959     -1.49705776
C       9.48185489     15.96760310     10.47362944
C       3.17395781     -2.03933052      9.32729244
C      -4.02734369      9.59314738      9.88856035
C      10.47124753     15.10678593      9.61008294
C      -5.04077415      8.89069603     -2.01622874
C      -3.55109086     -1.82228749     -6.15411142
C       6.43433275     -1.53351190     -2.69356110
C      16.59915254    -10.75927202     -6.89990193
C      -3.59585060      9.63219276     -1.96934245
C       8.21174011    -11.40456395      6.29529789
H       9.43710493     10.09445606     -0.86853249
H      -3.11177660    -13.81826260    -10.93541594
H      15.62838517    -10.05857908     -6.62599172
H      -9.29845674     -2.27982476     24.37164303
H      -9.75818431    -12.15916191     17.65669192
H      16.54794064      6.55523809     13.80501941
H       8.59969783      0.50158785     -0.51788507
H       5.54814629     15.73763202     21.04860216
H       8.74910326     16.60682537     11.11599604
H      -3.09141518     -2.39365644     -7.05917845
H      -4.10801209      9.34308272      8.71770203
H      -7.60795419     21.24264930      9.77839801
H       5.37300112     -3.94129918     -2.62135787
H      -1.06085064      0.16191878      5.85632735
H       7.95587803    -10.21708886      8.28066415
H       7.12405593     -3.61594874     -2.96696009
H      -7.74116572     21.25126849     10.54689030
