   94
energy=      0.00000000
C     -11.22698950     -2.26397232     -4.66920007
C      -9.73554502     -2.63738433     -3.89696393
H     -11.02284841     -1.60760414     -5.71114440
C     -12.54954591     -1.59926352     -3.79221563
H     -11.60944347     -3.22775223     -5.36369100
H      -9.04582538     -1.71335427     -3.44029463
C       4.94429895     -1.78042669     -1.56955715
H      -9.72056562     -3.40145824     -2.92080538
H      -6.66560043     -4.85990598    -16.02002891
H      -6.65788924     -5.62929997    -15.89207024
C      -0.00288526     -6.06620598     -5.91327243
H      -0.54015728     -5.14870674     -6.38209689
C       6.39393989     -1.18102134     -1.76961825
H       0.30448481     -7.17697471     -5.76501953
H       5.97506387     -0.06947050     -2.10991633
H       6.46938947     -1.47520356     -2.96991625
C       7.66221291     -1.50611496     -0.62966801
H       8.38379896     -1.39597325     -1.61255621
C       7.40098114      0.28248398      1.29307487
H       7.40393292     -2.69127450     -0.34374874
H       7.17434283      1.25961252      0.57304738
H       7.87914765      1.37709400      1.61768256
C       5.96952052     -0.13951688      2.19368006
H       5.81954977      0.36526212      3.31377813
C       3.13812541      4.60698930    -11.60438981
H       5.75854942     -1.28895393      2.59654198
H       2.49211858      5.41511674    -12.06376844
H      -0.84172231     12.04137617     11.15512591
C      11.40295965     -5.30910995    -10.95545314
H     -12.42409830     -0.48730888     -3.25776450
H     -13.03125237     -2.22982815     -2.83949478
C     -22.65458815     -1.47303665     -2.14147842
H     -13.63684909     -1.36115944     -4.33827802
C      -1.93166389     -5.34607251     12.12239066
H     -23.33280488     -2.35805518     -2.14495245
H      -0.56604777     -5.47455823     10.22809520
H      -2.91823268     -4.98028050     12.64187737
C       4.42401993     -0.00748529      1.71910365
H      -2.60415917      2.88661002      2.63114216
C      -3.39978017      2.87268760      3.57077180
H       3.27329874      0.00838895      1.45398790
H      -3.28621372      3.92466130      4.20050153
H      -3.16714179      1.92782232      4.32523380
H      -4.54164443      2.75164613      3.12625044
H      10.97354746     -4.22836335    -10.66301845
H      11.92555499     -5.47828973    -12.02137921
H      11.30977650     -6.22067676    -10.18196175
H       9.65609374      2.95566392     14.03551142
H       7.54893465      2.70653362     11.43965210
H      -0.53840329     -7.08524351     11.41055451
H      11.26143225      0.46458596     12.80224869
H      -8.70101793     -4.16259184     22.46177845
H       7.21175697      5.81525052      9.21549595
H      -2.36131090     13.36099679     23.17396543
H      10.11299261      4.92586386     10.83355090
H      10.55545896     -1.03676323     -0.86725142
H      -2.58915459     11.11757614     10.89782525
H      12.47578845     -0.95334371      1.80685039
H      22.75026404      0.04130417    -13.13509705
H       8.93659315     -2.19139516      3.14459904
H      25.95114173     -1.25922372     -0.91414506
H       9.33312387      3.79226390      9.61141018
C      17.30322965     -4.04092092     16.91429424
C      -0.59444677     -5.85898510     11.39365968
C       9.43232822      2.38850706     12.95293949
C       8.48119634      3.39059153     11.90314163
C      10.91003279      1.62502424     12.74862827
C       8.13686784      5.72678746      9.99453660
C       8.99846323      4.42903497     10.62356696
C      -2.04465045     12.22001549     10.96257559
C      -1.85607080     14.32075214     22.75242478
C      10.28914965     -1.22964625      0.32361706
C      11.88174203     -0.71115911      0.75188352
C      13.16252990     -1.27185634     -0.00041569
C      25.65424051     -0.29178792     -1.55745192
C       8.58802175     -0.91013082      0.76588428
C       8.98722083     -1.24368295      2.38653045
H      25.20112132     -0.42093169     -2.66014452
H      -8.81748900     -3.21047150     -4.50180962
H      16.35524258     -3.75935042     17.46515402
H      -8.57271924     -3.49036836     22.83601772
H       0.42378728     -5.44225168     11.93826711
H      12.04314272      2.01960233     12.59059496
H       8.77066979      1.41444700     13.34674981
H       8.22689193      6.92771136     10.13628281
H      -1.32303815     15.28885949     22.38809146
H       7.70643439      4.06063836     12.61291760
H      10.47092691     -2.47136548      0.33977528
H      -2.18795114     12.85698228      9.91864777
H      12.14110206      0.49551059      0.71988991
H      22.64136139      0.81136653    -13.19463002
H       9.46671078     -0.61459259      3.32268810
H      25.81045847      0.80479166     -1.09806617
H      -2.55906009     12.86345247     11.87776807
   94
energy=      0.00000000
C     -11.23742416     -2.26444694     -4.66790328
C      -9.74423442     -2.63298795     -3.89671024
H     -11.03561152     -1.61461336     -5.71435336
C     -12.55788119     -1.59396225     -3.79214269
H     -11.62143755     -3.23269709     -5.35535684
H      -9.06181628     -1.70882669     -3.42956454
C       7.95931124      2.14472705      5.98685668
H      -9.72668376     -3.40685404     -2.92825852
H      -6.67718412     -4.85834250    -16.03748284
H      -6.66947293     -5.62773649    -15.90952417
C      -0.02710262     -6.14714591     -6.01562593
H      -0.45847284     -5.11346127     -6.33122199
C       7.84530123      1.36957316      4.44936271
H       0.40292309     -7.18196082     -5.70190463
H       8.32363486      2.26146638      3.75156660
H       6.68782266      1.71051867      4.25365660
C       8.05040017     -0.13811026      3.55541323
H       7.50402477     -1.23063498      3.43470037
C       7.45133783      0.25858537      1.17135810
H       7.54462701     -0.93335384      4.36033922
H       7.26558049      0.72700948      0.04613536
H       7.83980625      1.38953089      0.84155279
C       5.74347323     -0.09156108      1.46199884
H       5.10547026      0.21995797      2.47255919
C       3.13812541      4.60698930    -11.60438981
H       5.39750903     -1.27753028      1.51428336
H       2.49211858      5.41511674    -12.06376844
H      -0.84169931     12.05954180     11.17249877
C      11.40295965     -5.30910995    -10.95545314
H     -12.42809781     -0.48436050     -3.25392950
H     -13.04475757     -2.22516944     -2.84242946
C     -22.67728078     -1.47257526     -2.13778811
H     -13.64184985     -1.34598162     -4.34043447
C      -1.93283846     -5.34869054     12.12156455
H     -23.35549751     -2.35759379     -2.14126214
H      -0.55959182     -5.48843749     10.22357344
H      -2.90997096     -4.97468457     12.65287578
C       4.27894938      0.33699864      0.90329948
H      -2.59812200      2.87372915      2.63238028
C      -3.39862337      2.87111323      3.56795926
H       3.11437481      0.46264867      0.71889183
H      -3.29778082      3.92522578      4.19628885
H      -3.15526817      1.92346294      4.31552767
H      -4.54332044      2.76204016      3.12762767
H      10.97354746     -4.22836335    -10.66301845
H      11.92555499     -5.47828973    -12.02137921
H      11.30977650     -6.22067676    -10.18196175
H       8.82209636      3.09881653     11.45058371
H       7.22734730      1.57027456      9.17195349
H      -0.53297336     -7.08795215     11.39818624
H      10.85854002      0.56838219     11.81598994
H      -8.70101793     -4.16259184     22.46177845
H       5.95413397      3.81829653      6.31716374
H      -2.36605172     13.36006174     23.16941063
H       9.82128852      2.64401991      7.27296345
H       9.90080143     -0.70204213     -0.42222510
H      -2.59828260     11.12763743     10.88037860
H      12.63958704     -0.67740155      1.69295202
H      22.75026404      0.04130417    -13.13509705
H       9.99080815     -2.61307966      3.32100855
H      25.95114173     -1.25922372     -0.91414506
H       9.42403772      0.91856659      7.38283580
C      17.30322965     -4.04092092     16.91429424
C      -0.59595747     -5.86192981     11.39246670
C       8.93705255      2.06778451     10.76288959
C       8.29898296      2.20234789      9.14230227
C      10.44047808      1.60094426     11.33697200
C       7.10229868      3.56438395      6.02550233
C       8.79893858      1.97631380      7.47812641
C      -2.04389078     12.22395780     10.96315703
C      -1.84677972     14.32436800     22.77614832
C      10.11319235     -0.82163703      0.79284734
C      11.80566099     -0.42400188      0.82092724
C      12.91678346     -1.07285544     -0.10842782
C      25.65424051     -0.29178792     -1.55745192
C       8.86290716     -0.46940124      2.02763439
C       9.84865146     -1.41633329      3.06886965
H      25.20112132     -0.42093169     -2.66014452
H      -8.81939701     -3.19038965     -4.50587167
H      16.35524261     -3.75935044     17.46515405
H      -8.57271924     -3.49036836     22.83601772
H       0.40845101     -5.43335660     11.95337605
H      11.47343982      2.19889659     11.54959075
H       8.21580186      1.38710873     11.51221091
H       7.46741461      4.67922394      5.72411598
H      -1.32734954     15.28872180     22.38321162
H       7.90604390      3.37676968      9.20770317
H      10.01739710     -1.97242406      0.31872277
H      -2.19530246     12.84357683      9.90993925
H      12.13562959      0.75847235      0.71566511
H      22.64136139      0.81136653    -13.19463002
H      10.62682811     -1.20982029      3.99631166
H      25.81045847      0.80479166     -1.09806617
H      -2.54027874     12.86507514     11.88981148
