   94

C       6.73683464     -6.93192143    -12.66255459
C      -3.33980010    -13.05152339    -10.13445385
H       7.41682211     -6.20477757    -11.99412098
C      -0.94585504     -0.86088582      8.32201843
H      -5.69615984      8.55460446     -2.38794014
H       1.89800292     -2.62422955      7.36979442
C       0.40776048     -1.42019148      9.09156253
H       6.40222979     -8.00101769    -12.23476905
H      -9.00629938     -6.97077983    -19.18209263
H      -8.99858819     -7.74017383    -19.05413396
C       3.97063502     -0.02135476     -3.81054580
H      16.72363321      5.80198554     13.90388221
C       8.58237021    -10.34228883      5.13910824
H       8.19960904     10.91726134     -2.20135047
H       8.75081065     -9.51101966      4.33781149
H       2.50425844    -10.90118632     17.33758517
C       7.23772447    -10.94272308      7.55285880
H       6.10659783    -11.01633295      7.07130541
C       7.46435132     11.10245094     -0.01362052
H       6.57597681    -10.83782082      8.57292119
H      11.29563373     15.62083628      8.91487288
H       6.82676253     11.71161643      0.76072069
C       8.23486207     10.27530800     -1.15572306
H      16.85665692      2.91566089     -5.08201493
C      15.75282822      2.69569544     -4.97145247
H       2.05562769      1.10877271     -3.20168027
H       7.70431141      9.17611190     -1.28712596
H      -2.55067572     10.61270638     11.84234489
C      17.10329621    -10.74601716     -8.03602738
H      -1.97551356     -0.49136991      8.86457136
H      -5.60623022      8.35010615     -0.46121888
C       0.93825619     -2.18241762     -2.83296339
H       0.14076384     -2.32149993      9.90807751
C       1.47819573    -10.71751696     17.93036419
H       0.36199693     -2.07295429     -1.77754567
H     -10.96213609    -12.27297242     15.66815272
H       1.07348491     -9.60107587     18.09678088
C      -0.20201321     -0.42790132     -4.54594654
H      -2.53092818      8.61680501     -1.01355955
C      -3.22324074     10.87754378     -1.58838790
H      -1.21202664      0.05528787     -4.90380078
H      -3.44257574     11.56553127     -0.58632377
H      -2.09268045     11.21562223     -1.94699828
H      -3.83297650     11.47174103     -2.47992055
H      17.49807023    -10.21490133     -9.04760615
H      17.13593471    -11.89525256     -8.40946682
H      16.89414180    -10.79555033     -5.59054735
H       2.98701484      0.54119174      7.17703927
H       0.38903640     -0.53135732      9.95159662
H       0.85684386    -11.65028868     18.35672652
H       4.56788854     -0.26036477     -4.82418196
H      -9.42675544     -2.95204824     23.99740376
H       4.85331557     15.53096836     20.76089637
H      10.43490143     13.90855438      9.62745870
H       3.09993434     -1.27003026     10.50803078
H      26.59648769      7.39426669     -2.17327341
H      -4.58447377      9.53358198     11.50190853
H      27.28666125      7.54264242     -1.84154386
H      -0.87689899     -1.74989165      6.03926699
H       8.72669066    -12.43757123      6.09412320
H       6.39146719     -6.58993912    -13.75877323
H       4.05253961     -1.68449426      9.93919104
C      -0.91453148     -0.75133782      6.70987288
C     -10.36016020    -12.21606716     16.66242232
C       2.53937771     -0.53642860      7.34569195
C       1.85816133     -1.71016896      8.22870720
C       5.02920381      0.26083665     -2.67960691
C       9.46291532     15.96356143     10.44955885
C       2.99594357     -1.71841876      9.41061607
C      -3.56757474     10.07314418     11.67212671
C      10.46433894     15.10305605      9.59986932
C      -4.90173794      8.31843575     -1.47522463
C       1.18405690     -1.07762960     -4.03931007
C       2.35794635      0.03328768     -3.67060779
C      16.65588364    -10.09490235     -6.57709157
C      -3.51948735      9.24955745     -1.35706268
C       8.20020562    -11.36502936      6.28289639
H       9.42160791     10.05155274     -0.93483569
H      -3.11177660    -13.81826260    -10.93541594
H      15.45473995     -9.83784012     -6.45868373
H      -9.29845674     -2.27982476     24.37164303
H      -9.75818431    -12.15916191     17.65669192
H      16.54779880      6.55543865     13.80493478
H       5.81244158      0.54428796     -1.86279704
H       5.54953362     15.73757736     21.04548932
H       8.76176623     16.60515248     11.12392755
H       1.43075963     -1.64581733     -5.10399525
H      -4.77530963      7.11455124     -1.71085470
H      -7.60795419     21.24264930      9.77839801
H       1.28892664     -3.33418981     -2.74215757
H      -0.74597587      0.22989296      6.03209049
H       8.11487572    -10.53968480      8.31322912
H      17.20269842     -9.02895730     -6.28460286
H      -7.74116572     21.25126849     10.54689030
   94

C       6.75220228     -6.96740436    -12.72690003
C      -3.34014725    -13.05178153    -10.13465023
H       7.43119419     -6.23946328    -12.05834483
C      -0.94739081     -0.86216596      8.31526299
H      -5.69581439      8.55447644     -2.38810108
H       1.90941442     -2.61931651      7.39668875
C       0.40461779     -1.41532800      9.09384464
H       6.41763650     -8.03643169    -12.29894428
H      -9.00635503     -6.97078047    -19.18212832
H      -8.99864665     -7.74017485    -19.05417182
C       4.01587225      0.02429815     -3.81235933
H      16.72366214      5.80209444     13.90405863
C       8.58175325    -10.34458240      5.13868061
H       8.19971977     10.91612629     -2.20296568
H       8.75322602     -9.51379199      4.33750747
H       2.50423127    -10.90121803     17.33770733
C       7.23804313    -10.94243865      7.55525190
H       6.10735724    -11.01197377      7.07231240
C       7.46314832     11.10330271     -0.01443580
H       6.57642225    -10.85028793      8.57666560
H      11.29541508     15.62075105      8.91448139
H       6.82908681     11.71209795      0.76306509
C       8.23428729     10.27616005     -1.15608876
H      16.85743979      2.92688578     -5.08129458
C      15.75328922      2.70858070     -4.97058201
H       2.07230380      1.09927153     -3.19665662
H       7.70465508      9.17671132     -1.28907199
H      -2.55069424     10.61272618     11.84235513
C      17.14259035    -10.77124735     -8.03431641
H      -1.98038653     -0.49527301      8.85310977
H      -5.60604608      8.34987324     -0.46123861
C       1.17010597     -2.29161796     -2.86990442
H       0.12827589     -2.32513214      9.89754582
C       1.47816015    -10.71754612     17.93047068
H       0.65470112     -2.24589913     -1.78073137
H     -10.96215751    -12.27298210     15.66817522
H       1.07345098     -9.60110436     18.09688592
C      -0.10414349     -0.50860346     -4.52062032
H      -2.53076950      8.61666199     -1.01350988
C      -3.22330509     10.87739818     -1.58837657
H      -1.11961108     -0.01657329     -4.85333059
H      -3.44269803     11.56533916     -0.58629225
H      -2.09282236     11.21565182     -1.94706188
H      -3.83312713     11.47152923     -2.47989553
H      17.48885223    -10.17159300     -9.02509259
H      17.25674312    -11.90102387     -8.45306254
H      16.92868728    -10.76439730     -5.61571108
H       2.98926899      0.54241473      7.16046196
H       0.38539919     -0.52945811      9.95693794
H       0.85680214    -11.65031915     18.35682085
H       4.61320771     -0.20009210     -4.82904985
H      -9.42676423     -2.95204705     23.99741583
H       4.85330597     15.53098282     20.76092143
H      10.43461836     13.90870726      9.62713624
H       3.11029922     -1.27222394     10.52904129
H      26.59683627      7.39472300     -2.17317095
H      -4.58448857      9.53359804     11.50190832
H      27.28701731      7.54302885     -1.84142607
H      -0.90044711     -1.74544715      6.02495394
H       8.72474845    -12.43764845      6.09304445
H       6.40747804     -6.62572633    -13.82340600
H       4.08388053     -1.70932378      9.92082775
C      -0.92650147     -0.75141153      6.70272678
C     -10.36018121    -12.21607660     16.66244459
C       2.53902372     -0.52907636      7.35699506
C       1.86581999     -1.70024697      8.24873740
C       5.05229520      0.29509652     -2.66004875
C       9.46399776     15.96372653     10.45088457
C       3.00810856     -1.71465423      9.42770859
C      -3.56759132     10.07316196     11.67213167
C      10.46467307     15.10320760      9.60032358
C      -4.90156956      8.31821322     -1.47525608
C       1.30130428     -1.14020693     -4.04914108
C       2.40473948      0.03823294     -3.68064220
C      16.46169374    -10.21413252     -6.61655563
C      -3.51935031      9.24937424     -1.35704030
C       8.19940287    -11.36509949      6.28438623
H       9.42067148     10.05443330     -0.93128727
H      -3.11209919    -13.81851160    -10.93561355
H      15.25267166    -10.44756801     -6.51694197
H      -9.29846499     -2.27982331     24.37165446
H      -9.75820468    -12.15917095     17.65671380
H      16.54782503      6.55554541     13.80509971
H       5.82356942      0.56419307     -1.82817731
H       5.54952404     15.73759174     21.04551438
H       8.76081497     16.60522067     11.12322908
H       1.49937827     -1.67481117     -5.13944423
H      -4.77533671      7.11430031     -1.71083607
H      -7.60795814     21.24264761      9.77839679
H       1.49680170     -3.44997701     -2.80940909
H      -0.76215163      0.23219897      6.02740234
H       8.11160593    -10.53218073      8.31605522
H      16.05932600     -7.74269617     -5.87802646
H      -7.74116949     21.25126717     10.54688911
   94

C       6.76217086     -7.00389576    -12.79864205
C      -3.34056086    -13.05212199    -10.13486518
H       7.43841394     -6.27299614    -12.13063208
C      -0.94890389     -0.86353877      8.30819460
H      -5.69555276      8.55443731     -2.38824923
H       1.92066663     -2.61384482      7.42377048
C       0.40136580     -1.41043402      9.09604195
H       6.42840725     -8.07271150    -12.36967846
H      -9.00643961     -6.97078664    -19.18217708
H      -8.99873265     -7.74018135    -19.05422240
C       4.05474237      0.07310098     -3.81246557
H      16.72371920      5.80217338     13.90418504
C       8.58098305    -10.34777038      5.13973231
H       8.19987839     10.91512862     -2.20456110
H       8.75497116     -9.51667299      4.33943342
H       2.50419101    -10.90125366     17.33786799
C       7.23803270    -10.94266669      7.55866621
H       6.10779660    -11.00805881      7.07434517
C       7.46196478     11.10428565     -0.01523240
H       6.57656189    -10.86291399      8.58123766
H      11.29521010     15.62066130      8.91408489
H       6.83143309     11.71266560      0.76543700
C       8.23374997     10.27715803     -1.15643485
H      16.86244551      2.93397838     -5.08138723
C      15.75748091      2.72010514     -4.97026015
H       2.08239410      1.08570020     -3.18684019
H       7.70501855      9.17746783     -1.29099406
H      -2.55072360     10.61275719     11.84237930
C      17.22040477    -10.80461111     -8.05656513
H      -1.98523009     -0.49931061      8.84132621
H      -5.60594611      8.34972799     -0.46124173
C       1.42270993     -2.39443962     -2.91023099
H       0.11595149     -2.32870551      9.88665978
C       1.47810765    -10.71757842     17.93060862
H       0.96086280     -2.41267917     -1.79765627
H     -10.96218362    -12.27299271     15.66819969
H       1.07339996     -9.60113576     18.09701993
C      -0.00823636     -0.59364751     -4.48691779
H      -2.53069699      8.61659191     -1.01343538
C      -3.22342089     10.87732109     -1.58835688
H      -1.02634920     -0.09132954     -4.79928862
H      -3.44286554     11.56521687     -0.58625217
H      -2.09301305     11.21574066     -1.94711712
H      -3.83332389     11.47138560     -2.47986542
H      17.52060160    -10.19361353     -9.05443253
H      17.26260053    -11.93422587     -8.48487501
H      17.05107877    -10.78856628     -5.60885835
H       2.99133613      0.54312575      7.14340968
H       0.38145742     -0.52761691      9.96226314
H       0.85674268    -11.65035411     18.35694227
H       4.65062304     -0.13654875     -4.83294617
H      -9.42677612     -2.95204538     23.99743155
H       4.85329896     15.53099859     20.76094756
H      10.43435001     13.90885833      9.62681246
H       3.12065608     -1.27420376     10.55037209
H      26.59690495      7.39466927     -2.17319003
H      -4.58451401      9.53362477     11.50192211
H      27.28708079      7.54298020     -1.84143677
H      -0.92400503     -1.74099584      6.01041235
H       8.72259151    -12.43863082      6.09315582
H       6.41864080     -6.66311917    -13.89576294
H       4.11355674     -1.73495504      9.90177187
C      -0.93841841     -0.75164147      6.69529900
C     -10.36020723    -12.21608711     16.66246903
C       2.53842794     -0.52128610      7.36860295
C       1.87339605     -1.68992522      8.26906216
C       5.07061263      0.33336256     -2.64102540
C       9.46509975     15.96388942     10.45221220
C       3.02041553     -1.71021955      9.44500808
C      -3.56761874     10.07319086     11.67215074
C      10.46502360     15.10335657      9.60077621
C      -4.90148821      8.31807657     -1.47527285
C       1.41927335     -1.20266499     -4.05665806
C       2.44622316      0.04102192     -3.68633591
C      16.61460757    -10.23804793     -6.61777691
C      -3.51929325      9.24926605     -1.35700563
C       8.19830740    -11.36615244      6.28715223
H       9.41975512     10.05744597     -0.92772826
H      -3.11245234    -13.81884030    -10.93582210
H      15.39781418    -10.37836773     -6.50171436
H      -9.29847619     -2.27982138     24.37166948
H      -9.75823028    -12.15918120     17.65673801
H      16.54787815      6.55562248     13.80521880
H       5.83040862      0.58676679     -1.79476817
H       5.54951735     15.73760706     21.04554005
H       8.75987801     16.60528201     11.12251980
H       1.56243667     -1.70553493     -5.16901935
H      -4.77546575      7.11413367     -1.71080251
H      -7.60796435     21.24265186      9.77839884
H       1.69867284     -3.56513556     -2.88192955
H      -0.77847308      0.23437710      6.02245654
H       8.10788556    -10.52511064      8.31991563
H      14.20281005     -7.07427342     -5.53626129
H      -7.74117539     21.25127137     10.54689121
   94

C       6.77084815     -7.04084010    -12.87608215
C      -3.34112717    -13.05248073    -10.13511613
H       7.44521295     -6.30648745    -12.21012138
C      -0.95016341     -0.86510494      8.30060296
H      -5.69525092      8.55437651     -2.38841299
H       1.93199541     -2.60792567      7.45073923
C       0.39826591     -1.40560215      9.09790067
H       6.43785248     -8.10923291    -12.44569118
H      -9.00653188     -6.97078404    -19.18222446
H      -8.99882842     -7.74017935    -19.05427313
C       4.08892483      0.12292787     -3.81086830
H      16.72376232      5.80221155     13.90424235
C       8.58076164    -10.35118857      5.14130978
H       8.20015790     10.91380732     -2.20622616
H       8.75769465     -9.51957662      4.34222429
H       2.50415658    -10.90127811     17.33801057
C       7.23815304    -10.94294489      7.56226162
H       6.10838050    -11.00421707      7.07657806
C       7.46088432     11.10498401     -0.01612150
H       6.57685076    -10.87544639      8.58583221
H      11.29500760     15.62052420      8.91365450
H       6.83390794     11.71298991      0.76768000
C       8.23332360     10.27783653     -1.15685189
H      16.86595081      2.93382207     -5.08178466
C      15.76071295      2.72154455     -4.97050833
H       2.08841374      1.06591335     -3.17222079
H       7.70550320      9.17790209     -1.29299099
H      -2.55073174     10.61276409     11.84238173
C      17.18313021    -10.79665204     -8.06023465
H      -1.98979285     -0.50355815      8.82903488
H      -5.60580457      8.34956138     -0.46126117
C       1.70028412     -2.49076182     -2.95685210
H       0.10405627     -2.33230438      9.87517650
C       1.47806110    -10.71759919     17.93072858
H       1.27893273     -2.56826802     -1.83099464
H     -10.96220339    -12.27299719     15.66821717
H       1.07335475     -9.60115518     18.09713269
C       0.08797205     -0.68321826     -4.44514288
H      -2.53057342      8.61646883     -1.01339524
C      -3.22348074     10.87719946     -1.58835334
H      -0.93028007     -0.16943693     -4.74260564
H      -3.44297463     11.56505062     -0.58622812
H      -2.09314602     11.21577716     -1.94718983
H      -3.83346295     11.47120106     -2.47985032
H      17.53220572    -10.20722223     -9.05392984
H      17.19271324    -11.93749856     -8.45290135
H      17.01722272    -10.81665487     -5.58552435
H       2.99348886      0.54308475      7.12552799
H       0.37746960     -0.52592555      9.96731827
H       0.85669009    -11.65037689     18.35704851
H       4.68162419     -0.07164927     -4.83602690
H      -9.42678299     -2.95204325     23.99743963
H       4.85329498     15.53100555     20.76096234
H      10.43408331     13.90896336      9.62645027
H       3.13113879     -1.27613187     10.57172138
H      26.59692509      7.39464126     -2.17319753
H      -4.58451886      9.53362802     11.50191612
H      27.28709834      7.54295952     -1.84144214
H      -0.94729601     -1.73662278      5.99540888
H       8.72064314    -12.43986324      6.09364239
H       6.42795029     -6.70097282    -13.97362654
H       4.14174017     -1.76134786      9.88177060
C      -0.95004781     -0.75212833      6.68737612
C     -10.36022720    -12.21609180     16.66248667
C       2.53786624     -0.51321017      7.38019501
C       1.88112787     -1.67932072      8.28939876
C       5.08666933      0.37387711     -2.62301895
C       9.46621052     15.96400928     10.45351052
C       3.03317583     -1.70525403      9.46218542
C      -3.56762520     10.07319585     11.67214897
C      10.46537708     15.10345897      9.60119496
C      -4.90136658      8.31791234     -1.47530668
C       1.53872498     -1.26636421     -4.06064390
C       2.48451554      0.03900552     -3.68659746
C      16.70577059    -10.20093169     -6.59771769
C      -3.51918461      9.24911382     -1.35699004
C       8.19742107    -11.36746171      6.29026535
H       9.41893572     10.06011761     -0.92426527
H      -3.11295624    -13.81919069    -10.93606314
H      15.49779677    -10.03890845     -6.47767778
H      -9.29848251     -2.27981910     24.37167708
H      -9.75825018    -12.15918598     17.65675564
H      16.54791824      6.55565942     13.80527219
H       5.83606079      0.61007016     -1.76352822
H       5.54951345     15.73761390     21.04555473
H       8.75895689     16.60530136     11.12177626
H       1.62134319     -1.73961214     -5.19089214
H      -4.77556327      7.11393921     -1.71078908
H      -7.60796427     21.24264859      9.77839677
H       1.88854361     -3.67773068     -2.95854268
H      -0.79466209      0.23633958      6.01707097
H       8.10415574    -10.51811200      8.32403655
H      12.81983141     -6.79206509     -5.32930117
H      -7.74117531     21.25126843     10.54688914
   94

C       6.78372332     -7.07977342    -12.95504726
C      -3.34162604    -13.05281108    -10.13536177
H       7.46018784     -6.34373953    -12.29322902
C      -0.95123194     -0.86687316      8.29264434
H      -5.69497350      8.55434496     -2.38858489
H       1.94333083     -2.60154673      7.47767778
C       0.39527292     -1.40084303      9.09954126
H       6.45183965     -8.14776662    -12.52301845
H      -9.00660124     -6.97077974    -19.18225819
H      -8.99890139     -7.74017568    -19.05431037
C       4.11715269      0.17260267     -3.80637304
H      16.72380418      5.80224429     13.90429885
C       8.58126769    -10.35488443      5.14273722
H       8.20041776     10.91252298     -2.20788680
H       8.76200365     -9.52301690      4.34480866
H       2.50412988    -10.90129819     17.33812463
C       7.23858538    -10.94328618      7.56559284
H       6.10928588    -11.00045182      7.07857975
C       7.45977886     11.10572246     -0.01700842
H       6.57747154    -10.88791144      8.59002146
H      11.29480285     15.62039120      8.91322921
H       6.83636921     11.71333421      0.76992272
C       8.23287072     10.27855255     -1.15726930
H      16.86922007      2.93333505     -5.08226925
C      15.76382055      2.72200619     -4.97094863
H       2.08983608      1.03853791     -3.15269279
H       7.70596365      9.17837538     -1.29498889
H      -2.55074135     10.61276765     11.84238657
C      17.13315957    -10.78002478     -8.05439241
H      -1.99412951     -0.50801603      8.81640166
H      -5.60568858      8.34942459     -0.46128793
C       1.99545267     -2.58217309     -3.01593928
H       0.09256089     -2.33594895      9.86320820
C       1.47802394    -10.71761606     17.93082312
H       1.60904079     -2.70702176     -1.88072662
H     -10.96221585    -12.27299876     15.66822683
H       1.07331866     -9.60117078     18.09722016
C       0.18539489     -0.77604719     -4.39789441
H      -2.53047069      8.61634970     -1.01336943
C      -3.22354783     10.87708719     -1.58835723
H      -0.83173092     -0.25083596     -4.68458626
H      -3.44308784     11.56489537     -0.58621202
H      -2.09328407     11.21581471     -1.94727060
H      -3.83360550     11.47102812     -2.47984368
H      17.52647816    -10.19152609     -9.03125788
H      17.16488824    -11.92619205     -8.42571585
H      16.96060945    -10.78139943     -5.56853640
H       2.99557945      0.54228087      7.10701777
H       0.37338548     -0.52440425      9.97223240
H       0.85664785    -11.65039518     18.35713209
H       4.70454572     -0.00367785     -4.83775978
H      -9.42678761     -2.95204188     23.99744403
H       4.85329067     15.53101194     20.76097754
H      10.43381514     13.90907264      9.62609314
H       3.14158325     -1.27807551     10.59318252
H      26.59696097      7.39463187     -2.17320148
H      -4.58452443      9.53362659     11.50191245
H      27.28713214      7.54295344     -1.84144327
H      -0.97038890     -1.73232002      5.98010280
H       8.71901833    -12.44129040      6.09399778
H       6.43906760     -6.74016644    -14.05207513
H       4.16832133     -1.78836737      9.86098576
C      -0.96146738     -0.75286643      6.67911646
C     -10.36024027    -12.21609377     16.66249674
C       2.53727312     -0.50482402      7.39190846
C       1.88896079     -1.66844306      8.30986388
C       5.09910271      0.41778329     -2.60501869
C       9.46731965     15.96413268     10.45481283
C       3.04639744     -1.69982908      9.47931902
C      -3.56763275     10.07319683     11.67214956
C      10.46572880     15.10356488      9.60161751
C      -4.90127134      8.31777242     -1.47534826
C       1.65857697     -1.33267625     -4.06008390
C       2.51921409      0.02951324     -3.67858910
C      16.66623084    -10.19212490     -6.59610775
C      -3.51909377      9.24897295     -1.35698345
C       8.19690929    -11.36893566      6.29320394
H       9.41807586     10.06282301     -0.92081530
H      -3.11339153    -13.81951408    -10.93629726
H      15.49811956     -9.86898368     -6.45445221
H      -9.29848679     -2.27981766     24.37168125
H      -9.75826363    -12.15918826     17.65676598
H      16.54795746      6.55569119     13.80532593
H       5.83841202      0.63658989     -1.73314266
H       5.54950921     15.73762020     21.04556982
H       8.75803779     16.60532016     11.12103271
H       1.67707163     -1.77774347     -5.20385362
H      -4.77569618      7.11376858     -1.71078548
H      -7.60796516     21.24264652      9.77839557
H       2.06452607     -3.78156029     -3.03571254
H      -0.81080392      0.23811109      6.01143585
H       8.10059982    -10.51122564      8.32798015
H      11.66785312     -6.42725394     -5.11825980
H      -7.74117614     21.25126657     10.54688795
   94

C       6.80498526     -7.12044444    -13.02896817
C      -3.34201276    -13.05312584    -10.13560980
H       7.48912182     -6.38659943    -12.37270933
C      -0.95214921     -0.86880443      8.28459089
H      -5.69480021      8.55444037     -2.38874443
H       1.95460679     -2.59467379      7.50474667
C       0.39237999     -1.39613926      9.10115999
H       6.47406258     -8.18830410    -12.59599186
H      -9.00663906     -6.97077874    -19.18228319
H      -8.99894171     -7.74017515    -19.05433805
C       4.13682718      0.22116149     -3.79659951
H      16.72384457      5.80225517     13.90432832
C       8.58257653    -10.35842289      5.14318947
H       8.20071430     10.91135811     -2.20953234
H       8.76843284     -9.52719145      4.34581268
H       2.50411862    -10.90131726     17.33819697
C       7.23956290    -10.94346341      7.56807581
H       6.11071895    -10.99660482      7.07984168
C       7.45869614     11.10658358     -0.01787738
H       6.57871367    -10.90023896      8.59327802
H      11.29460226     15.62026096      8.91280794
H       6.83884571     11.71376261      0.77217979
C       8.23244688     10.27939782     -1.15767112
H      16.87084254      2.93033502     -5.08276422
C      15.76557126      2.71834081     -4.97156655
H       2.08503828      1.00424128     -3.12824867
H       7.70643708      9.17898826     -1.29696839
H      -2.55076148     10.61278445     11.84241233
C      17.11707342    -10.77697155     -8.05210129
H      -1.99827697     -0.51265910      8.80371219
H      -5.60567828      8.34941389     -0.46129723
C       2.28925199     -2.66726521     -3.09199072
H       0.08148111     -2.33963382      9.85094105
C       1.47800604    -10.71763311     17.93088312
H       1.94968199     -2.82393580     -1.94379263
H     -10.96222356    -12.27300118     15.66823375
H       1.07330138     -9.60118724     18.09727700
C       0.28323598     -0.86883203     -4.34939038
H      -2.53047275      8.61633198     -1.01331621
C      -3.22367388     10.87707007     -1.58835572
H      -0.73326314     -0.33409741     -4.62684044
H      -3.44325274     11.56483713     -0.58619065
H      -2.09347704     11.21593342     -1.94734579
H      -3.83379939     11.47094920     -2.47983677
H      17.52552415    -10.17755194     -9.01535184
H      17.16004204    -11.92378055     -8.41749309
H      16.94592707    -10.75334182     -5.55942205
H       2.99751433      0.54073247      7.08816982
H       0.36921785     -0.52304675      9.97721046
H       0.85662596    -11.65041295     18.35718447
H       4.71549110      0.07228314     -4.83704184
H      -9.42679154     -2.95204181     23.99744919
H       4.85328738     15.53101917     20.76099514
H      10.43355247     13.90918596      9.62574222
H       3.15191348     -1.28008210     10.61486635
H      26.59693672      7.39456984     -2.17321731
H      -4.58454120      9.53363895     11.50193158
H      27.28710587      7.54290184     -1.84145954
H      -0.99343008     -1.72802482      5.96480300
H       8.71786503    -12.44244745      6.09345000
H       6.45607945     -6.77946662    -14.12420061
H       4.19328419     -1.81585237      9.83959235
C      -0.97276797     -0.75378010      6.67080194
C     -10.36024830    -12.21609646     16.66250388
C       2.53661509     -0.49607301      7.40394949
C       1.89687095     -1.65726948      8.33064163
C       5.10426216      0.46757228     -2.58449956
C       9.46843456     15.96425962     10.45611999
C       3.06014316     -1.69404011      9.49652652
C      -3.56765126     10.07321147     11.67217218
C      10.46608580     15.10367407      9.60204443
C      -4.90128495      8.31775588     -1.47537440
C       1.77691170     -1.40005034     -4.05614121
C       2.54893203      0.01171131     -3.65934773
C      16.62739913    -10.20967141     -6.60046427
C      -3.51909971      9.24893640     -1.35696495
C       8.19696531    -11.37008731      6.29524231
H       9.41722790     10.06563427     -0.91736531
H      -3.11369095    -13.81981534    -10.93653315
H      15.48802177     -9.81318475     -6.44179485
H      -9.29849053     -2.27981754     24.37168626
H      -9.75827184    -12.15919114     17.65677325
H      16.54799645      6.55570187     13.80535629
H       5.83319733      0.67135598     -1.70111718
H       5.54950619     15.73762712     21.04558698
H       8.75712705     16.60533854     11.12028873
H       1.72978800     -1.81890682     -5.20857172
H      -4.77595740      7.11371930     -1.71076549
H      -7.60796945     21.24265142      9.77839843
H       2.22961657     -3.86810973     -3.10624922
H      -0.82701181      0.23978277      6.00586121
H       8.09746989    -10.50426881      8.33116142
H      10.43595366     -5.92132845     -4.88184145
H      -7.74118015     21.25127114     10.54689086
   94

C       6.83395988     -7.15922834    -13.08887799
C      -3.34219906    -13.05335926    -10.13580613
H       7.52547631     -6.43006359    -12.43508924
C      -0.95283278     -0.87088189      8.27658684
H      -5.69477736      8.55474510     -2.38886892
H       1.96589263     -2.58734107      7.53188825
C       0.38972864     -1.39151079      9.10278168
H       6.50272182     -8.22740336    -12.65684845
H      -9.00663206     -6.97078036    -19.18229325
H      -8.99893563     -7.74017698    -19.05434933
C       4.14707988      0.26697390     -3.77973362
H      16.72386421      5.80223023     13.90430213
C       8.58393491    -10.36045079      5.14127640
H       8.20110624     10.91009546     -2.21119669
H       8.77548957     -9.53121627      4.34314997
H       2.50413149    -10.90132868     17.33819377
C       7.24110344    -10.94291164      7.56889485
H       6.11263377    -10.99220593      7.07970572
C       7.45769894     11.10738271     -0.01877481
H       6.58072799    -10.91216396      8.59489096
H      11.29440400     15.62011061      8.91237478
H       6.84141538     11.71413912      0.77438100
C       8.23210508     10.28015504     -1.15809048
H      16.86894596      2.92545207     -5.08290216
C      15.76413151      2.71095629     -4.97194002
H       2.07379839      0.96603235     -3.09944807
H       7.70698406      9.17951929     -1.29896424
H      -2.55078489     10.61281208     11.84245867
C      17.11541002    -10.78111296     -8.05337696
H      -2.00214291     -0.51749069      8.79114483
H      -5.60581874      8.34961022     -0.46126363
C       2.56294053     -2.74012558     -3.18175964
H       0.07097293     -2.34338082      9.83840092
C       1.47801942    -10.71764474     17.93088097
H       2.29023371     -2.91414551     -2.01618284
H     -10.96222338    -12.27300426     15.66823664
H       1.07331479     -9.60119926     18.09727777
C       0.37963078     -0.95685428     -4.30343368
H      -2.53062295      8.61648584     -1.01319627
C      -3.22387308     10.87720870     -1.58833919
H      -0.63817966     -0.41618844     -4.57094969
H      -3.44347926     11.56493821     -0.58615497
H      -2.09373640     11.21618425     -1.94740584
H      -3.83405496     11.47102281     -2.47982342
H      17.52920813    -10.16705381     -9.00427683
H      17.16301116    -11.92717867     -8.41777035
H      16.95170492    -10.73461726     -5.55286548
H       2.99940414      0.53833062      7.06899913
H       0.36514053     -0.52188269      9.98228624
H       0.85663772    -11.65042387     18.35718161
H       4.71190990      0.15943709     -4.83256220
H      -9.42679280     -2.95204332     23.99745360
H       4.85328635     15.53102383     20.76101088
H      10.43329193     13.90928069      9.62537868
H       3.16220939     -1.28223639     10.63663855
H      26.59685061      7.39448053     -2.17323782
H      -4.58456382      9.53366522     11.50197637
H      27.28701909      7.54282652     -1.84148480
H      -1.01646864     -1.72369935      5.94969873
H       8.71707089    -12.44211799      6.09083960
H       6.48147989     -6.81576107    -14.18219864
H       4.21677812     -1.84366886      9.81751884
C      -0.98392807     -0.75481644      6.66258878
C     -10.36024779    -12.21609944     16.66250657
C       2.53602563     -0.48701133      7.41626435
C       1.90496145     -1.64583892      8.35169369
C       5.10034016      0.52272436     -2.55932237
C       9.46955679     15.96436975     10.45741866
C       3.07460409     -1.68806313      9.51369829
C      -3.56767447     10.07323866     11.67221816
C      10.46644632     15.10376399      9.60246025
C      -4.90145493      8.31794470     -1.47536136
C       1.89174854     -1.46341945     -4.05147712
C       2.57325975     -0.01191349     -3.62865339
C      16.60434881    -10.24025153     -6.60523395
C      -3.51924057      9.24907154     -1.35691443
C       8.19749765    -11.36967347      6.29520285
H       9.41644401     10.06831766     -0.91395421
H      -3.11378407    -13.82002799    -10.93672253
H      15.49002744     -9.79103600     -6.43560177
H      -9.29849185     -2.27981903     24.37169065
H      -9.75827102    -12.15919401     17.65677575
H      16.54801709      6.55567783     13.80533527
H       5.82005989      0.71505813     -1.66661560
H       5.54950558     15.73763135     21.04560204
H       8.75622907     16.60533924     11.11953126
H       1.77884684     -1.86087198     -5.20665015
H      -4.77640562      7.11387181     -1.71070245
H      -7.60797584     21.24266315      9.77840557
H       2.38379672     -3.93075885     -3.16005403
H      -0.84327086      0.24141537      6.00052514
H       8.09483988    -10.49678418      8.33276108
H       9.19689534     -5.43529626     -4.69113537
H      -7.74118611     21.25128194     10.54689808
   94

C       6.86310430     -7.19389356    -13.13671463
C      -3.34207140    -13.05338054    -10.13584192
H       7.55541342     -6.46766317    -12.48036625
C      -0.95317895     -0.87307403      8.26864748
H      -5.69488891      8.55529818     -2.38893923
H       1.97726284     -2.57959713      7.55892171
C       0.38747554     -1.38696935      9.10431496
H       6.53070902     -8.26257076    -12.70662514
H      -9.00658287     -6.97078104    -19.18227909
H      -8.99888591     -7.74017757    -19.05433464
C       4.15281834      0.30340437     -3.75745075
H      16.72385039      5.80217623     13.90422462
C       8.58430101    -10.36057824      5.13706690
H       8.20152552     10.90838613     -2.21292839
H       8.78045536     -9.53397754      4.33723558
H       2.50416385    -10.90132565     17.33810875
C       7.24273970    -10.94150134      7.56822445
H       6.11454113    -10.98707879      7.07837470
C       7.45674454     11.10780783     -0.01976561
H       6.58308988    -10.92353217      8.59504214
H      11.29419879     15.61992269      8.91191554
H       6.84409318     11.71423813      0.77644121
C       8.23176734     10.28046139     -1.15858297
H      16.86507915      2.92115127     -5.08271993
C      15.76072566      2.70412039     -4.97195347
H       2.06192357      0.92823126     -3.06883106
H       7.70754869      9.17959350     -1.30102981
H      -2.55079892     10.61283944     11.84251230
C      17.11769934    -10.78730974     -8.05541893
H      -2.00561102     -0.52250394      8.77875917
H      -5.60609044      8.35005298     -0.46117048
C       2.79956869     -2.79663832     -3.27278137
H       0.06120081     -2.34719311      9.82550950
C       1.47805970    -10.71764410     17.93081077
H       2.60695095     -2.97176271     -2.08973289
H     -10.96221383    -12.27300667     15.66823363
H       1.07335463     -9.60119976     18.09721519
C       0.47357840     -1.03232634     -4.26372318
H      -2.53088770      8.61681131     -1.01299884
C      -3.22410685     10.87750865     -1.58830486
H      -0.54862872     -0.49065678     -4.51827642
H      -3.44372604     11.56520899     -0.58610478
H      -2.09402074     11.21656050     -1.94744982
H      -3.83433098     11.47125727     -2.47980109
H      17.53435100    -10.15730850     -8.99375852
H      17.16835185    -11.93214529     -8.42060434
H      16.96420208    -10.71744224     -5.54783801
H       3.00139900      0.53490970      7.04930647
H       0.36134514     -0.52092683      9.98737138
H       0.85667985    -11.65042126     18.35711881
H       4.69907238      0.24585330     -4.82366878
H      -9.42679000     -2.95204599     23.99745500
H       4.85328735     15.53102295     20.76102025
H      10.43302111     13.90933914      9.62498425
H       3.17254993     -1.28458717     10.65824139
H      26.59674309      7.39440004     -2.17325497
H      -4.58458120      9.53369644     11.50203655
H      27.28691222      7.54275810     -1.84150857
H      -1.03952661     -1.71929439      5.93485043
H       8.71622157    -12.44001365      6.08624397
H       6.51033355     -6.84893319    -14.22951114
H       4.23896339     -1.87165881      9.79459358
C      -0.99489606     -0.75591099      6.65450258
C     -10.36023729    -12.21610131     16.66250294
C       2.53566543     -0.47772791      7.42863177
C       1.91334593     -1.63419187      8.37284607
C       5.09317175      0.57066679     -2.53084658
C       9.47067987     15.96444680     10.45869635
C       3.08995351     -1.68207111      9.53061285
C      -3.56769042     10.07326823     11.67227560
C      10.46680075     15.10381696      9.60285017
C      -4.90176275      8.31837300     -1.47529311
C       2.00113658     -1.51701448     -4.04838906
C       2.59519431     -0.03750332     -3.59080093
C      16.58467084    -10.27746982     -6.60949900
C      -3.51947922      9.24938532     -1.35682016
C       8.19797034    -11.36747661      6.29318764
H       9.41565063     10.07053394     -0.91063269
H      -3.11361420    -13.82003512    -10.93675974
H      15.49819674     -9.77530523     -6.43180592
H      -9.29848934     -2.27982171     24.37169219
H      -9.75825980    -12.15919540     17.65677163
H      16.54800636      6.55562551     13.80526500
H       5.80915096      0.75251714     -1.63375766
H       5.54950694     15.73763014     21.04561076
H       8.75534043     16.60530839     11.11874873
H       1.82288768     -1.90218684     -5.19908293
H      -4.77702916      7.11425957     -1.71057946
H      -7.60798168     21.24267855      9.77841529
H       2.51575579     -3.96605801     -3.18224763
H      -0.85950750      0.24306576      5.99545634
H       8.09229101    -10.48868101      8.33293297
H       8.06056755     -5.03827184     -4.57238225
H      -7.74119153     21.25129598     10.54690789
   94

C       6.88746230     -7.22605062    -13.18120635
C      -3.34149766    -13.05302836    -10.13559639
H       7.57614141     -6.50036982    -12.52030043
C      -0.95318323     -0.87529972      8.26075334
H      -5.69494511      8.55593595     -2.38897832
H       1.98865515     -2.57144389      7.58581810
C       0.38562421     -1.38246956      9.10572715
H       6.55402617     -8.29500598    -12.75241185
H      -9.00649876     -6.97077741    -19.18222892
H      -8.99880008     -7.74017355    -19.05428231
C       4.16488598      0.31463826     -3.73508048
H      16.72380775      5.80211170     13.90412274
C       8.58342888    -10.35955822      5.13157098
H       8.20172371     10.90584154     -2.21477767
H       8.78261803     -9.53543409      4.32980514
H       2.50420410    -10.90131034     17.33796929
C       7.24407686    -10.93955739      7.56677772
H       6.11607685    -10.98144130      7.07646631
C       7.45562461     11.10749454     -0.02091061
H       6.58533458    -10.93442193      8.59437550
H      11.29397354     15.61969063      8.91141936
H       6.84676466     11.71379125      0.77829711
C       8.23117842     10.27990821     -1.15920992
H      16.86168629      2.91849506     -5.08247232
C      15.75761226      2.69992220     -4.97180939
H       2.06208833      0.89105798     -3.04345295
H       7.70789089      9.17879268     -1.30321488
H      -2.55079160     10.61285262     11.84254570
C      17.12044641    -10.79365800     -8.05684252
H      -2.00867453     -0.52764140      8.76655903
H      -5.60629700      8.35058383     -0.46105322
C       2.99365399     -2.84587653     -3.34822710
H       0.05217093     -2.35101001      9.81225335
C       1.47811281    -10.71763239     17.93069520
H       2.87800452     -3.00505627     -2.15174462
H     -10.96219880    -12.27300912     15.66822717
H       1.07340701     -9.60118961     18.09710977
C       0.56738027     -1.09205045     -4.23354159
H      -2.53104118      8.61708147     -1.01283048
C      -3.22421884     10.87778596     -1.58827703
H      -0.46122106     -0.55153322     -4.46952321
H      -3.44384093     11.56546932     -0.58606697
H      -2.09417527     11.21687827     -1.94750646
H      -3.83447636     11.47148202     -2.47978381
H      17.53939874    -10.14747395     -8.98230425
H      17.17404336    -11.93704930     -8.42372179
H      16.97848827    -10.69983842     -5.54492426
H       3.00345729      0.53040721      7.02903702
H       0.35785986     -0.52012631      9.99242387
H       0.85673786    -11.65040715     18.35701620
H       4.69203095      0.29788961     -4.81206383
H      -9.42678438     -2.95204885     23.99745401
H       4.85328886     15.53101592     20.76102020
H      10.43272377     13.90935470      9.62454543
H       3.18286899     -1.28708727     10.67956080
H      26.59665035      7.39434487     -2.17326520
H      -4.58458187      9.53371955     11.50208571
H      27.28682070      7.54271078     -1.84152475
H      -1.06270986     -1.71472397      5.92028036
H       8.71502644    -12.43682723      6.08054812
H       6.53673472     -6.88142152    -14.27481481
H       4.25986753     -1.89961009      9.77083730
C      -1.00569503     -0.75696071      6.64652740
C     -10.36022081    -12.21610272     16.66249552
C       2.53555460     -0.46822991      7.44096960
C       1.92201749     -1.62230250      8.39405158
C       5.09489195      0.58519301     -2.50302125
C       9.47179245     15.96448389     10.45994374
C       3.10620697     -1.67617653      9.54720544
C      -3.56768720     10.07328648     11.67231721
C      10.46713568     15.10382622      9.60320280
C      -4.90200949      8.31886534     -1.47520301
C       2.10472116     -1.56583488     -4.04537676
C       2.62128644     -0.06825726     -3.55341948
C      16.56431047    -10.31730493     -6.61260424
C      -3.51959845      9.24967844     -1.35671773
C       8.19800522    -11.36425067      6.29010704
H       9.41460180     10.07193937     -0.90744787
H      -3.11311939    -13.81969774    -10.93652266
H      15.50900563     -9.76082041     -6.42967058
H      -9.29848415     -2.27982459     24.37169137
H      -9.75824224    -12.15919594     17.65676348
H      16.54796733      6.55556267     13.80516962
H       5.81287003      0.75726890     -1.60656597
H       5.54950857     15.73762304     21.04561044
H       8.75445065     16.60523968     11.11793221
H       1.86168930     -1.95180727     -5.18325370
H      -4.77761965      7.11470919     -1.71043503
H      -7.60798279     21.24268971      9.77842219
H       2.63077968     -3.98442927     -3.16121647
H      -0.87570471      0.24480459      5.99060333
H       8.08943151    -10.48025317      8.33238139
H       7.00946801     -4.59893097     -4.51268729
H      -7.74119256     21.25130614     10.54691482
   94

C       6.90780487     -7.25427901    -13.21706537
C      -3.33980010    -13.05152339    -10.13445385
H       7.58779267     -6.52714195    -12.54862388
C      -0.95288394     -0.88108761      8.24222930
H      -5.69407940      8.55615352     -2.38910652
H       2.01008015     -2.55740147      7.63679498
C       0.38265928     -1.37450845      9.10529360
H       6.57319670     -8.32337614    -12.78928601
H      -9.00629938     -6.97077983    -19.18209263
H      -8.99858819     -7.74017383    -19.05413396
C       4.21932767      0.26753505     -3.73566767
H      16.72363584      5.80198181     13.90388378
C       8.58116346    -10.35794289      5.12291172
H       8.20041457     10.89813365     -2.21852480
H       8.78199196     -9.53579230      4.31929630
H       2.50425844    -10.90118632     17.33758517
C       7.24546396    -10.93672268      7.56512894
H       6.11821135    -10.97269067      7.07307678
C       7.45427173     11.10392998     -0.02230140
H       6.58710240    -10.94838381      8.59306511
H      11.29370050     15.61909498      8.91065878
H       6.85001616     11.71092451      0.77987945
C       8.22890101     10.27567748     -1.16083183
H      16.85665692      2.91566089     -5.08201493
C      15.75282822      2.69569544     -4.97145247
H       2.10719387      0.79902472     -3.04543184
H       7.70695062      9.17430202     -1.30786403
H      -2.55067572     10.61270638     11.84234489
C      17.12279749    -10.80109107     -8.05785180
H      -2.01266728     -0.53530191      8.74045470
H      -5.60556786      8.35050474     -0.46094616
C       3.40517604     -2.91586821     -3.56963055
H       0.03542990     -2.35828404      9.78339713
C       1.47819573    -10.71751696     17.93036419
H       3.42196205     -3.11575377     -2.37337923
H     -10.96213609    -12.27297242     15.66815272
H       1.07348491     -9.60107587     18.09678088
C       0.75271434     -1.21709601     -4.18706577
H      -2.53013503      8.61624264     -1.01314714
C      -3.22360094     10.87719984     -1.58834653
H      -0.27065853     -0.65256132     -4.40093346
H      -3.44324607     11.56484816     -0.58611472
H      -2.09365175     11.21639545     -1.94775478
H      -3.83395149     11.47087699     -2.47981010
H      17.54240420    -10.13041866     -8.96423904
H      17.17657401    -11.94365065     -8.42317532
H      16.99432910    -10.67728686     -5.54677467
H       3.00574739      0.52013417      6.99226692
H       0.35205053     -0.51864880      9.99843801
H       0.85684386    -11.65028868     18.35672652
H       4.74228343      0.22088305     -4.81397336
H      -9.42675544     -2.95204824     23.99740376
H       4.85328696     15.53096950     20.76096060
H      10.43232956     13.90921499      9.62381451
H       3.20082572     -1.28879917     10.71726286
H      26.59648769      7.39426669     -2.17327341
H      -4.58447377      9.53358198     11.50190853
H      27.28666125      7.54264242     -1.84154386
H      -1.10575632     -1.70543114      5.88851390
H       8.71281457    -12.43119437      6.07056336
H       6.56242889     -6.91231180    -14.31328610
H       4.29810864     -1.94930208      9.71934906
C      -1.02753011     -0.75926954      6.62799114
C     -10.36016020    -12.21606716     16.66242232
C       2.53710489     -0.45344231      7.45965133
C       1.93948722     -1.60029428      8.43310089
C       5.13165220      0.50288528     -2.48491125
C       9.47283100     15.96434886     10.46109677
C       3.13932599     -1.66848397      9.57764937
C      -3.56757474     10.07314418     11.67212671
C      10.46736879     15.10367970      9.60337994
C      -4.90141629      8.31869829     -1.47518943
C       2.29855748     -1.68683314     -4.05665601
C       2.69585168     -0.16426288     -3.52061705
C      16.53926581    -10.36512972     -6.61583544
C      -3.51868806      9.24904332     -1.35671539
C       8.19636257    -11.35940062      6.28484090
H       9.41155155     10.07121778     -0.90263209
H      -3.11177660    -13.81826260    -10.93541594
H      15.52495857     -9.74609469     -6.43219518
H      -9.29845674     -2.27982476     24.37164303
H      -9.75818431    -12.15916191     17.65669192
H      16.54780144      6.55543492     13.80493636
H       5.84444275      0.67522756     -1.58666108
H       5.54950501     15.73757849     21.04555355
H       8.75345210     16.60500014     11.11698476
H       1.92025370     -2.08982600     -5.15066153
H      -4.77766541      7.11447849     -1.71039967
H      -7.60795419     21.24264930      9.77839801
H       3.11497399     -4.05167170     -3.26343506
H      -0.90390974      0.24767221      5.97858365
H       8.08382945    -10.46711465      8.33252143
H       4.56053514     -3.25213564     -3.95202604
H      -7.74116572     21.25126849     10.54689030
