   94
energy=      0.00000000
C      -8.29483602     -4.47244972     -4.55421583
C      -7.15229183     -4.99118165     -3.55038750
H      -9.06692772     -4.05715085     -5.33427151
C     -19.80749881      4.21366694     -4.09628323
H     -18.79806001     -7.13190451     -1.83558041
H      -6.63228895     -4.03274977     -2.98651911
C       8.90062919     -2.40769255      8.33031936
H      -7.55756992     -5.73915849     -2.66508885
H      -7.28024544     -5.67081656    -16.88091733
H      -7.27253425     -6.44021056    -16.75295866
C       2.00513204    -11.93925160     -5.11909096
H       1.57443367    -10.90500124     -5.43375002
C       8.53383042     -2.98303235      6.90783493
H       2.43583030    -12.97350205     -4.80443204
H       9.24075373     -2.24945549      6.21688750
H       7.49707874     -2.34490174      6.71931353
C       8.58123895     -4.67595378      6.75523988
H       7.65142099     -5.09503868      6.05045561
C       5.50864336      0.42123394     -4.00491291
H       8.20812968     -5.27757554      7.77405891
H       5.50122028      0.89657871     -5.14218740
H       5.85101183      1.43065012     -3.38239387
C       4.09758993     -0.36567977     -3.49259397
H       3.85231838     -0.36891368     -2.28237147
C       6.77725769      9.35277083    -15.75254447
H       4.01849830     -1.59049792     -3.62391093
H       6.13125099     10.16089785    -16.21192283
H      -0.78183334     12.45572025     11.35120484
C      12.37234461     -6.91729667    -13.67192055
H     -19.07803811      4.98722064     -3.63706500
H     -19.17738820     -7.11587672     -1.15421341
C      -3.14104127      3.78182810    -11.33343365
H     -20.78773204      4.25621201     -4.71167932
C      -2.53539465     -5.57810408     12.53393440
H      -4.30628669      3.71685851    -11.05789087
H      -1.16142184     -5.71871246     10.63569692
H      -3.51164230     -5.20333046     13.06633001
C       2.72564293      0.15200190     -4.17102285
H      -2.48682414      3.05476448      3.12646281
C      -3.28760492      3.05278649      4.06180620
H       1.75937075      0.56330364     -4.69989095
H      -3.18748445      4.10701588      4.69005561
H      -3.04364760      2.10497915      4.80897895
H      -4.43246349      2.94438643      3.62172744
H      11.94284700     -5.83658463    -13.37948360
H      12.89496904     -7.08642857    -14.73783996
H      12.27921780     -7.82887681    -12.89843808
H       9.02540157      5.93108190     16.64452885
H       7.23742917      4.46823777     14.32400386
H      -1.13488862     -7.31733218     11.80967746
H      11.05693324      3.29981831     16.08596777
H      -8.70101793     -4.16259184     22.46177845
H       6.84057158      5.95846139     11.06844719
H      -2.36284384     13.39721889     23.39988333
H       9.96573337      5.71532730     12.61046316
H       8.59347222     -1.19036326     -5.59912517
H      -2.53888075     11.52337845     11.05710273
H      17.19268683      0.27630238     -4.25468992
H      -2.47833210      2.78337846    -11.37624814
H      10.15970292     -6.43269824      5.58413546
H      28.49034079     -1.46169831     -0.04504877
H       9.10859509      4.24007753     12.23655173
C      17.30322965     -4.04092092     16.91429424
C      -1.19850789     -6.09133876     11.80484401
C       9.03566475      4.97393058     15.85199279
C       8.20380035      5.25421416     14.36257509
C      10.60593483      4.41630221     15.95687286
C       7.92803493      6.15450181     11.56771528
C       8.79540635      5.33129724     12.74298070
C      -1.98396824     12.61935580     11.14092852
C      -1.84349275     14.36154893     23.00678381
C       8.09437222     -1.31815397     -4.52030831
C      17.21947543      0.78728280     -5.33003020
C      17.89092496      0.01649022     -6.48135625
C      28.19343957     -0.49426250     -0.68835562
C       6.88375767     -0.40900760     -4.09197135
C       9.97543838     -5.44514018      6.25913977
H      27.74032038     -0.62340627     -1.79104822
H      -6.30989391     -5.62205652     -4.18211730
H      16.35524265     -3.75935048     17.46515407
H      -8.57271924     -3.49036836     22.83601772
H      -0.19528073     -5.66177656     12.36710929
H      11.66558875      5.00331710     15.95891783
H       8.42479021      4.25453163     16.66144446
H       8.14996673      7.16970778     10.94494141
H      -1.32414165     15.32587898     22.61368431
H       7.53427073      6.28696531     14.54591004
H       8.49485820     -2.20410734     -3.82848308
H      -2.13583522     13.23797264     10.08718725
H      16.77268712      1.86780048     -5.55650569
H      -2.63821847      4.84526286    -11.56622968
H      11.14627275     -5.21954550      6.45965997
H      28.34965753      0.60231707     -0.22896987
H      -2.47932363     13.26035188     12.06821925
   94
energy=      0.00000000
C      -8.28267116     -4.49093641     -4.59811565
C      -7.14643293     -5.01288798     -3.58876532
H      -9.10028172     -4.10190306     -5.34453404
C     -19.88683282      4.48673766     -4.14928255
H     -18.83560498     -7.16969647     -1.82045356
H      -6.60879291     -4.06985998     -3.01539207
C       9.53853275     -4.64552755      7.02402880
H      -7.60397525     -5.75432044     -2.72384800
H      -7.28388872     -5.67953628    -16.88575718
H      -7.27617753     -6.44893027    -16.75779851
C       6.70181685      0.67527917      9.49426307
H       5.86643820     -0.07049648      9.03149043
C       9.13368190     -5.19486616      5.60139407
H       6.14089808     -0.38604690      9.30109579
H       9.86869857     -4.48647906      4.91363077
H       8.13321190     -4.51313120      5.37829207
C       9.09809793     -6.88914765      5.47015099
H       8.14157143     -7.29914226      4.79656425
C       5.47508832      0.43763980     -4.05126268
H       8.69089217     -7.48000483      6.48248963
H       5.45570140      1.00177276     -5.14711133
H       5.85406841      1.41360790     -3.39767310
C       4.07151184     -0.35279121     -3.52342146
H       3.85108892     -0.36795976     -2.30821081
C       6.77725769      9.35277083    -15.75254447
H       3.98853773     -1.57566080     -3.66597728
H       6.13125099     10.16089785    -16.21192283
H      -0.77720873     12.48904571     11.36357135
C      12.37234461     -6.91729667    -13.67192055
H     -18.96942594      4.91089830     -3.57260399
H     -19.21493076     -7.15366878     -1.13909090
C      -3.17972218      3.80564586    -11.36533425
H     -20.82157189      4.11898188     -4.73675538
C      -2.53539730     -5.57810544     12.53393346
H      -4.34496149      3.74067691    -11.08979293
H      -1.16141931     -5.71871979     10.63569431
H      -3.51163865     -5.20332635     13.06633678
C       2.68332350      0.15883621     -4.17198853
H      -2.47285711      3.05447970      3.13574592
C      -3.27363891      3.05250404      4.07108844
H       1.69943405      0.55491487     -4.67937334
H      -3.17352108      4.10673387      4.69933752
H      -3.02967940      2.10469612      4.81825974
H      -4.41849806      2.94410646      3.63101058
H      11.94284700     -5.83658463    -13.37948360
H      12.89496904     -7.08642857    -14.73783995
H      12.27921780     -7.82887681    -12.89843808
H       8.43336120      2.35878263     12.67988213
H       6.37039291      4.60372885     13.51321923
H      -1.13488669     -7.31733327     11.80967044
H       8.16311942      0.91231015     10.91639262
H      -8.70101793     -4.16259184     22.46177845
H       6.50360237      7.33216946     11.56734736
H      -2.36257759     13.40054632     23.42277100
H       9.14274705      6.31398980     13.40402049
H       8.64780661     -1.21642712     -5.58226316
H      -2.53425782     11.55670231     11.06946201
H      17.22127530      0.28702895     -4.28318333
H      -2.51714743      2.80710144    -11.40810739
H      10.65643323     -8.60784321      4.22226639
H      28.53745501     -1.46704196     -0.02461405
H       9.46461482      5.51641411     12.03584867
C      17.30322965     -4.04092092     16.91429424
C      -1.19851047     -6.09134005     11.80484316
C       7.39608746      2.74925759     12.16789948
C       7.41763336      4.36417988     12.90919445
C       7.22125733      1.65172064     10.81639183
C       7.63472848      7.14032486     11.94349807
C       8.38101068      5.77658461     12.57150668
C      -1.97934341     12.65267842     11.15329161
C      -1.84322649     14.36487636     23.02967149
C       8.06757794     -1.33417213     -4.54429720
C      17.25413085      0.80154965     -5.35676962
C      17.91918836      0.02984045     -6.51112472
C      28.24055379     -0.49960615     -0.66792090
C       6.81133473     -0.44404352     -4.21737967
C      10.48198565     -7.66898301      4.96463085
H      27.78743460     -0.62874992     -1.77061350
H      -6.28575807     -5.64395647     -4.19546971
H      16.35524265     -3.75935048     17.46515407
H      -8.57271924     -3.49036836     22.83601772
H      -0.19529162     -5.66177091     12.36711796
H       7.32494203      0.76933890      8.42524230
H       6.85130808      2.01435326     12.98441163
H       7.95441463      8.29082563     11.72534121
H      -1.32387540     15.32920641     22.63657198
H       7.27978415      4.56800342     14.12005776
H       8.47433271     -2.16629485     -3.79091261
H      -2.13121206     13.27129161     10.09954844
H      16.80197574      1.87877874     -5.58818293
H      -2.67704752      4.86915977    -11.59810484
H      11.65074255     -7.48475155      5.21538525
H      28.39677175      0.59697342     -0.20853516
H      -2.47469505     13.29367405     12.08058466
