   94

C       7.14132515     -6.82746937     -7.67211851
C       5.66976870     -7.61496441     -7.24969522
H       7.40694927     -6.01577660     -6.76683580
C     -10.35223719     -0.90292630      5.86262389
H     -18.89185999     -7.18329685     -1.80818867
H       4.67166138     -6.98084813     -6.87401617
C       9.95468161     -1.97273913      8.39004474
H       5.67381937     -8.42885859     -6.31365259
H      -7.80593454     -6.26921023    -16.92112743
H      -7.79822335     -7.03860423    -16.79316876
C       9.64535897      2.14847603      6.08658282
H      10.79115716      2.30487782      6.46614137
C       9.72922803     -3.01205797      7.16366907
H       7.05694045      4.07333598     -4.12410249
H      10.90341720     -2.93668333      6.81122168
H      -0.14325298     -7.37313449     12.68691269
C       8.74250375     -4.26559077      7.28234263
H       7.76441577     -4.45936574      8.00563599
C       5.73380551      6.02040460     -2.95411390
H       9.09840508     -5.42637520      7.48716424
H       6.45771463      6.89485591     -3.45175502
H       4.67630330      6.43688106     -3.44245629
C       6.08751385      4.79290679     -4.03525771
H      10.11733859      4.52105979    -13.33313342
C       9.46467496      4.17005141    -12.47924795
H       8.99294478      2.24320972      3.33704072
H       5.54174780      4.42668169     -5.05831530
H      -3.00408543     13.84794161     10.96389439
C       8.54792762     -7.65824755     -8.22881132
H     -10.74359595      0.21633235      5.71281672
H     -19.27118577     -7.16726916     -1.12682601
C       0.52599529     -6.42866969      1.98652116
H     -11.01390178     -1.78378982      5.39934946
C      -1.16836747     -7.12813897     13.27900915
H      -0.28583686     -6.89923232      2.67476856
H      -3.40368859     -8.07765387     13.53438564
H      -1.16511054     -5.92173090     13.19491519
C      -3.87595701     -0.10819230     -7.36505664
H       6.27715124      7.16918721     -0.97643500
C       4.27689769      6.13015603     -0.29494116
H      -4.39435324      0.79037733     -7.89231580
H       4.20353081      6.89629141      0.67912942
H       3.79334800      5.11946210      0.23163992
H       3.17320154      6.45378256     -0.74730653
H       8.82937245     -7.49641360     -9.42743234
H       8.42955287     -8.86345561     -8.49139871
H      10.56863748     -8.30751328     -6.65835003
H       8.14849704      0.11695459      9.45882865
H      11.48655968     -0.73676973      8.87655071
H      -2.03575112     -9.35619574     13.92867783
H       7.90543754      1.02607611      7.00137285
H      -8.74525987     -4.13751985     22.51987897
H       4.88943974     13.63721275     17.32690582
H       3.25926846     13.52698478     20.33246714
H      10.78218324     -1.44147368     11.87141955
H      17.43837796      4.39965497      0.15020661
H      -4.76113496     12.91559780     10.66978319
H      18.12855173      4.54803079      0.48193603
H       0.11273072      1.59437111    -19.51251844
H       7.70729345     -3.14768642      5.33805776
H       6.90653660     -5.86021990     -8.42267078
H      11.78862246     -0.05711209     11.44270344
C      -9.02049327     -1.20442128      6.63797963
C      -2.26250827     -8.14629068     13.99852871
C       9.19494084      0.51209783      8.92591805
C      10.34865785     -0.69259399      9.32436375
C       9.03910215      1.21512072      7.37039787
C       5.08873904     14.24862159     18.37154065
C      10.96070796     -0.75612253     10.88804880
C      -4.20622006     14.01157358     10.75361378
C       4.05973914     13.74082761     19.49890826
C       6.84298315      5.06530565     -0.47169851
C      10.88080856      1.74952469      3.67845200
C       9.55921156      2.08792721      4.40650597
C       9.98552754     -7.53344649     -7.38418573
C       5.73349446      6.07525744     -1.22177440
C       8.75573889     -3.39279585      5.93273971
H       7.93402571      5.26250767      0.01873931
H       5.05318183     -8.27203875     -8.10196885
H      -8.03208998     -1.42818700      7.21343874
H      -8.61696117     -3.46529636     22.89411824
H      -2.38562326     -7.98143263     15.21515130
H       9.53270963      3.34565552      6.32623789
H       9.03314497      1.37879967      9.79490123
H       6.30343405     14.11457045     18.29678992
H       4.96923162     15.45852585     18.53183421
H      -3.38449524     -1.02173099     -6.83772693
H       6.81615862      3.88950715     -0.18588836
H      -4.35808914     14.63018583      9.69987011
H       1.33616677     -5.95743679      1.29677713
H       0.05298390      2.36879256    -19.58394447
H       9.15057037     -3.38480025      4.76573249
H      10.79200079     -6.63300493     -7.29813748
H      -4.70157073     14.65256910     11.68090742
   94

C       7.14289680     -6.82651789     -7.67495299
C       5.67272063     -7.61642001     -7.25259103
H       7.40813446     -6.01384795     -6.77041398
C      -9.02850801     -0.93476906      6.00435018
H     -18.89283766     -7.18389761     -1.80886893
H       4.67367980     -6.98462928     -6.87568864
C       9.54781612     -2.01435158      8.43944799
H       5.67885101     -8.43095796     -6.31711112
H      -7.80701710     -6.27047780    -16.92130777
H      -7.79930401     -7.03987003    -16.79333846
C       9.57800819      2.18002425      6.12121078
H      10.72155818      2.29699912      6.52706560
C       9.37864593     -2.99170709      7.16100895
H       7.04800158      4.11431481     -4.17141666
H      10.55322629     -2.89158666      6.81485580
H      -0.13695724     -7.38373278     12.69564121
C       8.42561210     -4.27839223      7.25666426
H       7.48355332     -4.51544513      8.01241048
C       5.72801465      6.07283942     -3.01089566
H       8.79659337     -5.43127794      7.47640778
H       6.44978935      6.94769304     -3.51124244
H       4.67519381      6.49589496     -3.50384571
C       6.07924622      4.83437399     -4.07991293
H      10.13748632      4.51673239    -13.37042031
C       9.48478629      4.16569033    -12.51657868
H       8.99782705      2.24719281      3.37396349
H       5.52453514      4.44673877     -5.08956522
H      -3.00342934     13.85119176     10.96479588
C       8.54864612     -7.65819482     -8.23223161
H      -9.37709556      0.19743170      5.85351708
H     -19.27203815     -7.16780415     -1.12743785
C       0.40074754     -6.59144822      1.86854909
H      -9.66307211     -1.88054716      5.53414548
C      -1.16069974     -7.13847829     13.29001281
H      -0.40637971     -7.06936021      2.55718834
H      -3.39708958     -8.08772623     13.54502074
H      -1.15407468     -5.93177132     13.21056940
C      -3.88187425     -0.09459181     -7.38707789
H       6.26904709      7.21791815     -1.02795383
C       4.26808101      6.17286201     -0.35517772
H      -4.39928199      0.80501489     -7.91353882
H       4.19283324      6.93014968      0.62557524
H       3.78283997      5.15685293      0.15937139
H       3.16592623      6.50250347     -0.80699513
H       8.82928625     -7.49661195     -9.43104780
H       8.43115715     -8.86315579     -8.49643117
H      10.56154733     -8.30588246     -6.65181748
H       7.83723480      0.27196028      9.43981626
H      11.12871477     -0.84714594      8.96876754
H      -2.02946084     -9.36591924     13.93858611
H       7.76098593      1.06436158      6.90829156
H      -8.74547614     -4.13804372     22.52276990
H       4.87895556     13.65186525     17.32219624
H       3.26802202     13.51485198     20.33562403
H      10.38624927     -1.51593544     11.89139772
H      17.43922128      4.40001971      0.14941710
H      -4.76053008     12.91895178     10.67083166
H      18.12925100      4.54829827      0.48148888
H       0.10926182      1.59445141    -19.51629810
H       7.42698189     -3.15869745      5.29331117
H       6.90805656     -5.85810182     -8.42396624
H      11.40280064     -0.16328228     11.50879073
C      -7.77270978     -1.15972930      6.92295323
C      -2.25580087     -8.15597125     14.00890971
C       8.92228817      0.55476662      8.91729684
C       9.97219431     -0.72901097      9.35599911
C       8.85935043      1.26982270      7.36268826
C       5.08760409     14.25298765     18.37098745
C      10.52103627     -0.77983522     10.93999388
C      -4.20555165     14.01489844     10.75453269
C       4.06308495     13.74400760     19.50126941
C       6.83630029      5.11098497     -0.53442382
C      10.88465494      1.75108957      3.72143019
C       9.56322561      2.10404857      4.44305152
C       9.98510890     -7.53440849     -7.38571393
C       5.72652096      6.12456086     -1.27886085
C       8.46243174     -3.41283818      5.90670563
H       7.92904280      5.30401823     -0.04664306
H       5.05664544     -8.27297817     -8.10563452
H      -6.83611946     -1.48810714      7.53852812
H      -8.61716264     -3.46571550     22.89681613
H      -2.37952425     -7.99098999     15.22545167
H       9.48645762      3.38174418      6.35195471
H       8.82250647      1.45380484      9.76105482
H       6.30196655     14.10178941     18.32517575
H       4.97079263     15.46622231     18.50658354
H      -3.38851198     -1.00757993     -6.86056927
H       6.81274255      3.93317078     -0.25669307
H      -4.35747336     14.63339105      9.70073232
H       1.20736936     -6.11456496      1.17860756
H       0.04951133      2.36887342    -19.58771525
H       8.89659050     -3.37992677      4.75372780
H      10.79575508     -6.63720024     -7.30545415
H      -4.70096431     14.65581553     11.68184136
   94

C       7.14460825     -6.82555867     -7.67798127
C       5.67581513     -7.61791638     -7.25579547
H       7.40942767     -6.01192535     -6.77416683
C      -7.67222176     -0.95211990      6.10587060
H     -18.89307900     -7.18391130     -1.80888264
H       4.67583309     -6.98846231     -6.87769868
C       9.07961435     -2.03085511      8.47567424
H       5.68401508     -8.43312094     -6.32090437
H      -7.80815109     -6.27172461    -16.92141212
H      -7.80043588     -7.04111538    -16.79343396
C       9.52435994      2.20978208      6.16248991
H      10.66416240      2.28084924      6.59472404
C       8.99702223     -2.95696068      7.15321347
H       7.03956783      4.15490432     -4.21840104
H      10.17289416     -2.82646881      6.81767110
H      -0.12658845     -7.40413921     12.71163565
C       8.11675488     -4.30417938      7.22479697
H       7.21720938     -4.60182340      8.00910368
C       5.72334994      6.12485207     -3.06715183
H       8.52760227     -5.43994595      7.46329008
H       6.44293419      7.00011997     -3.57025539
H       4.67525461      6.55449008     -3.56467726
C       6.07166093      4.87566368     -4.12422566
H      10.15766936      4.51238200    -13.40773502
C       9.50494253      4.16131114    -12.55392763
H       9.00957841      2.25162034      3.42033734
H       5.50808422      4.46709939     -5.12000149
H      -3.00323292     13.85472773     10.96571024
C       8.54951962     -7.65814503     -8.23578202
H      -8.01233765      0.18634552      5.98620719
H     -19.27219618     -7.16778484     -1.12740596
C       0.28568085     -6.76658237      1.74085382
H      -8.26852536     -1.96840839      5.63230777
C      -1.14838921     -7.15816386     13.30906890
H      -0.51421169     -7.25858340      2.42793145
H      -3.38868735     -8.10395612     13.56148343
H      -1.13337085     -5.95084110     13.24124091
C      -3.88849570     -0.08086023     -7.40975575
H       6.26273131      7.26577550     -1.07900602
C       4.26081392      6.21553377     -0.41522034
H      -4.40498194      0.81991030     -7.93512489
H       4.18370790      6.96403824      0.57203386
H       3.77386350      5.19440809      0.08730147
H       3.16025092      6.55128319     -0.86647956
H       8.82936834     -7.49680824     -9.43478796
H       8.43293677     -8.86285887     -8.50159259
H      10.55457208     -8.30416333     -6.64542956
H       7.53958258      0.46706236      9.41931514
H      10.72664516     -0.96567589      9.06535500
H      -2.02264774     -9.38289873     13.95425509
H       7.63442638      1.11277259      6.82051245
H      -8.74615470     -4.13849778     22.52533060
H       4.86870406     13.66637372     17.31788874
H       3.27687439     13.50276113     20.33868551
H       9.99157849     -1.59633069     11.90009266
H      17.44004604      4.40014917      0.14883505
H      -4.76046094     12.92263114     10.67189940
H      18.12994488      4.54836316      0.48120682
H       0.10576487      1.59453351    -19.52006494
H       7.15563482     -3.18932212      5.23182357
H       6.90972952     -5.85596966     -8.42544540
H      10.99931515     -0.26365727     11.57308722
C      -6.57966921     -1.08911915      7.23695682
C      -2.24756697     -8.17276939     14.02561114
C       8.65538410      0.61282694      8.90942244
C       9.56202732     -0.76348502      9.39566311
C       8.69121319      1.33412935      7.35723648
C       5.08655988     14.25744677     18.37055006
C      10.06617969     -0.79378663     10.99678111
C      -4.20534075     14.01850950     10.75545571
C       4.06620528     13.74754823     19.50363082
C       6.83115034      5.15574769     -0.59616238
C      10.89469915      1.74891471      3.77079357
C       9.57552719      2.11952040      4.48829024
C       9.98481502     -7.53537048     -7.38732962
C       5.72130714      6.17300371     -1.33538369
C       8.17407646     -3.45500052      5.86835011
H       7.92527615      5.34467945     -0.11031132
H       5.06026971     -8.27394725     -8.10962988
H      -5.72230740     -1.52160942      7.90717451
H      -8.61779202     -3.46609226     22.89922122
H      -2.37274991     -8.00782791     15.24201271
H       9.46100922      3.41601770      6.38461013
H       8.63952308      1.53887532      9.72821938
H       6.29975376     14.08971369     18.35341202
H       4.97301581     15.47355595     18.48152924
H      -3.39310312     -0.99344405     -6.88445803
H       6.81078733      3.97615858     -0.32559093
H      -4.35730063     14.63686368      9.70158595
H       1.08680750     -6.27884542      1.05219241
H       0.04601119      2.36895620    -19.59147238
H       8.65178806     -3.40533204      4.73266544
H      10.79961819     -6.64145638     -7.31278067
H      -4.70079819     14.65934996     11.68278704
   94

C       7.14639029     -6.82478897     -7.68051500
C       5.67906380     -7.61969782     -7.25841977
H       7.41075706     -6.01016938     -6.77743596
C      -8.36638943      1.49062167      1.52851258
H     -18.89724809     -7.18795767     -1.80917100
H       4.67812703     -6.99261653     -6.87912861
C       8.51756513     -2.00542319      8.48066313
H       5.68930716     -8.43550549     -6.32406524
H      -7.80927351     -6.27461695    -16.92468129
H      -7.80154881     -7.04394528    -16.79632835
C       9.48817068      2.23864981      6.21503320
H      10.62185432      2.25149337      6.67399510
C       8.55781436     -2.89716074      7.12660496
H       7.03354021      4.19519352     -4.26429144
H       9.72562848     -2.69822681      6.78759454
H       0.00368013     -7.78558205     12.76361044
C       7.82516397     -4.34097567      7.19335871
H       6.98476017     -4.72302140      8.00506417
C       5.72210469      6.17682907     -3.12223593
H       8.31719273     -5.43880384      7.45906721
H       6.43979406      7.05243179     -3.62783443
H       4.67910296      6.61355859     -3.62451585
C       6.06695244      4.91730759     -4.16778829
H      10.17883550      4.50799327    -13.44584371
C       9.52617971      4.15686564    -12.59200827
H       9.02854062      2.25958705      3.48020787
H       5.49511575      4.48885907     -5.14978512
H      -3.00376542     13.85576486     10.96609798
C       8.55044350     -7.65820959     -8.23898647
H      -6.44044818      0.03026192      6.38906870
H     -19.27557715     -7.17113941     -1.12727295
C       0.15609329     -6.93963380      1.61773978
H      -6.68533481     -2.15705914      5.85057858
C      -0.95599518     -7.49384795     13.43978185
H      -0.63890337     -7.44332304      2.30199496
H      -3.25896016     -8.32202470     13.64826945
H      -0.72673776     -6.31526860     13.58867510
C      -3.85592899     -0.08141400     -7.51046228
H       6.26005856      7.31250691     -1.12859936
C       4.25713890      6.25814093     -0.47365423
H      -4.37161308      0.82087600     -8.03438964
H       4.17818352      6.99773259      0.52008048
H       3.76765708      5.23231957      0.01653562
H       3.15874592      6.60101617     -0.92479705
H       8.82950330     -7.49710099     -9.43817827
H       8.43480305     -8.86267397     -8.50641355
H      10.54753218     -8.30233977     -6.63861932
H       7.26715964      0.71236662      9.40113471
H      10.25266383     -1.10084985      9.16106000
H      -1.95954215     -9.65351841     14.06554791
H       7.52247334      1.18929772      6.74676390
H      -8.75572599     -4.14412571     22.55082646
H       4.85887918     13.68135204     17.31403543
H       3.28634531     13.49160557     20.34202234
H       9.57863439     -1.67406165     11.90304422
H      17.44047717      4.39992083      0.14861551
H      -4.76109463     12.92370484     10.67225651
H      18.13027753      4.54811455      0.48120007
H       0.10317753      1.59465996    -19.52605648
H       6.90082208     -3.26729052      5.13309352
H       6.91147922     -5.85405345     -8.42645953
H      10.56291367     -0.35306204     11.63095237
C      -4.85887972     -1.19874418     11.17930128
C      -2.13199929     -8.43443167     14.13791701
C       8.39675863      0.68712488      8.90454488
C       9.09436548     -0.79730648      9.44082689
C       8.53782646      1.41140460      7.35792062
C       5.08586995     14.26263208     18.37026778
C       9.59018803     -0.81021619     11.05295396
C      -4.20587891     14.01952287     10.75588016
C       4.06939005     13.75230294     19.50615863
C       6.82822359      5.19871590     -0.65620790
C      10.91086228      1.74382113      3.82919725
C       9.59759754      2.13873775      4.54584960
C       9.98454551     -7.53638281     -7.38858906
C       5.71940622      6.22055889     -1.39068394
C       7.88908452     -3.53400165      5.81454532
H       7.92318072      5.38332211     -0.17095630
H       5.06408835     -8.27525349     -8.11303289
H      -4.54308743     -1.56443752      8.31164332
H      -8.62668275     -3.47098049     22.92315461
H      -2.28528457     -8.27256830     15.35202283
H       9.46481330      3.44849265      6.43126976
H       8.49679228      1.62586846      9.70166679
H       6.29708843     14.07889657     18.38156472
H       4.97618906     15.48117500     18.45657636
H      -3.36196772     -0.99196171     -6.97993504
H       6.81018338      4.01766340     -0.39154976
H      -4.35780429     14.63792277      9.70203679
H       0.95353244     -6.44333614      0.93096155
H       0.04341605      2.36908422    -19.59744287
H       8.42529185     -3.51790002      4.70297756
H      10.80349005     -6.64582256     -7.31971476
H      -4.70135571     14.66029387     11.68324532
   94

C       7.14930599     -6.82402590     -7.68439103
C       5.68339636     -7.62179071     -7.26326438
H       7.41293537     -6.00847783     -6.78192015
C      -4.64950796     -0.50824984      6.10313635
H     -18.89219229     -7.18350786     -1.80789984
H       4.68135098     -6.99713827     -6.88314806
C       7.19457048     -1.80046354      8.34547712
H       5.69565239     -8.43826290     -6.32951276
H      -7.81080298     -6.27460966    -16.92215052
H      -7.80306419     -7.04398252    -16.79406591
C       9.55983544      2.24708016      6.30238542
H      10.65929232      2.12866329      6.82193488
C       7.87251385     -2.74754149      7.19179925
H       7.03225378      4.23813931     -4.32228659
H       9.02664518     -2.34104152      7.06814443
H      -0.01296909     -7.69667201     12.79185568
C       7.55190779     -4.34477726      7.23632351
H       6.80798901     -4.88278723      8.05418804
C       5.73102514      6.23708432     -3.19435924
H       8.23454793     -5.31259097      7.58281622
H       6.44750717      7.11085778     -3.70497573
H       4.69348042      6.68087605     -3.70227667
C       6.06855673      4.96381956     -4.22499828
H      10.19997791      4.50343447    -13.48525970
C       9.54722619      4.15215006    -12.63156734
H       9.14995586      2.29419156      3.56556627
H       5.48579747      4.51312979     -5.18984840
H      -3.00549135     13.86355599     10.96896832
C       8.55273026     -7.65835644     -8.24280944
H      -5.24144922      0.31066491      6.75749829
H     -19.27124007     -7.16735433     -1.12638550
C       0.04927024     -7.19779392      1.43335058
H      -4.71615525     -1.81216050      6.46036594
C      -0.97808884     -7.42806573     13.46956607
H      -0.74467140     -7.71766291      2.10702653
H      -3.25278247     -8.33215375     13.69118870
H      -0.80520675     -6.23640241     13.58569083
C      -3.90549534     -0.05558010     -7.47707390
H       6.27564860      7.37141892     -1.19806339
C       4.26690377      6.32455926     -0.55503583
H      -4.42004828      0.84935506     -7.99714957
H       4.18734804      7.05546943      0.44477493
H       3.77342591      5.29441176     -0.07890378
H       3.17137609      6.67656808     -1.00640470
H       8.83121755     -7.49749670     -9.44213278
H       8.43817531     -8.86258990     -8.51183696
H      10.54116166     -8.30024511     -6.63141513
H       6.85830854      1.11527304      9.31314462
H      12.26584718     -2.02127567     11.23849670
H      -1.91011158     -9.62314604     14.09708264
H       7.48260164      1.49054570      6.59164821
H      -8.75280783     -4.14096952     22.54355139
H       4.84873942     13.69363221     17.30979704
H       3.29517345     13.47721278     20.34399211
H       9.25941134     -1.65947209     11.67106193
H      17.44206452      4.39923636      0.14840384
H      -4.76337305     12.93206893     10.67540313
H      18.13180619      4.54767448      0.48099940
H       0.09871033      1.59468951    -19.52877213
H       6.90385949     -3.54763140      4.92529000
H       6.91442981     -5.85214540     -8.42882478
H      10.11960073     -0.34858412     11.19745877
C      -4.69305010      0.27225861      4.70692658
C      -2.11819966     -8.40966437     14.16960890
C       7.92675274      0.76023567      8.81475373
C       5.95549832     -0.65317059      8.24654139
C       8.42568040      1.49680647      7.34449041
C       5.08475513     14.26536642     18.36933242
C       9.29603491     -1.03826982     10.63511205
C      -4.20755438     14.02759183     10.75873620
C       4.07166443     13.75469538     19.50770643
C       6.83922920      5.25408798     -0.72956217
C      10.99559292      1.67461028      3.92453505
C       9.71393727      2.16936370      4.63358861
C       9.98529920     -7.53745084     -7.38989590
C       5.73392069      6.28067592     -1.46325823
C       7.73610278     -3.59759933      5.83070410
H       7.93370296      5.43334055     -0.24122414
H       5.06920477     -8.27686241     -8.11881901
H      -5.14906815     -2.19668701     10.30674835
H      -8.62361398     -3.46772447     22.91564272
H      -2.26545442     -8.24769053     15.38433382
H       9.62804177      3.45327498      6.53560310
H       8.26675300      1.63096305      9.62931691
H       6.29322320     14.06613850     18.40888870
H       4.97960206     15.48588844     18.43124658
H      -3.40616431     -0.96901294     -6.95700201
H       6.82372867      4.07150989     -0.47070204
H      -4.35949550     14.64594456      9.70487727
H       0.84308454     -6.67890426      0.75887561
H       0.03894901      2.36911305    -19.60016497
H       8.51468278     -3.56372344      4.87094501
H      10.80827292     -6.65023037     -7.32634207
H      -4.70292851     14.66810794     11.68632238
   94

C       7.15085327     -6.82518137     -7.69212818
C       5.68622232     -7.62524556     -7.27125007
H       7.41404374     -6.00845726     -6.79058443
C      -3.15034399     -0.55209747      6.83418008
H     -18.89224282     -7.18326505     -1.80850526
H       4.68313256     -7.00293933     -6.89023002
C       6.72392740     -1.66366368      8.06483332
H       5.70038808     -8.44236822     -6.33808394
H      -7.81185489     -6.27530951    -16.92126338
H      -7.80412356     -7.04469381    -16.79324717
C       9.61330549      2.28141420      6.41968452
H      10.70852620      2.04366879      6.91778164
C       7.32971250     -2.76797384      6.97025255
H       7.02713459      4.28884307     -4.38582986
H       8.26472270     -2.02971498      6.68602715
H      -0.08142400     -7.50719999     12.78779261
C       7.43631293     -4.34993288      7.29592485
H       6.73324568     -4.90962762      8.13333136
C       5.73140164      6.30260194     -3.27165631
H       8.17294024     -5.23136069      7.73936293
H       6.44411784      7.17539166     -3.78937986
H       4.69751437      6.74935127     -3.78483205
C       6.06418172      5.01508678     -4.28594881
H      10.21821914      4.50001676    -13.52032921
C       9.56520643      4.14852497    -12.66692986
H       9.30140069      2.49942156      3.68899625
H       5.47111016      4.54060222     -5.23237544
H      -3.00628452     13.86247705     10.96831350
C       8.55391417     -7.66025307     -8.25014707
H      -4.04545139      0.23026399      6.67883570
H     -19.27155842     -7.16722431     -1.12713728
C      -0.10146494     -7.39335827      1.28310300
H      -3.19839125     -1.93313111      6.91284339
C      -1.09055388     -7.26888149     13.40960231
H      -0.90234863     -7.89953209      1.95914775
H      -3.33220203     -8.23661644     13.66656019
H      -1.03993400     -6.06061150     13.41216550
C      -3.91928293     -0.04231460     -7.47350418
H       6.27822820      7.44633803     -1.27550903
C       4.26821181      6.40123696     -0.64079575
H      -4.43102241      0.86289740     -7.99582445
H       4.18761686      7.12129832      0.36649070
H       3.77338328      5.36507351     -0.18028163
H       3.17359873      6.75979478     -1.08977621
H       8.83172722     -7.49989467     -9.44966706
H       8.44036025     -8.86431042     -8.52045584
H      10.53540381     -8.30025750     -6.63021750
H       6.96877895      1.16541799      9.47054682
H       9.07379786     -1.16002175     13.54619325
H      -1.95203924     -9.49399961     14.04905762
H       7.44250388      1.87852431      6.87301566
H      -8.75094163     -4.13954446     22.54079341
H       4.83841412     13.70828642     17.30665708
H       3.30287702     13.46680720     20.34624452
H       9.20764776     -2.23348226     11.10653122
H      17.45013436      4.40164254      0.14372931
H      -4.76397100     12.93040398     10.67452148
H      18.13923499      4.54963325      0.47784928
H       0.09520263      1.59474221    -19.53173459
H       7.12180916     -4.18734502      4.80041562
H       6.91603124     -5.85226134     -8.43521463
H      10.15719016     -0.97459275     10.81855595
C      -2.15961391      0.14531253      5.80519446
C      -2.18778122     -8.28616239     14.12451860
C       8.01804947      0.80205554      8.93312740
C       5.53881850     -0.63284829      6.44968985
C       8.44720593      1.60378670      7.47839745
C       5.08354263     14.27038700     18.36937833
C       8.95129065     -1.11543725     10.72806194
C      -4.20838266     14.02604263     10.75790267
C       4.07438115     13.75840379     19.51039172
C       6.84984845      5.33187325     -0.80902324
C      11.06540279      1.67747684      4.02379901
C       9.80653296      2.21780783      4.75406316
C       9.98534968     -7.53995484     -7.39542342
C       5.73941480      6.35415881     -1.54104736
C       7.74050318     -3.84635743      5.80797739
H       7.94642143      5.50926265     -0.32480862
H       5.07263638     -8.27992084     -8.12755238
H      -6.17113287     -2.94060614      9.68576066
H      -8.62189793     -3.46619716     22.91274988
H      -2.31594599     -8.12089555     15.34065062
H       9.79373673      3.47479828      6.67036351
H       8.42492800      1.58918561      9.79014327
H       6.28875815     14.05730841     18.43617035
H       4.98261957     15.49236900     18.40736806
H      -3.42009761     -0.95507576     -6.95217102
H       6.84758698      4.14547371     -0.56768076
H      -4.36037135     14.64430109      9.70399246
H       0.69639943     -6.87950654      0.60938638
H       0.03544720      2.36916669    -19.60312196
H       8.69587389     -3.84594113      5.01691873
H      10.81239487     -6.65614459     -7.33759440
H      -4.70390933     14.66652038     11.68543629
   94

C       7.15109916     -6.82076399     -7.68622792
C       5.68780228     -7.62264147     -7.26447314
H       7.41439187     -6.00343933     -6.78521039
C      -1.63596468     -0.74950185      7.09072558
H     -18.89169511     -7.18311549     -1.80803047
H       4.68425292     -7.00241755     -6.88147186
C       6.29265669     -1.73669650      8.42442560
H       5.70442975     -8.44025645     -6.33177627
H      -7.81255367     -6.27619858    -16.92010232
H      -7.80483852     -7.04559091    -16.79213365
C       9.51945794      2.11983445      6.42735227
H      10.60861435      1.88503573      6.93983255
C       6.95232373     -2.60316231      7.15183891
H       7.00978989      4.31188665     -4.40023023
H       6.25913928     -1.91785571      6.39460400
H      -0.12286179     -7.51822812     12.82800840
C       7.30613690     -4.17836067      7.37754563
H       6.67954801     -4.92438883      8.13153883
C       5.71439981      6.32799028     -3.28578581
H       8.09753341     -5.05728184      7.71902240
H       6.42452788      7.20469397     -3.80108474
H       4.68542387      6.78297625     -3.80179056
C       6.04668862      5.03709375     -4.29549235
H      10.23718944      4.49485673    -13.55474834
C       9.58443093      4.14370304    -12.70100293
H       9.15974963      2.26169931      3.72796204
H       5.44943728      4.55017457     -5.23224083
H      -3.00682807     13.86021368     10.96661707
C       8.55233043     -7.65705540     -8.24685301
H      -2.25793165      0.18835938      6.68254682
H     -19.27094505     -7.16707040     -1.12662607
C      -0.26678829     -7.54164113      1.15185346
H      -1.02523874     -1.94632240      6.61889392
C      -1.15311960     -7.26790569     13.40788107
H      -1.07823852     -8.03418700      1.82580643
H      -3.41880572     -8.17281670     13.61773178
H      -1.09217610     -6.06074599     13.42394518
C      -3.92390664     -0.02832279     -7.47590476
H       6.25398095      7.45084690     -1.27821522
C       4.24465361      6.39008793     -0.65429517
H      -4.43403585      0.87642649     -8.00060349
H       4.16051847      7.10359565      0.35757448
H       3.75054171      5.35014046     -0.20079813
H       3.15065521      6.75084166     -1.10288314
H       8.82877717     -7.49670087     -9.44667231
H       8.43932538     -8.86075051     -8.51909413
H      10.52617256     -8.29571331     -6.61764115
H       6.83848120      1.51611450      9.32592275
H       6.62583600     -1.12488764     10.31091005
H      -2.07110616     -9.47202644     14.01544649
H       7.35116473      1.46956409      6.62244717
H      -8.74957665     -4.13853942     22.52778049
H       4.82892420     13.72061434     17.30280468
H       3.31285698     13.45306954     20.34812846
H       8.91745638     -1.86918067     11.43271779
H      17.44395560      4.40068048      0.14642274
H      -4.76442761     12.92796572     10.67269466
H      18.13358038      4.54883830      0.47938668
H       0.09165491      1.59472772    -19.53392436
H       7.27413087     -3.90703599      4.86682915
H       6.91598116     -5.84648174     -8.42741187
H       9.87534384     -1.09888308     10.47081626
C      -2.75481724     -1.13635115      8.18088404
C      -2.28595343     -8.26123016     14.09719128
C       7.72204781      0.78667472      8.85965986
C       7.39225205     -0.83707480      9.39027190
C       8.30540295      1.37159919      7.35577186
C       5.08318912     14.27343337     18.36836285
C       8.67589648     -1.28231182     10.39629212
C      -4.20894011     14.02365570     10.75616216
C       4.07712212     13.76156347     19.51194988
C       6.82546278      5.32969685     -0.83118755
C      11.00373819      1.58710420      4.03033870
C       9.72721571      2.04785406      4.77423716
C       9.98302927     -7.53850426     -7.39081603
C       5.71663863      6.36039388     -1.55480494
C       7.62251993     -3.48682014      5.97466926
H       7.92115826      5.50240438     -0.34366956
H       5.07422971     -8.27650055     -8.12139346
H      -3.76922368     -1.69639650      8.43311623
H      -8.62093633     -3.46613349     22.90157513
H      -2.42316653     -8.10178460     15.31281816
H       9.65309056      3.31746096      6.68682008
H       8.34336632      1.52987135      9.62644430
H       6.28426863     14.04601948     18.46271302
H       4.98778706     15.49650509     18.38218815
H      -3.42319158     -0.93878120     -6.95201747
H       6.81752683      4.14450619     -0.58322595
H      -4.36080683     14.64180014      9.70216232
H       0.54411252     -7.02780314      0.49344118
H       0.03189794      2.36915023    -19.60533108
H       8.63705787     -3.12804808      5.37469740
H      10.81438835     -6.65841966     -7.33867677
H      -4.70440977     14.66434151     11.68358703
   94

C       7.15107684     -6.81904848     -7.68534350
C       5.68910506     -7.62274345     -7.26260121
H       7.41433340     -6.00072191     -6.78518631
C      -0.44878803     -0.91779770      7.37175195
H     -18.89185480     -7.18315752     -1.80809771
H       4.68482046     -7.00477525     -6.87802140
C       5.88393647     -1.68838058      8.35896264
H       5.70793631     -8.44076701     -6.33028534
H      -7.81353354     -6.27729740    -16.91952090
H      -7.80581791     -7.04669016    -16.79155492
C       9.47411373      2.06541246      6.50665104
H      10.54660286      1.79904592      7.04295053
C       6.63605976     -2.56782392      7.13682297
H       6.99847250      4.35014389     -4.44149793
H       6.05517958     -1.86768112      6.30522132
H      -0.14060750     -7.50700382     12.83270897
C       7.10218038     -4.10671799      7.40878620
H       6.53938376     -4.86176973      8.20167137
C       5.70665331      6.37511630     -3.33384140
H       7.90833210     -4.97050170      7.75190055
H       6.41412975      7.25308057     -3.85108629
H       4.68240713      6.83606431     -3.85424835
C       6.03609205      5.07568755     -4.33331212
H      10.25704425      4.49022750    -13.59144901
C       9.60431408      4.13912727    -12.73765745
H       9.17342999      2.25115753      3.82077888
H       5.43159255      4.57075494     -5.25513014
H      -3.00677164     13.85723415     10.96571591
C       8.55122363     -7.65613441     -8.24740345
H      -0.94565502      0.02662503      6.82325949
H     -19.27111958     -7.16711955     -1.12670137
C      -0.44024018     -7.61604840      1.10102956
H       0.06001299     -2.27154775      7.10697988
C      -1.17789822     -7.25846249     13.40016179
H      -1.25241789     -8.09355079      1.78469484
H      -3.43919460     -8.16578167     13.60870198
H      -1.12925951     -6.05090974     13.40772049
C      -3.93122932     -0.01535961     -7.48765012
H       6.24266203      7.49134525     -1.32014761
C       4.23279781      6.42306834     -0.70623085
H      -4.43967853      0.88977067     -8.01333648
H       4.14610778      7.12741299      0.31182543
H       3.73712728      5.37864292     -0.26477499
H       3.14024547      6.78949845     -1.15392603
H       8.82662894     -7.49603163     -9.44748003
H       8.43898231     -8.85955122     -8.52125618
H      10.51764629     -8.29287861     -6.60912382
H       6.68947754      1.57981879      9.27761334
H       6.24127737     -1.03467081     10.26393424
H      -2.08942408     -9.46468746     14.00790964
H       7.30042622      1.37265097      6.54338343
H      -8.74914782     -4.13809210     22.52586981
H       4.81879735     13.73265200     17.29888166
H       3.32195855     13.43954445     20.34929684
H       8.49767258     -1.88946074     11.38082247
H      17.44312246      4.40086687      0.14688376
H      -4.76419536     12.92483463     10.67167553
H      18.13284775      4.54900930      0.47964676
H       0.08806390      1.59473301    -19.53711737
H       7.18580285     -3.81348122      4.89084672
H       6.91577242     -5.84364969     -8.42499428
H       9.48965621     -1.29002504     10.37191148
C      -1.80308959     -1.08149473      8.23723365
C      -2.30719634     -8.25457690     14.08978579
C       7.51115601      0.77756443      8.82218261
C       7.01398037     -0.81191359      9.33188542
C       8.19709136      1.32153417      7.34964631
C       5.08220286     14.27637814     18.36703685
C       8.27650125     -1.32645645     10.32918231
C      -4.20889952     14.02061799     10.75527775
C       4.07915192     13.76451534     19.51316554
C       6.81731812      5.36799652     -0.88414204
C      11.01841255      1.57082591      4.11437067
C       9.73820107      2.01633262      4.86233822
C       9.98108056     -7.53880026     -7.38992801
C       5.70733269      6.40128373     -1.60286617
C       7.45829778     -3.40316336      6.02306796
H       7.91338797      5.53713295     -0.39643795
H       5.07578572     -8.27609085     -8.12009038
H      -2.87698267     -1.58779455      8.30711572
H      -8.62052897     -3.46574348     22.89977456
H      -2.44284020     -8.09465575     15.30538707
H       9.60236279      3.25996215      6.78669888
H       8.18230643      1.46654651      9.59603308
H       6.27857286     14.03557687     18.48858079
H       4.99261691     15.50008049     18.35690437
H      -3.42924971     -0.92442790     -6.96254625
H       6.81254512      4.18153849     -0.64168476
H      -4.36074993     14.63888108      9.70133986
H       0.37383834     -7.12387742      0.43022991
H       0.02830657      2.36915422    -19.60853783
H       8.51423878     -3.02523693      5.51152958
H      10.81678253     -6.66252333     -7.34368379
H      -4.70434562     14.66136854     11.68267585
   94

C       7.15097814     -6.81715592     -7.68406877
C       5.69032680     -7.62263116     -7.26029188
H       7.41423275     -5.99784091     -6.78476935
C       0.59004022     -1.09808778      7.59264521
H     -18.89198255     -7.18319882     -1.80816532
H       4.68534676     -7.00690672     -6.87406842
C       5.53465720     -1.63861654      8.28005596
H       5.71139710     -8.44107346     -6.32837297
H      -7.81447659     -6.27838528    -16.91892960
H      -7.80676038     -7.04777816    -16.79096440
C       9.41664749      2.01757302      6.59220762
H      10.47246941      1.71551919      7.14737495
C       6.35702957     -2.52834583      7.10070683
H       6.98662070      4.38692794     -4.47990461
H       5.88463812     -1.81129915      6.21584776
H      -0.15559148     -7.47665701     12.80508595
C       6.89652205     -4.03533034      7.43281983
H       6.38719273     -4.79321851      8.25706717
C       5.69802627      6.41999002     -3.37820965
H       7.70976047     -4.88828557      7.78430364
H       6.40266137      7.29951274     -3.89718062
H       4.67841582      6.88680676     -3.90275070
C       6.02487555      5.11264503     -4.36803040
H      10.27655591      4.48564038    -13.62742690
C       9.62387374      4.13461517    -12.77356438
H       9.17314525      2.23831850      3.92237535
H       5.41386648      4.59076070     -5.27536838
H      -3.00614309     13.85397822     10.96490270
C       8.54997987     -7.65506144     -8.24767531
H       0.15642217     -0.13006994      7.02793459
H     -19.27126378     -7.16716675     -1.12677796
C      -0.58117770     -7.69427171      1.06075754
H       1.06607812     -2.53376593      7.56926576
C      -1.19311972     -7.22989034     13.37256008
H      -1.39276751     -8.16652582      1.74848957
H      -3.44550649     -8.14851366     13.59172538
H      -1.16321673     -6.02198906     13.35499437
C      -3.93796882     -0.00265053     -7.50001636
H       6.22992302      7.52864101     -1.35815616
C       4.22030280      6.45161180     -0.75324158
H      -4.44488984      0.90289404     -8.02648535
H       4.13107088      7.14698207      0.27078627
H       3.72338397      5.40298797     -0.32305292
H       3.12913391      6.82343315     -1.19996851
H       8.82429446     -7.49520361     -9.44801893
H       8.43848368     -8.85819476     -8.52314532
H      10.50912701     -8.28988338     -6.60059127
H       6.54216155      1.62854669      9.24608362
H       5.91920901     -0.95853215     10.21375507
H      -2.08911099     -9.44175507     13.99021450
H       7.23830730      1.29932291      6.48647546
H      -8.74830621     -4.13782576     22.52413512
H       4.80854749     13.74416068     17.29495225
H       3.33100503     13.42578748     20.35002009
H       8.15281468     -1.91290900     11.29779880
H      17.44176217      4.40084761      0.14755255
H      -4.76341656     12.92154443     10.67081119
H      18.13163563      4.54900888      0.48000067
H       0.08454661      1.59473916    -19.54021835
H       7.05486376     -3.73941733      4.90765120
H       6.91546888     -5.84063193     -8.42216430
H       9.14580777     -1.42852845     10.26667983
C      -0.84634151     -1.11067227      8.34503158
C      -2.31178005     -8.23239376     14.06961525
C       7.30885422      0.77567053      8.79053836
C       6.68384931     -0.78236295      9.26563632
C       8.07748719      1.29542883      7.35316876
C       5.08119578     14.27887729     18.36549776
C       7.93459983     -1.36321856     10.24020707
C      -4.20827845     14.01740618     10.75451464
C       4.08112237     13.76695526     19.51418527
C       6.80782313      5.40284414     -0.93383653
C      11.01995983      1.55433920      4.20582404
C       9.73541498      1.98240209      4.95859647
C       9.97903978     -7.53895687     -7.38883657
C       5.69666553      6.43902359     -1.64721758
C       7.28303642     -3.34047148      6.05330906
H       7.90427424      5.56849537     -0.44605333
H       5.07721052     -8.27545249     -8.11832372
H      -1.95827548     -1.53752809      8.28378542
H      -8.61974984     -3.46551693     22.89813269
H      -2.44231201     -8.07007869     15.28537552
H       9.54791738      3.20895015      6.88864182
H       8.01793926      1.41326471      9.57326131
H       6.27229154     14.02542016     18.51383585
H       4.99777902     15.50276351     18.33163886
H      -3.43459188     -0.91038044     -6.97391433
H       6.80571977      4.21532150     -0.69602459
H      -4.36012822     14.63578909      9.70064204
H       0.23218354     -7.21460945      0.38032514
H       0.02478882      2.36915908    -19.61165233
H       8.37529736     -2.97362917      5.61369752
H      10.81904967     -6.66653537     -7.34841813
H      -4.70369270     14.65823808     11.68187860
   94

C       7.15089407     -6.81437773     -7.68027214
C       5.69243568     -7.62282144     -7.25502350
H       7.41406259     -5.99317246     -6.78259545
C       2.97321548     -1.16675658      8.05030816
H     -18.89185999     -7.18329685     -1.80818867
H       4.68612308     -7.01094827     -6.86642095
C       4.66103029     -1.54541760      8.18625685
H       5.71733531     -8.44155465     -6.32343697
H      -7.81523282     -6.27941550    -16.91792814
H      -7.80752163     -7.04880949    -16.78996947
C       9.20895498      1.88723640      6.74385495
H      10.24056361      1.53763208      7.32718247
C       5.59146497     -2.46975954      7.07897013
H       6.97057557      4.42379393     -4.51163030
H       5.17850729     -1.77393304      6.14546762
H      -0.14326300     -7.37313909     12.68689833
C       6.35303089     -3.86826742      7.51039288
H       5.99014247     -4.65783814      8.37897062
C       5.68525199      6.47102825     -3.42211679
H       7.21429001     -4.67756013      7.84992153
H       6.38184992      7.35506579     -3.94536432
H       4.67327853      6.94680764     -3.95378455
C       6.00869419      5.14791589     -4.39168098
H      10.29634125      4.48155035    -13.66390095
C       9.64367763      4.13054198    -12.81001553
H       9.07879793      2.15971729      4.11402634
H       5.39442992      4.60435395     -5.28266649
H      -3.00408555     13.84794160     10.96389429
C       8.54771264     -7.65402237     -8.24643211
H       2.40870639     -0.37967693      7.33598221
H     -19.27118577     -7.16726916     -1.12682601
C      -0.71052971     -7.78376240      1.02052280
H       3.86346744     -2.45681646      8.27919958
C      -1.16836657     -7.12814438     13.27901413
H      -1.52154703     -8.25465439      1.70950529
H      -3.40368673     -8.07766135     13.53437849
H      -1.16510162     -5.92173506     13.19494876
C      -3.94456900      0.00993360     -7.51176531
H       6.21201453      7.56785709     -1.39156071
C       4.20320261      6.47737320     -0.79974518
H      -4.44979054      0.91593836     -8.03910940
H       4.11010667      7.15968572      0.23276321
H       3.70584271      5.42218105     -0.38615648
H       3.11364551      6.85629663     -1.24448850
H       8.81968626     -7.49525162     -9.44743095
H       8.43758436     -8.85670514     -8.52447229
H      10.49598750     -8.28579069     -6.58682384
H       6.16835320      1.65053922      9.15939193
H       5.23865413     -0.86454282     10.11034503
H      -2.03574697     -9.35619933     13.92868731
H       7.04538652      1.08540492      6.37685795
H      -8.74526101     -4.13751920     22.51988046
H       4.78811023     13.76619063     17.28663088
H       3.34348979     13.40635285     20.34884071
H       7.51367511     -1.92145873     11.07922994
H      17.43837815      4.39965505      0.15020650
H      -4.76113507     12.91559780     10.66978309
H      18.12855175      4.54803080      0.48193602
H       0.08111614      1.59480523    -19.54274251
H       6.56709399     -3.53901736      4.97691114
H       6.91544502     -5.83559800     -8.41540141
H       8.43109890     -1.62529132      9.98837512
C       1.40498926     -1.53412802      8.29973426
C      -2.26250980     -8.14629501     13.99853051
C       6.83399163      0.72338609      8.69540589
C       5.95781814     -0.74928826      9.11587279
C       7.76620791      1.19880662      7.33721630
C       5.08034300     14.28114791     18.36208901
C       7.23112822     -1.44101678     10.00476664
C      -4.20622018     14.01157358     10.75361368
C       4.09122862     13.76083071     19.51678000
C       6.79423093      5.43700080     -0.99005012
C      10.94488990      1.51605140      4.36984025
C       9.64207597      1.86856770      5.13691195
C       9.97532397     -7.53909749     -7.38531991
C       5.68098756      6.47961054     -1.69134052
C       6.71926557     -3.15077971      6.13862068
H       7.89181680      5.59522779     -0.50310106
H       5.07982671     -8.27478982     -8.11404783
H       0.22299529     -1.69460537      8.25251506
H      -8.61696231     -3.46529572     22.89411973
H      -2.38563327     -7.98143227     15.21515155
H       9.33538750      3.07730175      7.05954765
H       7.60232387      1.27529199      9.48771454
H       6.26080204     14.00814340     18.55915952
H       5.00587893     15.50407751     18.28494639
H      -3.43983622     -0.89634279     -6.98441995
H       6.79631120      4.24737809     -0.76216387
H      -4.35808925     14.63018583      9.69987001
H       0.10045748     -7.31285825      0.33151316
H       0.02136932      2.36922668    -19.61416854
H       7.86230851     -2.80541713      5.82169168
H      10.82174990     -6.67253350     -7.35397112
H      -4.70157084     14.65256910     11.68090732
