   94
energy=      0.00000000
C       6.91444515     -7.27097472    -13.24531730
C      -3.33980010    -13.05152339    -10.13445385
H       7.59443305     -6.54383979    -12.57687335
C      -1.00436926     -0.87708604      8.14162151
H      -5.79151396      8.58883657     -3.01115999
H       3.13580853     -3.14265400      8.75532839
C       0.28020384     -1.20126555      9.14816608
H       6.57983593     -8.34007211    -12.81753988
H      -9.00629938     -6.97077983    -19.18209263
H      -8.99858819     -7.74017383    -19.05413396
C       7.30715463     -0.22569180     -2.76042023
H      17.19979883      4.52796053     15.02483047
C       8.63353397    -10.45633508      5.10580821
H       8.01637285     10.67785921     -2.78094891
H       8.88703818     -9.67898981      4.27210929
H       2.50425844    -10.90118632     17.33758517
C       7.26466505    -10.94979724      7.57517735
H       6.14450549    -10.66759107      7.14597223
C       7.26308829     10.90844642     -0.57208741
H       6.82297469    -11.58461293      8.52998082
H      16.52036514     13.59177199      6.30192900
H       6.69197554     11.51380686      0.25515539
C       8.03915239     10.07959473     -1.70918014
H      17.89885942      3.37425822     -5.83497049
C      16.79503072      3.15429278     -5.72440802
H      -4.61182725      0.00285053     -4.83970852
H       7.52539462      8.97739840     -1.87754255
H      -3.06266179     10.15556607     10.33264172
C      17.30893199    -10.23622719     -8.24749365
H      -2.11387097     -0.61913560      8.57508800
H      -5.83201315      8.54988029     -1.07850804
C       6.24588795     -3.12140633     -2.32609982
H      -0.03891692     -2.29724685      9.62222391
C       1.47819573    -10.71751696     17.93036419
H       6.07243363     -3.17999612     -1.11388166
H     -10.96213609    -12.27297242     15.66815272
H       1.07348491     -9.60107587     18.09678088
C      -4.79213952     -0.92464094     -5.57117349
H      -2.84693055      8.82396196     -1.74330647
C      -3.38447407     11.24181537     -2.20134271
H      -5.92603241     -1.15163852     -5.86901735
H      -3.58567964     11.91991760     -1.19050439
H      -2.23840389     11.53811977     -2.54380102
H      -3.99572469     11.82703515     -3.09741960
H      17.78630578     -9.89692253     -9.26479890
H      16.44566074    -11.96029400     -7.15133918
H      17.15157369    -10.71817282     -5.81348402
H       2.93232571      0.53534035      6.83301735
H       0.20379020     -0.44757315     10.12294394
H       0.85684386    -11.65028868     18.35672652
H       7.54163887      0.33594818     -3.78430836
H      -9.42675544     -2.95204824     23.99740376
H       4.35105040     15.17066076     22.63443181
H      16.19117610     12.93928457      6.57450061
H       3.33026134     -1.77821329     10.52223044
H      27.34947999      7.72515486     -1.91711422
H      -4.90995714      9.28641751     10.64478683
H      28.03965355      7.87353058     -1.58538466
H      -1.23330998     -1.78037892      5.78511107
H       8.70203030    -12.48586412      6.08842511
H       6.56906649     -6.92901223    -14.34153868
H       4.40713843     -2.09577249      9.31498663
C      -1.11191313     -0.83689109      6.52274913
C     -10.36016020    -12.21606716     16.66242232
C       2.42969353     -0.16032555      7.62752827
C       1.89914368     -1.17499170      8.73141054
C       8.02430293      0.29419682     -1.46951265
C       6.66930941     18.44969904     11.46773535
C       3.18138138     -2.05289577      9.33034628
C      -4.02707068      9.59413721      9.89430322
C       7.61787291     17.62355999     10.63866167
C      -5.16879886      8.88705209     -2.02484779
C      -3.67814035     -1.80287739     -6.24291156
C       6.50262870     -1.57237557     -2.65885825
C      16.59866453    -10.76749869     -6.90748385
C      -3.72512657      9.63125094     -1.98106781
C       8.20868526    -11.40430200      6.29866308
H       9.21568198      9.89912301     -1.40861555
H      -3.11177660    -13.81826260    -10.93541594
H      15.60999529    -10.08482827     -6.65499546
H      -9.29845674     -2.27982476     24.37164303
H      -9.75818431    -12.15916191     17.65669192
H      17.02396443      5.28141364     14.92588305
H       8.61648770      0.52073034     -0.49287817
H       5.04726845     15.37726975     22.91902475
H       5.94317552     19.08293374     12.10388767
H      -3.09884787     -2.41327480     -7.04897753
H      -4.10754868      9.34423845      8.72383897
H      -7.60795419     21.24264930      9.77839801
H       5.33803529     -3.87225203     -2.65452608
H      -1.07532454      0.15549311      5.84144373
H       7.92021746    -10.17786299      8.27766742
H       7.16580052     -3.66832201     -2.92170358
H      -7.74116572     21.25126849     10.54689030
   94
energy=      0.00000000
C       6.82827325     -7.27208290    -13.29937751
C      -3.33980010    -13.05152339    -10.13445385
H       7.50826115     -6.54494797    -12.63093354
C      -0.99689332     -0.86581190      8.13168838
H      -5.84045824      8.56540056     -3.01227928
H       3.14144239     -3.20029186      8.84004624
C       0.28596624     -1.18486384      9.14418671
H       6.49366403     -8.34118029    -12.87160009
H      -9.00629938     -6.97077983    -19.18209263
H      -8.99858819     -7.74017383    -19.05413396
C       7.32836999     -0.23313185     -2.75144413
H      17.20161071      4.50679596     15.04636720
C       8.63724056    -10.46749977      5.10479739
H       8.07698778     10.66976401     -2.79841622
H       8.90295582     -9.70372246      4.26278339
H       2.50425844    -10.90118632     17.33758517
C       7.26023822    -10.94282351      7.57894795
H       6.14352543    -10.59738185      7.18779798
C       7.32334499     10.90195298     -0.58868049
H       6.88175644    -11.68447096      8.48458248
H      16.60176734     13.63080180      6.33870644
H       6.75423682     11.50726370      0.23997820
C       8.09942872     10.07309163     -1.72575227
H      17.25995515     -3.78373109     -6.74261536
C      17.15246684     -4.97199474     -6.76867549
H      -4.58258065     -0.02757876     -4.84088517
H       7.58617180      8.97088536     -1.89557238
H      -3.05886751     10.15666907     10.32819100
C      17.08415908     -6.57366294     -6.98062223
H      -2.10776882     -0.60482064      8.56021353
H      -5.89516520      8.56501242     -1.07906830
C       6.26488301     -3.14453379     -2.32399505
H      -0.04063156     -2.27717216      9.61902167
C       1.47819573    -10.71751696     17.93036419
H       6.11170753     -3.22995092     -1.11015915
H     -10.96213609    -12.27297242     15.66815272
H       1.07348491     -9.60107587     18.09678088
C      -4.82713590     -0.92035779     -5.59738688
H      -2.90598649      8.82353476     -1.76013170
C      -3.44011663     11.24387676     -2.20279258
H      -5.97755592     -1.13815136     -5.83431985
H      -3.63830313     11.92096359     -1.19069026
H      -2.29255166     11.53896941     -2.54142717
H      -4.05083491     11.83184315     -3.09744943
H      17.57246005     -6.55820122     -8.06370869
H      16.95111808     -9.25993597     -7.34105846
H      17.41550999     -9.00890437     -6.04969978
H       2.89729436      0.56184696      6.85333401
H       0.20959523     -0.41997776     10.11055991
H       0.85684386    -11.65028868     18.35672652
H       7.46718244      0.33605244     -3.78782802
H      -9.42675544     -2.95204824     23.99740376
H       4.34725349     15.16486322     22.65560141
H      16.27257844     12.97831467      6.61127793
H       3.33723644     -1.88522676     10.54591266
H      27.34947999      7.72515486     -1.91711422
H      -4.91429134      9.28371614     10.64182163
H      28.03965355      7.87353058     -1.58538466
H      -1.23215979     -1.79217146      5.78495251
H       8.69516994    -12.48468594      6.09360361
H       6.48289458     -6.93012042    -14.39559889
H       4.41120286     -2.00655358      9.21516692
C      -1.11452573     -0.84052920      6.51268131
C     -10.36016020    -12.21606716     16.66242232
C       2.42745983     -0.14732555      7.65559611
C       1.91026396     -1.18091391      8.74728976
C       8.04291679      0.30302156     -1.46617469
C       6.66385011     18.45791938     11.45798041
C       3.19019845     -2.07237529      9.33640392
C      -4.02686818      9.59487651      9.89786545
C       7.61217321     17.63174876     10.62867818
C      -5.22663064      8.88599294     -2.02740010
C      -3.73467718     -1.78649857     -6.31951196
C       6.57643536     -1.60577191     -2.64262606
C      16.79755036     -8.21484593     -6.73851549
C      -3.78430039      9.63315547     -1.98864120
C       8.20358283    -11.40234838      6.30371597
H       9.27551866      9.89420298     -1.42253206
H      -3.11177660    -13.81826260    -10.93541594
H      15.70649021     -8.75968350     -6.69783724
H      -9.29845674     -2.27982476     24.37164303
H      -9.75818431    -12.15916191     17.65669192
H      17.02577631      5.26024907     14.94741978
H       8.61512681      0.57390384     -0.48908126
H       5.04347154     15.37147222     22.94019436
H       5.93746432     19.09111029     12.09387375
H      -3.03731144     -2.42592573     -6.99995992
H      -4.10721125      9.34509752      8.72769266
H      -7.60795419     21.24264930      9.77839801
H       5.27537615     -3.73708998     -2.73444077
H      -1.09667129      0.14263706      5.81714960
H       7.85921375    -10.12246901      8.27756676
H       7.18434037     -3.75326959     -2.85970113
H      -7.74116572     21.25126849     10.54689030
