   94
energy=      0.00000000
C       7.14948999     -6.80350186     -7.69234628
C       5.71112937     -7.63465125     -7.24427892
H       7.41318224     -5.96249989     -6.81311416
C       3.63777315     -1.20551669      4.94104226
H     -18.89185999     -7.18329685     -1.80818867
H       4.70643154     -7.04175471     -6.82414399
C       4.83738771     -1.81675219      5.95673721
H       5.76477127     -8.46259121     -6.32225358
H      -7.81523282     -6.27941550    -16.91792814
H      -7.80752163     -7.04880949    -16.78996947
C       8.80012822      1.17209439      3.53115063
H      14.01585007      6.01792583     10.72756150
C       7.32260593     -3.04286732      3.90791536
H       6.53880157      6.41478384     -5.36264128
H       7.59832939     -2.48306661      2.91846157
H       2.84319639     -8.54910385     13.57083210
C       5.44041991     -3.46077245      5.99479961
H       4.58763096     -4.34949855      5.81572521
C       5.45697438      8.37945781     -5.94158299
H       5.43900925     -4.10769210      7.06704672
H       6.27410404      9.13899271     -6.41482955
H       4.48078926      8.86749434     -6.46618669
C       5.62589255      7.09993070     -4.87947576
H       8.08614733      1.44459003      0.78243904
C       7.36489134      1.29413120      1.73923266
H      10.30590441      2.78680672      4.35825492
H       4.91104679      6.16432042     -5.26970531
H      -3.00408555     13.84794160     10.96389429
C       8.54682649     -7.63718047     -8.26488896
H       2.84577623     -0.38863204      5.41819416
H     -19.27118577     -7.16726916     -1.12682601
C      -1.64419417     -8.76066075      0.36729175
H       3.92652502     -2.03167147      6.77838492
C       1.81702460     -8.36701737     14.16377763
H      -2.45519644     -9.23155742      1.05628876
H      -9.97000229    -12.03715339     15.59280125
H       1.41435033     -7.24966596     14.32893548
C      -3.95008093      0.02188444     -7.52418447
H       6.12013536      8.56182567     -3.03149759
C       4.08643572      7.54478315     -2.37622373
H      -4.45424832      0.92846258     -8.05155203
H       3.99250785      8.11935816     -1.28202390
H       3.46317558      6.51474297     -2.08284229
H       3.10897230      8.13123094     -2.85899820
H       8.82735326     -7.45027369     -9.45958212
H       8.44741040     -8.83081410     -8.58416469
H      10.37148578     -8.24168066     -6.46656338
H       5.90720039      1.63577572      4.79893984
H       5.36749843      0.40482769      6.92316380
H       1.19629954     -9.30045428     14.58981355
H       7.01592228      1.68353097      0.65915037
H      -9.42675544     -2.95204824     23.99740376
H       4.78383497     13.79198868     17.27397354
H       3.36707992     13.38602887     20.36016153
H       6.08170279     -1.10824868      8.89696166
H      18.06949782      4.47561687     -0.64462133
H      -4.76113507     12.91559780     10.66978309
H      18.75967138      4.62399260     -0.31289178
H       3.76376427     -2.22619923      2.61307014
H       7.08849240     -4.99661279      4.75235364
H       6.89289575     -5.83064770     -8.42789697
H       7.46952123     -1.27067933      8.41550497
C       3.24006516     -1.38379811      3.33551939
C      -9.36120929    -11.98157325     16.58298376
C       6.55891734      0.60284593      4.93739758
C       5.91104479     -0.46159541      6.23440297
C       7.25485533      0.91586750      3.37036753
C       5.07495762     14.28627279     18.35935893
C       6.51449289     -0.90072201      7.77168925
C      -4.20622018     14.01157358     10.75361368
C       4.08798204     13.76589133     19.51578929
C       6.73667413      6.54849795     -2.31811132
C      11.01189823      0.65892084      5.01660717
C      10.10761779      1.62555619      4.24303173
C       9.95525439     -7.55138493     -7.37038980
C       5.60517753      7.43678125     -3.18492156
C       6.91188906     -3.86811052      5.22123803
H       7.82838310      6.80043735     -1.85570377
H       5.09032629     -8.28305678     -8.10016998
H       2.07314924     -1.73854678      3.16844497
H      -9.29845674     -2.27982476     24.37164303
H      -8.76608192    -11.92334586     17.58128856
H      13.84001575      6.77137902     10.62861423
H       7.35020453      1.18167564      5.64533233
H       6.24048998     13.98955388     18.60557626
H       5.01550809     15.50700748     18.24358696
H      -3.44591357     -0.88469371     -6.99681691
H       6.75133154      5.40036590     -1.93459603
H      -4.35808925     14.63018583      9.69987001
H      -0.83319192     -8.28976414     -0.32170530
H       3.45647304     -0.38884849      2.63938720
H       7.98092730     -3.86761025      5.84749595
H      10.87761038     -6.76662590     -7.41185568
H      -4.70157084     14.65256910     11.68090732
   94
energy=      0.00000000
C       7.14918359     -6.80274734     -7.69376504
C       5.71248393     -7.63540005     -7.24320535
H       7.41287041     -5.95968933     -6.81648974
C       3.60862814     -1.24471452      4.90745551
H     -18.89185999     -7.18329685     -1.80818867
H       4.70818232     -7.04364324     -6.82055152
C       4.82817670     -1.79069105      5.94336769
H       5.76841773     -8.46372327     -6.32167889
H      -7.81523282     -6.27941550    -16.91792814
H      -7.80752163     -7.04880949    -16.78996947
C       8.87971374      1.10592351      3.67497465
H      14.01585011      6.01792587     10.72756156
C       7.35592467     -3.12974079      3.85099496
H       6.86971475      6.21976491     -5.52309400
H       7.67001475     -2.62942114      2.83982811
H       2.84359232     -8.54986646     13.57064803
C       5.43830192     -3.43200889      5.93916904
H       4.58309955     -4.30527340      5.70450590
C       5.64097202      8.15741524     -5.80666733
H       5.41423262     -4.05816206      7.02098994
H       6.27979786      9.03485530     -6.33901573
H       4.66083437      8.67798266     -6.31189140
C       6.04504497      6.82235732     -4.84796378
H       8.11685107      1.29189459      0.98898017
C       7.32454909      1.22825630      1.89716267
H      10.44407532      2.81501287      4.33949195
H       5.11143750      6.07579188     -5.16919497
H      -3.00408555     13.84794160     10.96389429
C       8.54689855     -7.63579025     -8.26625699
H       2.76744727     -0.48216694      5.38661297
H     -19.27118577     -7.16726916     -1.12682601
C      -1.64604397     -8.76248572      0.36625630
H       3.95591769     -1.98734362      6.80783174
C       1.81749416     -8.36670803     14.16348096
H      -2.45704623     -9.23338234      1.05525334
H      -9.96862842    -12.03742337     15.59195479
H       1.41344015     -7.24997269     14.32949163
C      -3.95008094      0.02188444     -7.52418447
H       6.03989261      8.94395034     -2.69871392
C       3.88998341      7.67047579     -2.16723503
H      -4.45424832      0.92846258     -8.05155203
H       3.83852885      8.19243305     -1.06354478
H       3.36715266      6.55534504     -2.03939046
H       2.99688185      8.18565560     -2.84767995
H       8.82891809     -7.44633761     -9.46018033
H       8.44790942     -8.82861553     -8.58874065
H      10.36376163     -8.23985835     -6.46010743
H       5.81943638      1.59216934      4.74655771
H       5.27727306      0.46188887      6.90321411
H       1.19634424     -9.29969428     14.58973815
H       6.70114162      1.63368132      0.95465115
H      -9.42675544     -2.95204824     23.99740376
H       4.78383077     13.79203709     17.27394701
H       3.36713233     13.38598886     20.36018827
H       6.15917716     -0.98190448      8.90710534
H      18.06949782      4.47561687     -0.64462133
H      -4.76113507     12.91559780     10.66978309
H      18.75967138      4.62399260     -0.31289178
H       3.74302360     -2.26056132      2.58572534
H       7.08906982     -5.04538527      4.77586180
H       6.89049789     -5.83114846     -8.43021746
H       7.62019873     -1.15828506      8.26815194
C       3.20025488     -1.42430746      3.30144174
C      -9.36398366    -11.98103581     16.58463273
C       6.55426541      0.64325663      5.02986664
C       5.87068947     -0.42301439      6.27216373
C       7.32549340      0.88414087      3.51906554
C       5.07494459     14.28628275     18.35935228
C       6.56940753     -0.82707448      7.76748491
C      -4.20622018     14.01157358     10.75361368
C       4.08796833     13.76590189     19.51578233
C       6.50224465      6.68886624     -3.18199656
C      11.09573245      0.63433100      4.99263367
C      10.21239119      1.65397021      4.26562147
C       9.95373664     -7.55256624     -7.36905072
C       5.48216308      7.85467024     -2.61451787
C       6.90997903     -3.89447542      5.19134815
H       7.54280988      6.72662838     -2.49886655
H       5.09077887     -8.28394482     -8.09834337
H       2.03538346     -1.78280084      3.11861382
H      -9.29845674     -2.27982476     24.37164303
H      -8.76468144    -11.92361332     17.58048606
H      13.84001577      6.77137903     10.62861425
H       7.37403555      1.21798693      5.72183367
H       6.24044508     13.98951994     18.60566743
H       5.01553152     15.50701248     18.24350919
H      -3.44591357     -0.88469371     -6.99681691
H       6.67640904      5.65893026     -2.49686008
H      -4.35808925     14.63018583      9.69987001
H      -0.83504173     -8.29158915     -0.32274080
H       3.38855686     -0.43304935      2.59226297
H       7.96780675     -3.89959441      5.83487253
H      10.88052810     -6.77319867     -7.41306104
H      -4.70157084     14.65256910     11.68090732
