   94

C       7.15089407     -6.81437773     -7.68027214
C       5.69243568     -7.62282144     -7.25502350
H       7.41406259     -5.99317246     -6.78259545
C       2.97321548     -1.16675658      8.05030816
H     -18.89185999     -7.18329685     -1.80818867
H       4.68612308     -7.01094827     -6.86642095
C       4.66103029     -1.54541760      8.18625685
H       5.71733531     -8.44155465     -6.32343697
H      -7.81523282     -6.27941550    -16.91792814
H      -7.80752163     -7.04880949    -16.78996947
C       9.20895498      1.88723640      6.74385495
H      10.24056361      1.53763208      7.32718247
C       5.59146497     -2.46975954      7.07897013
H       6.97057557      4.42379393     -4.51163030
H       5.17850729     -1.77393304      6.14546762
H      -0.14326300     -7.37313909     12.68689833
C       6.35303089     -3.86826742      7.51039288
H       5.99014247     -4.65783814      8.37897062
C       5.68525199      6.47102825     -3.42211679
H       7.21429001     -4.67756013      7.84992153
H       6.38184992      7.35506579     -3.94536432
H       4.67327853      6.94680764     -3.95378455
C       6.00869419      5.14791589     -4.39168098
H      10.29634125      4.48155035    -13.66390095
C       9.64367763      4.13054198    -12.81001553
H       9.07879793      2.15971729      4.11402634
H       5.39442992      4.60435395     -5.28266649
H      -3.00408555     13.84794160     10.96389429
C       8.54771264     -7.65402237     -8.24643211
H       2.40870639     -0.37967693      7.33598221
H     -19.27118577     -7.16726916     -1.12682601
C      -0.71052971     -7.78376240      1.02052280
H       3.86346744     -2.45681646      8.27919958
C      -1.16836657     -7.12814438     13.27901413
H      -1.52154703     -8.25465439      1.70950529
H      -3.40368673     -8.07766135     13.53437849
H      -1.16510162     -5.92173506     13.19494876
C      -3.94456900      0.00993360     -7.51176531
H       6.21201453      7.56785709     -1.39156071
C       4.20320261      6.47737320     -0.79974518
H      -4.44979054      0.91593836     -8.03910940
H       4.11010667      7.15968572      0.23276321
H       3.70584271      5.42218105     -0.38615648
H       3.11364551      6.85629663     -1.24448850
H       8.81968626     -7.49525162     -9.44743095
H       8.43758436     -8.85670514     -8.52447229
H      10.49598750     -8.28579069     -6.58682384
H       6.16835320      1.65053922      9.15939193
H       5.23865413     -0.86454282     10.11034503
H      -2.03574697     -9.35619933     13.92868731
H       7.04538652      1.08540492      6.37685795
H      -8.74526101     -4.13751920     22.51988046
H       4.78811023     13.76619063     17.28663088
H       3.34348979     13.40635285     20.34884071
H       7.51367511     -1.92145873     11.07922994
H      17.43837815      4.39965505      0.15020650
H      -4.76113507     12.91559780     10.66978309
H      18.12855175      4.54803080      0.48193602
H       0.08111614      1.59480523    -19.54274251
H       6.56709399     -3.53901736      4.97691114
H       6.91544502     -5.83559800     -8.41540141
H       8.43109890     -1.62529132      9.98837512
C       1.40498926     -1.53412802      8.29973426
C      -2.26250980     -8.14629501     13.99853051
C       6.83399163      0.72338609      8.69540589
C       5.95781814     -0.74928826      9.11587279
C       7.76620791      1.19880662      7.33721630
C       5.08034300     14.28114791     18.36208901
C       7.23112822     -1.44101678     10.00476664
C      -4.20622018     14.01157358     10.75361368
C       4.09122862     13.76083071     19.51678000
C       6.79423093      5.43700080     -0.99005012
C      10.94488990      1.51605140      4.36984025
C       9.64207597      1.86856770      5.13691195
C       9.97532397     -7.53909749     -7.38531991
C       5.68098756      6.47961054     -1.69134052
C       6.71926557     -3.15077971      6.13862068
H       7.89181680      5.59522779     -0.50310106
H       5.07982671     -8.27478982     -8.11404783
H       0.22299529     -1.69460537      8.25251506
H      -8.61696231     -3.46529572     22.89411973
H      -2.38563327     -7.98143227     15.21515155
H       9.33538750      3.07730175      7.05954765
H       7.60232387      1.27529199      9.48771454
H       6.26080204     14.00814340     18.55915952
H       5.00587893     15.50407751     18.28494639
H      -3.43983622     -0.89634279     -6.98441995
H       6.79631120      4.24737809     -0.76216387
H      -4.35808925     14.63018583      9.69987001
H       0.10045748     -7.31285825      0.33151316
H       0.02136932      2.36922668    -19.61416854
H       7.86230851     -2.80541713      5.82169168
H      10.82174990     -6.67253350     -7.35397112
H      -4.70157084     14.65256910     11.68090732
   94

C       7.15407464     -6.81851076     -7.67576426
C       5.69626059     -7.62792013     -7.25028366
H       7.41728705     -5.99685214     -6.77848407
C       2.95839848     -1.13422477      7.71110577
H     -18.89232524     -7.18348283     -1.80803734
H       4.68983824     -7.01712434     -6.86030465
C       4.63404908     -1.52345649      7.97576847
H       5.72237507     -8.44714483     -6.31917293
H      -7.82858763     -6.29137327    -16.91737143
H      -7.81783738     -7.06067675    -16.78910952
C       9.21925755      1.87243228      6.76469503
H      10.22985192      1.49725820      7.36854333
C       5.61159773     -2.49627254      6.95193750
H       6.96573668      4.50309890     -4.59018268
H       5.25252579     -1.82210532      5.98322663
H      -0.14348772     -7.37490121     12.68839801
C       6.33318558     -3.89709466      7.44417324
H       5.91622184     -4.67292893      8.30107576
C       5.68084483      6.54929369     -3.49907685
H       7.17342892     -4.70478144      7.83820174
H       6.38059716      7.43079183     -4.02230111
H       4.67341182      7.03149884     -4.03368335
C       6.00057205      5.22183524     -4.46354297
H      10.34859265      4.47950563    -13.70481916
C       9.70225416      4.12967887    -12.84564216
H       9.12591660      2.15525195      4.13609113
H       5.37540459      4.66606061     -5.33911604
H      -3.00418373     13.84827719     10.96406417
C       8.55052862     -7.65735095     -8.24385909
H       2.47330240     -0.29690308      6.99984829
H     -19.27162766     -7.16743265     -1.12666228
C      -0.77220622     -7.85278093      0.97427079
H       3.83341123     -2.42389274      8.13327009
C      -1.16877368     -7.12972917     13.28010214
H      -1.58339772     -8.32390011      1.66290343
H      -3.40435427     -8.07891805     13.53540183
H      -1.16528177     -5.92330826     13.19644480
C      -3.96090435      0.00556665     -7.47982051
H       6.20310571      7.64407932     -1.46600720
C       4.19436171      6.54939026     -0.88063776
H      -4.47083782      0.91266574     -8.00075179
H       4.10030337      7.22365512      0.15702594
H       3.69474116      5.49147298     -0.47682780
H       3.10682271      6.93490984     -1.32474316
H       8.82224747     -7.49761321     -9.44477234
H       8.44106904     -8.85972571     -8.52347231
H      10.49420728     -8.28646973     -6.57872910
H       6.11572712      1.65575514      9.09486644
H       5.12918689     -0.85032496      9.94614119
H      -2.03640909     -9.35747573     13.92973649
H       7.04457867      1.11685999      6.33258839
H      -8.74525094     -4.13751457     22.51990112
H       4.78775078     13.76835126     17.28556261
H       3.34552311     13.40450767     20.34983039
H       7.36913558     -1.93025586     10.99700941
H      17.43979756      4.40012487      0.14982392
H      -4.76125774     12.91595880     10.66995885
H      18.12990492      4.54846353      0.48170717
H       0.43707796      1.32602474    -17.28795037
H       6.66586818     -3.64134245      4.92577593
H       6.91802642     -5.83943344     -8.41026249
H       8.32736656     -1.65366188      9.92315106
C       1.36403752     -1.50818368      7.79705892
C      -2.26318194     -8.14758035     13.99953409
C       6.78240558      0.72722266      8.63377154
C       5.89012997     -0.75138822      8.98104066
C       7.75041498      1.20376270      7.30666243
C       5.07990159     14.28158172     18.36186316
C       7.12914021     -1.45389864      9.90969937
C      -4.20631792     14.01192112     10.75379311
C       4.09086928     13.76135597     19.51664804
C       6.78793095      5.51296828     -1.06777349
C      10.98054440      1.47978299      4.41843930
C       9.67324139      1.85565539      5.16503337
C       9.97785918     -7.54240382     -7.38244222
C       5.67422428      6.55551444     -1.76848775
C       6.77037310     -3.21070461      6.07776692
H       7.88624405      5.67093746     -0.58244841
H       5.08347964     -8.27984566     -8.10921937
H       0.18922569     -1.63591754      7.61425419
H      -8.61694452     -3.46528721     22.89413077
H      -2.38621244     -7.98250472     15.21612807
H       9.36075146      3.05518893      7.10032456
H       7.52833430      1.26094882      9.46044984
H       6.25917739     14.00648289     18.56311890
H       5.00666499     15.50437584     18.28145371
H      -3.45124083     -0.90181030     -6.95913495
H       6.79098501      4.32317936     -0.84065551
H      -4.35819505     14.63054872      9.70006010
H       0.03904456     -7.38126180      0.28598531
H       0.37424395      2.07692617    -17.33912792
H       7.92467300     -2.86412132      5.80426416
H      10.82711187     -6.67848929     -7.35498676
H      -4.70165957     14.65289849     11.68110361
   94

C       7.16252641     -6.83127982     -7.66444961
C       5.70535609     -7.64193633     -7.23952033
H       7.42569653     -6.00949397     -6.76720614
C       2.95867782     -1.12439104      7.34455706
H     -18.89299525     -7.18375495     -1.80785372
H       4.69871767     -7.03287399     -6.84740121
C       4.60936901     -1.50157198      7.76867056
H       5.73310305     -8.46186211     -6.30909677
H      -7.83815755     -6.29874395    -16.92261789
H      -7.82577304     -7.06781645    -16.79312969
C       9.22669068      1.85490992      6.78929574
H      10.21475015      1.45373259      7.41337936
C       5.62584165     -2.52235352      6.83117833
H       6.97047344      4.58860004     -4.65866676
H       5.32704214     -1.86753492      5.83128866
H      -0.14362967     -7.37489251     12.68838279
C       6.30477687     -3.92361535      7.38244812
H       5.83425553     -4.68495750      8.22475856
C       5.68137438      6.63357331     -3.56841794
H       7.12095312     -4.72887811      7.83053977
H       6.38396086      7.51320425     -4.09077781
H       4.67859780      7.12113424     -4.10685459
C       6.00212718      5.30208371     -4.52608084
H      10.43110426      4.48989618    -13.75840143
C       9.80745695      4.14480787    -12.88079977
H       9.17204387      2.14889242      4.16249289
H       5.36493548      4.73060167     -5.38229967
H      -3.00428531     13.84856883     10.96430467
C       8.55831029     -7.66733551     -8.23790542
H       2.53719462     -0.18129015      6.73591967
H     -19.27225152     -7.16766911     -1.12645392
C      -0.83444164     -7.92447593      0.92789195
H       3.79928650     -2.37774921      8.00301199
C      -1.16893472     -7.12955861     13.27999315
H      -1.64589351     -8.39537246      1.61638961
H      -3.40444587     -8.07894043     13.53559111
H      -1.16548569     -5.92316542     13.19589458
C      -4.04442201     -0.01347931     -7.36288022
H       6.19634754      7.72349933     -1.53180265
C       4.18667260      6.62367222     -0.95654649
H      -4.57001571      0.89424835     -7.86729535
H       4.09053984      7.28938871      0.08638691
H       3.68470386      5.56281136     -0.56350813
H       3.10146856      7.01576566     -1.40070093
H       8.82886714     -7.50613727     -9.43886540
H       8.44993541     -8.86932577     -8.51936458
H      10.49802729     -8.29065658     -6.56771822
H       6.06032584      1.66183908      9.03077265
H       5.01785819     -0.82942682      9.77999104
H      -2.03639589     -9.35737032     13.92988895
H       7.04352776      1.14786258      6.29135803
H      -8.74519925     -4.13750374     22.51985946
H       4.78738738     13.77051416     17.28452724
H       3.34755030     13.40266678     20.35083430
H       7.21795335     -1.93643083     10.91416728
H      17.44123733      4.40051288      0.14979828
H      -4.76137589     12.91626739     10.67020625
H      18.13130162      4.54883564      0.48177735
H       0.78979455      1.08312755    -15.23953521
H       6.75630584     -3.74163432      4.88709073
H       6.92590783     -5.85149391     -8.39770603
H       8.21746961     -1.68111024      9.85948516
C       1.38225612     -1.56355336      7.13278549
C      -2.26320163     -8.14747098     13.99956856
C       6.72779656      0.73150461      8.57307110
C       5.82019446     -0.75018432      8.84660691
C       7.73297017      1.20791045      7.27904418
C       5.07945413     14.28202324     18.36166519
C       7.02216443     -1.46444399      9.81539283
C      -4.20641940     14.01222068     10.75404164
C       4.09049934     13.76188888     19.51654227
C       6.78312552      5.59136734     -1.13802804
C      11.01410938      1.44188164      4.47167602
C       9.70251941      1.84015645      5.19741022
C       9.98596426     -7.55043319     -7.37763149
C       5.66991717      6.63486433     -1.83821555
C       6.81362845     -3.26873761      6.02582545
H       7.88295225      5.74817349     -0.65584285
H       5.09244252     -8.29394665     -8.09829202
H       0.19191909     -1.54215053      7.00084324
H      -8.61689059     -3.46527457     22.89408507
H      -2.38611636     -7.98226301     15.21615652
H       9.38289832      3.02963617      7.14554968
H       7.44969093      1.24635863      9.43361209
H       6.25753219     14.00484340     18.56709619
H       5.00745486     15.50467298     18.27799077
H      -3.51313406     -0.92180650     -6.86568616
H       6.78711092      4.40113473     -0.91301430
H      -4.35830779     14.63086889      9.70032278
H      -0.02272457     -7.45251170      0.24044440
H       0.71901205      1.80974619    -15.26574394
H       7.97824323     -2.92280468      5.79648360
H      10.83685140     -6.68804614     -7.35388220
H      -4.70175391     14.65318091     11.68136734
   94

C       7.18057227     -6.86245524     -7.64423161
C       5.72419595     -7.67520690     -7.22156708
H       7.44306043     -6.04090297     -6.74646112
C       2.98536963     -1.13321173      6.92574521
H     -18.89394357     -7.18416099     -1.80762504
H       4.71702175     -7.06958720     -6.82546221
C       4.58197572     -1.48150553      7.56127861
H       5.75466111     -8.49654304     -6.29252587
H      -7.83764932     -6.29717945    -16.92692979
H      -7.82614937     -7.06620717    -16.79708490
C       9.22874708      1.83402272      6.81756593
H      10.19259443      1.40644212      7.46170175
C       5.63330251     -2.54738043      6.71419365
H       7.00388445      4.69617664     -4.70432526
H       5.41034418     -1.90678675      5.68741703
H      -0.14382625     -7.37394855     12.68706568
C       6.26242732     -3.94768103      7.32419600
H       5.73564392     -4.69048453      8.14963863
C       5.69446558      6.73677604     -3.62024025
H       7.04853289     -4.75101021      7.82798731
H       6.39821930      7.61767440     -4.13844509
H       4.69631868      7.22605888     -4.16526207
C       6.03188321      5.40405087     -4.56837875
H      10.51952505      4.50876164    -13.84602188
C       9.92835019      4.17167201    -12.94342233
H       9.21580942      2.14019176      4.19337766
H       5.38140311      4.80938534     -5.39750933
H      -3.00442727     13.84884822     10.96461267
C       8.57585954     -7.69082802     -8.22922886
H       2.56485830     -0.06717138      6.57771571
H     -19.27311921     -7.16801848     -1.12618186
C      -0.89797933     -7.99968820      0.88159509
H       3.73933696     -2.30862509      7.85771776
C      -1.16897338     -7.12854002     13.27893331
H      -1.70963615     -8.46917534      1.57084240
H      -3.40423333     -8.07826931     13.53507009
H      -1.16577891     -5.92219303     13.19403679
C      -4.30334524     -0.05799012     -7.14667198
H       6.19387923      7.81219577     -1.57603620
C       4.18092970      6.70382454     -1.02209717
H      -4.83023453      0.84717989     -7.65540902
H       4.07918282      7.35919113      0.02678380
H       3.67659786      5.63901893     -0.64300936
H       3.09889974      7.10215958     -1.46851546
H       8.84344056     -7.52684984     -9.43045201
H       8.46973244     -8.89225100     -8.51325697
H      10.51203465     -8.30136462     -6.55338398
H       6.00003074      1.66701311      8.96629959
H       4.90254677     -0.80678103      9.60838636
H      -2.03605131     -9.35653183     13.92932776
H       7.03922225      1.17913533      6.25237105
H      -8.74513494     -4.13749559     22.51978799
H       4.78702612     13.77270534     17.28355225
H       3.34957679     13.40085619     20.35187867
H       7.05664342     -1.94089701     10.82844911
H      17.44282359      4.40075361      0.15020150
H      -4.76152356     12.91654765     10.67051501
H      18.13286309      4.54910003      0.48222027
H       1.23903485      0.87342024    -13.45782273
H       6.84013207     -3.84158258      4.86144392
H       6.94325580     -5.88161632     -8.37560181
H       8.09820381     -1.70849248      9.79583033
C       1.49722767     -1.58457484      6.32211832
C      -2.26289388     -8.14662294     13.99885615
C       6.66760598      0.73442729      8.51188998
C       5.74501453     -0.74808140      8.70895301
C       7.71113998      1.21071642      7.25334749
C       5.07900836     14.28249696     18.36152283
C       6.90694421     -1.47455949      9.71925270
C      -4.20656148     14.01249764     10.75435073
C       4.09012583     13.76245450     19.51648998
C       6.78129477      5.67721164     -1.19088869
C      11.04427505      1.40230056      4.53013538
C       9.72818916      1.82148875      5.23424930
C      10.00461214     -7.56796987     -7.37226301
C       5.67113096      6.72430116     -1.89094716
C       6.84916901     -3.32669744      5.98348975
H       7.88431626      5.83037595     -0.71493503
H       5.11124256     -8.32695650     -8.08047997
H       0.30121338     -1.48323605      6.44078404
H      -8.61682909     -3.46526683     22.89401530
H      -2.38568244     -7.98133070     15.21544893
H       9.39919436      2.99992017      7.19533554
H       7.36399249      1.22937434      9.40581635
H       6.25587406     14.00324729     18.57111737
H       5.00825654     15.50499332     18.27458412
H      -3.73975033     -0.95986444     -6.67276670
H       6.78601238      4.48574165     -0.97189187
H      -4.35846260     14.63116834      9.70064734
H      -0.08571745     -7.52824172      0.19440307
H       1.15798525      1.57443481    -13.46921804
H       8.02354837     -2.98366301      5.80100570
H      10.85426265     -6.70433689     -7.35117032
H      -4.70189180     14.65344241     11.68168892
   94

C       7.21572144     -6.93151975     -7.61810834
C       5.76124057     -7.74902467     -7.20042264
H       7.47502551     -6.10938422     -6.71979994
C       3.06683609     -1.10976258      6.48488720
H     -18.89515869     -7.18470886     -1.80731748
H       4.75246410     -7.15141850     -6.79615029
C       4.56569199     -1.45911335      7.34365528
H       5.79713981     -8.57332481     -6.27430799
H      -7.83224429     -6.29227453    -16.92814942
H      -7.82229752     -7.06139886    -16.79873805
C       9.22472999      1.81005756      6.84905711
H      10.16248393      1.35577701      7.51320336
C       5.64090449     -2.57235904      6.59307323
H       7.11709462      4.87920061     -4.70699575
H       5.50771286     -1.94559711      5.54411855
H      -0.14412714     -7.37301611     12.68526731
C       6.20760957     -3.97069682      7.26363138
H       5.61941383     -4.68841935      8.06937881
C       5.73840522      6.89722262     -3.63490129
H       6.95499492     -4.77252533      7.82680493
H       6.43589812      7.79266475     -4.13582793
H       4.74373536      7.37814721     -4.19261916
C       6.13873857      5.57873441     -4.57469821
H      10.56562832      4.51815921    -13.95224960
C       9.98428500      4.18659575    -13.04168614
H       9.25734581      2.12951898      4.22858852
H       5.48697145      4.96515188     -5.38684806
H      -3.00466240     13.84908562     10.96497558
C       8.61306781     -7.74099062     -8.22321407
H       2.54239935     -0.03177560      6.47630488
H     -19.27421359     -7.16848079     -1.12580942
C      -0.96262364     -8.07536275      0.83741130
H       3.66415666     -2.21221586      7.66557186
C      -1.16902440     -7.12763830     13.27758816
H      -1.77442523     -8.54229220      1.52824157
H      -3.40403648     -8.07759877     13.53423581
H      -1.16610437     -5.92132411     13.19213178
C      -4.74665622     -0.10286267     -7.04463245
H       6.19995553      7.92651535     -1.56908719
C       4.17956841      6.79974018     -1.06850605
H      -5.18967948      0.81542817     -7.60809921
H       4.06196550      7.43861576     -0.01113031
H       3.67387258      5.72752317     -0.71291409
H       3.10262899      7.20289837     -1.52284106
H       8.87531935     -7.57148746     -9.42480884
H       8.51220779     -8.94151010     -8.51120990
H      10.54367545     -8.32356310     -6.53662715
H       5.93325264      1.66932094      8.89968478
H       4.78692223     -0.78932378      9.42806651
H      -2.03575238     -9.35574204     13.92846517
H       7.03107746      1.21170200      6.21429238
H      -8.74508252     -4.13749283     22.51970384
H       4.78665495     13.77490273     17.28266150
H       3.35158659     13.39905193     20.35297712
H       6.88690907     -1.94606351     10.73713589
H      17.44522978      4.40079580      0.15120680
H      -4.76174844     12.91676789     10.67084970
H      18.13524348      4.54924392      0.48323128
H       1.70452412      0.59422664    -11.69493623
H       6.92111897     -3.94528839      4.84527084
H       6.97706693     -5.95077159     -8.34863537
H       7.97206654     -1.73729028      9.73061352
C       1.67654421     -1.49307776      5.62193028
C      -2.26262854     -8.14582826     13.99788650
C       6.60218088      0.73541401      8.44855548
C       5.66932942     -0.74716140      8.56627200
C       7.68424635      1.21268340      7.22814171
C       5.07855425     14.28298327     18.36145815
C       6.78625533     -1.48671621      9.61872548
C      -4.20679530     14.01272106     10.75469751
C       4.08973718     13.76302979     19.51650946
C       6.78609613      5.78460912     -1.20801350
C      11.07112919      1.36151600      4.59401395
C       9.75012004      1.80003871      5.27542809
C      10.04260933     -7.60355604     -7.37099871
C       5.68513670      6.84225291     -1.90833860
C       6.88147757     -3.38881340      5.94687048
H       7.89426052      5.92780633     -0.74082788
H       5.14860460     -8.39924206     -8.06064314
H       0.47348749     -1.48833021      5.78089044
H      -8.61678149     -3.46526599     22.89393622
H      -2.38531395     -7.98049806     15.21448746
H       9.40839891      2.96623524      7.24958739
H       7.27013811      1.20979342      9.37592862
H       6.25419250     14.00167351     18.57520545
H       5.00905963     15.50531726     18.27125804
H      -4.22512442     -1.00761307     -6.52853552
H       6.79063095      4.58975848     -1.00657673
H      -4.35870822     14.63141999      9.70101280
H      -0.14974039     -7.60616058      0.14939386
H       1.60927808      1.26458760    -11.76733816
H       8.06456139     -3.05027455      5.81487127
H      10.88474420     -6.73264358     -7.34932791
H      -4.70212506     14.65365130     11.68204561
   94

C       7.27904763     -7.06122310     -7.62719845
C       5.84032309     -7.90464861     -7.21234109
H       7.52899237     -6.23493106     -6.73024011
C       3.16568528     -1.05435606      6.10187529
H     -18.89639168     -7.18522813     -1.80697831
H       4.82306278     -7.33495378     -6.78961335
C       4.55687413     -1.44035723      7.12470576
H       5.89234172     -8.73302141     -6.29047608
H      -7.82636451     -6.28848295    -16.92938574
H      -7.81768119     -7.05768296    -16.80032431
C       9.21400866      1.78377244      6.88156693
H      10.12381385      1.30279344      7.56563469
C       5.64573922     -2.59789492      6.46914959
H       7.33618267      5.22238468     -4.71649809
H       5.60034135     -1.98704568      5.40534284
H      -0.14446078     -7.37242754     12.68379061
C       6.14652864     -3.99212978      7.19729658
H       5.49843897     -4.68357473      7.97966437
C       5.81635077      7.15195437     -3.63461367
H       6.85166185     -4.79033184      7.81858991
H       6.49188183      8.09269252     -4.08199448
H       4.82156724      7.62163374     -4.20094258
C       6.33071412      5.88403153     -4.58579580
H      10.50488732      4.47900666    -13.99744755
C       9.87960398      4.13881697    -13.11985237
H       9.29635262      2.11882569      4.26599483
H       5.82373269      5.45408659     -5.59351649
H      -3.00496991     13.84925733     10.96536434
C       8.69159524     -7.82782231     -8.25053443
H       2.50431367     -0.07419283      6.31430539
H     -19.27530312     -7.16890231     -1.12539329
C      -1.03034002     -8.15500124      0.80376771
H       3.59690713     -2.11653382      7.45195808
C      -1.16914741     -7.12710460     13.27649828
H      -1.84408948     -8.61722260      1.49538700
H      -3.40398259     -8.07715260     13.53346899
H      -1.16640141     -5.92080532     13.19080234
C      -5.27218272     -0.07722039     -7.30092961
H       6.22264217      8.07847991     -1.52496314
C       4.19676035      6.93237555     -1.10993787
H      -5.50105946      0.90000815     -7.89410893
H       4.05676084      7.54633405     -0.04011517
H       3.69261211      5.85007707     -0.78467271
H       3.12528366      7.34045145     -1.57239141
H       8.94843063     -7.64627403     -9.45130888
H       8.60403320     -9.02682719     -8.54540983
H      10.59975352     -8.35640827     -6.52910607
H       5.85731406      1.66934595      8.82589607
H       4.67186078     -0.77339590      9.24024370
H      -2.03565075     -9.35524812     13.92769803
H       7.01994227      1.24361997      6.17453363
H      -8.74503865     -4.13748150     22.51958834
H       4.78627338     13.77706645     17.28181771
H       3.35357632     13.39721324     20.35409086
H       6.71235421     -1.95023180     10.63847707
H      17.44866913      4.40066063      0.15251692
H      -4.76202474     12.91690407     10.67116769
H      18.13862444      4.54927610      0.48458390
H       1.85777982      0.04580843     -9.09846593
H       6.99180301     -4.04710817      4.83342298
H       7.03669001     -6.08751553     -8.36461201
H       7.84112908     -1.76542523      9.66108409
C       1.91672818     -1.36271288      5.00292632
C      -2.26254786     -8.14533365     13.99706831
C       6.53034005      0.73524283      8.37996720
C       5.59301398     -0.74661908      8.41873277
C       7.65215342      1.21387141      7.20123187
C       5.07808951     14.28344239     18.36143436
C       6.66219783     -1.49862955      9.51270947
C      -4.20710051     14.01286841     10.75505641
C       4.08933059     13.76357233     19.51656194
C       6.80712579      5.92663217     -1.22698211
C      11.09407821      1.32080745      4.66139584
C       9.76759118      1.77719323      5.31875149
C      10.11237757     -7.66080913     -7.39175998
C       5.71880436      7.00581683     -1.91625721
C       6.90573680     -3.44951795      5.91075615
H       7.91426458      6.05261175     -0.75174837
H       5.23087573     -8.55268775     -8.07648775
H       0.70508062     -1.47249814      5.08685606
H      -8.61674125     -3.46525716     22.89382645
H      -2.38517217     -7.98000185     15.21367657
H       9.40947219      2.92931746      7.30620951
H       7.16568605      1.19017908      9.34057716
H       6.25248490     14.00008205     18.57932561
H       5.00986139     15.50560557     18.26798347
H      -4.95195709     -1.04127922     -6.72877655
H       6.80808041      4.72657415     -1.05836041
H      -4.35902914     14.63161370      9.70140157
H      -0.21332284     -7.69317817      0.11574592
H       1.81214454      0.58057492     -9.47595308
H       8.09555953     -3.11614626      5.83015415
H      10.93533634     -6.77208433     -7.36003633
H      -4.70243571     14.65377601     11.68241687
   94

C       7.27696945     -7.05135793     -7.76456142
C       5.87417853     -7.95420671     -7.35538713
H       7.52403351     -6.23025513     -6.86358758
C       3.26834174     -1.00671510      5.78115265
H     -18.89626100     -7.18484498     -1.80748508
H       4.83366502     -7.41104824     -6.95890889
C       4.55520662     -1.43022065      6.92193683
H       5.92640650     -8.77255314     -6.42371599
H      -7.81993274     -6.28469425    -16.92728501
H      -7.81199828     -7.05395231    -16.79852251
C       9.19929506      1.75807552      6.91524169
H      10.07978496      1.25088404      7.61863828
C       5.65180740     -2.62498979      6.35535300
H       7.30062728      5.39325963     -4.96111077
H       5.68520320     -2.03154934      5.28339734
H      -0.14477305     -7.37285376     12.68544332
C       6.08814263     -4.01317307      7.13469217
H       5.38541744     -4.68081892      7.89018806
C       5.81349743      7.26791406     -3.80327647
H       6.75113893     -4.80498364      7.80954071
H       6.48586117      8.21244023     -4.25142507
H       4.81451425      7.75518014     -4.34987918
C       6.27606998      6.02472323     -4.82111580
H      10.44639661      4.42868653    -13.99877662
C       9.79555216      4.07857041    -13.14325504
H       9.33463551      2.11426141      4.30635118
H       5.81269214      5.65983649     -5.87945425
H      -3.00511098     13.84966597     10.96568156
C       8.71514061     -7.81367420     -8.32778689
H       2.49954824     -0.12825234      6.07435891
H     -19.27519785     -7.16859116     -1.12591221
C      -1.12785133     -8.30461041      0.82583687
H       3.54877994     -2.03569940      7.25376676
C      -1.16955510     -7.12754224     13.27797762
H      -1.95567571     -8.74271393      1.51501163
H      -3.40442525     -8.07758804     13.53471486
H      -1.16676420     -5.92123127     13.19251583
C      -4.98529160      0.04540194     -7.91145980
H       6.26784727      8.23042705     -1.70544140
C       4.25608325      7.13880457     -1.21157329
H      -5.10702203      1.11312233     -8.35961081
H       4.14397594      7.76416771     -0.14422157
H       3.74887874      6.07230954     -0.84358036
H       3.17926532      7.55326493     -1.65583749
H       8.98367619     -7.62779463     -9.52454765
H       8.64266277     -9.01392875     -8.62301749
H      10.58681483     -8.34419522     -6.56054807
H       5.77874100      1.67111434      8.74856820
H       4.56158639     -0.75133961      9.05434382
H      -2.03609189     -9.35573487     13.92892445
H       7.00955210      1.27460896      6.13604209
H      -8.74512712     -4.13747374     22.51975689
H       4.78595228     13.77924779     17.28082131
H       3.35565026     13.39543892     20.35509502
H       6.53827061     -1.95098287     10.53871874
H      17.44914694      4.40115790      0.15170919
H      -4.76216910     12.91730551     10.67148407
H      18.13902962      4.54962356      0.48399431
H       1.64207090     -0.94829823     -4.88410431
H       7.05482450     -4.14590529      4.83357347
H       7.02760810     -6.07753751     -8.49984575
H       7.70994994     -1.79019012      9.59269114
C       2.18174728     -1.24214622      4.49405467
C      -2.26300948     -8.14583078     13.99834001
C       6.45722823      0.73674430      8.31010101
C       5.51981875     -0.74281978      8.27515153
C       7.61888380      1.21559332      7.17529423
C       5.07767780     14.28391686     18.36125880
C       6.53945705     -1.50671002      9.40818687
C      -4.20724293     14.01326811     10.75537643
C       4.08898614     13.76415150     19.51648606
C       6.86091167      6.09527371     -1.39465155
C      11.11440740      1.28387794      4.73173988
C       9.78209125      1.75653942      5.36408038
C      10.11375086     -7.65073374     -7.43319757
C       5.75012447      7.15594324     -2.07676337
C       6.92557749     -3.50672194      5.88242440
H       7.96053291      6.23213906     -0.90409765
H       5.28128129     -8.60986812     -8.22628455
H       0.97163310     -1.43319771      4.48920061
H      -8.61682104     -3.46524470     22.89398359
H      -2.38563912     -7.98051359     15.21494555
H       9.40454966      2.89238074      7.36463624
H       7.05687421      1.17371030      9.30257402
H       6.25081833     13.99851942     18.58327647
H       5.01073046     15.50590102     18.26455805
H      -4.90442039     -1.03121122     -7.47347462
H       6.86344496      4.90285457     -1.18296042
H      -4.35919479     14.63204398      9.70174333
H      -0.28150608     -7.89268601      0.14328258
H       1.53615376     -0.40165307     -5.18141625
H       8.11942299     -3.17710246      5.85123411
H      10.93932701     -6.76481984     -7.39460241
H      -4.70258255     14.65414986     11.68275201
   94

C       7.21407571     -6.93074832     -7.77927051
C       5.78872730     -7.80110691     -7.37299725
H       7.46685839     -6.10784195     -6.88131338
C       3.37812112     -0.96470180      5.52756680
H     -18.89500375     -7.18415391     -1.80817579
H       4.75701024     -7.22614741     -6.99814374
C       4.56587888     -1.43003866      6.75174138
H       5.82304474     -8.61714444     -6.43892999
H      -7.81714741     -6.28123922    -16.92187096
H      -7.80941285     -7.05060052    -16.79371589
C       9.18373375      1.73128434      6.95249048
H      10.03469677      1.19915847      7.67377173
C       5.66248637     -2.65389006      6.26033843
H       7.09126140      5.26430045     -5.13712220
H       5.76193677     -2.07826872      5.18503071
H      -0.14527897     -7.37418585     12.68889914
C       6.03640705     -4.03583854      7.08167088
H       5.28476229     -4.68235452      7.80813384
C       5.73307661      7.22445910     -3.98306857
H       6.65834488     -4.81929181      7.80456068
H       6.42783782      8.11777999     -4.49553460
H       4.73978780      7.72699581     -4.52734574
C       6.08430203      5.91273449     -4.95832141
H      10.45580629      4.41200776    -14.03924801
C       9.80306365      4.06083477    -13.18552811
H       9.37044504      2.10754471      4.35162726
H       5.48712268      5.40632641     -5.88227148
H      -3.00500222     13.84979939     10.96546280
C       8.63948264     -7.73378832     -8.32068735
H       2.54035355     -0.15729394      5.84437675
H     -19.27409427     -7.16802732     -1.12668474
C      -1.23588567     -8.45395706      0.80791902
H       3.52122960     -1.96410031      7.09474316
C      -1.17035585     -7.12882850     13.28087081
H      -2.06812344     -8.86293521      1.50871177
H      -3.40536894     -8.07876130     13.53688869
H      -1.16736734     -5.92248844     13.19604586
C      -4.26637042      0.06421487     -7.77191058
H       6.24523089      8.30175353     -1.93940321
C       4.24351905      7.23908923     -1.36141137
H      -4.66616103      1.05356972     -8.23315988
H       4.15417145      7.87635573     -0.29952009
H       3.73158918      6.18138456     -0.97645385
H       3.16416123      7.65756029     -1.79625468
H       8.91720054     -7.55980897     -9.51746738
H       8.55327361     -8.93507640     -8.61089535
H      10.51907283     -8.31085852     -6.57045227
H       5.70814164      1.67545158      8.67859652
H       4.46761081     -0.72354975      8.88821233
H      -2.03708470     -9.35704488     13.93109273
H       7.00115541      1.30161406      6.10471687
H      -8.74530956     -4.13748474     22.52007135
H       4.78562705     13.78142450     17.27965011
H       3.35775890     13.39372348     20.35597625
H       6.37594536     -1.95223787     10.44631575
H      17.44667975      4.40170910      0.15038227
H      -4.76208538     12.91746072     10.67132009
H      18.13658596      4.54992345      0.48273467
H       2.00800106     -1.28863113     -2.80924046
H       7.11000531     -4.24071743      4.84681197
H       6.97068830     -5.95300326     -8.51230989
H       7.58870689     -1.81491394      9.53201521
C       2.40290405     -1.17261034      4.14345148
C      -2.26404439     -8.14716990     14.00068031
C       6.39112658      0.73971430      8.24839172
C       5.45818948     -0.73652203      8.14924879
C       7.58809517      1.21608778      7.15498502
C       5.07725844     14.28439240     18.36090458
C       6.42830133     -1.51347016      9.31429239
C      -4.20713774     14.01341453     10.75518710
C       4.08864869     13.76476112     19.51626334
C       6.85441257      6.18783609     -1.55194426
C      11.13225064      1.24623230      4.80546640
C       9.79447643      1.73357406      5.41327791
C      10.04267076     -7.59897519     -7.42636892
C       5.72196631      7.21166470     -2.25184287
C       6.94278290     -3.56186860      5.86494788
H       7.95259318      6.34951354     -1.06586554
H       5.19388336     -8.45997709     -8.24002304
H       1.19455929     -1.41212635      4.12997392
H      -8.61698985     -3.46524878     22.89428097
H      -2.38673566     -7.98189991     15.21727595
H       9.39710791      2.85424173      7.42588165
H       6.95479366      1.15957960      9.26979037
H       6.24913298     13.99697835     18.58703679
H       5.01160552     15.50618815     18.26094251
H      -3.94625154     -0.97543076     -7.36109348
H       6.87441153      5.00082311     -1.31490607
H      -4.35908785     14.63216095      9.70153627
H      -0.38059272     -8.10961008      0.10042142
H       1.65162820     -0.79925003     -2.77084010
H       8.13810788     -3.23409883      5.87912172
H      10.89373737     -6.73686595     -7.40355482
H      -4.70247070     14.65430078     11.68256352
   94

C       7.17590574     -6.86436408     -7.74424656
C       5.73388655     -7.70220853     -7.32462473
H       7.43759568     -6.03940322     -6.85033302
C       3.46489767     -0.93691735      5.31903582
H     -18.89363656     -7.18368834     -1.80835999
H       4.71544085     -7.10892700     -6.94042407
C       4.57392419     -1.42963431      6.60819174
H       5.76592817     -8.52205347     -6.39406043
H      -7.81598108     -6.27992237    -16.91938733
H      -7.80829024     -7.04931599    -16.79142444
C       9.16588062      1.70114501      6.99139371
H       9.98907547      1.14621554      7.72791772
C       5.66462645     -2.67968274      6.17927805
H       6.97323601      5.19536213     -5.23130218
H       5.81067294     -2.12380980      5.10104694
H      -0.14607142     -7.37582172     12.69139720
C       5.98665735     -4.05562301      7.03340567
H       5.19549383     -4.68630887      7.73153042
C       5.67516766      7.20415696     -4.09843210
H       6.57347900     -4.83003443      7.79545588
H       6.38513915      8.07142355     -4.63266475
H       4.69181649      7.71752145     -4.65073803
C       5.97771457      5.85779154     -5.04183628
H      10.47447464      4.40036681    -14.08750557
C       9.82157711      4.04920656    -13.23388619
H       9.39826173      2.09313902      4.39918960
H       5.31600367      5.27172717     -5.86925121
H      -3.00474669     13.84940256     10.96483335
C       8.58733201     -7.68841267     -8.29308385
H       2.59416959     -0.16715479      5.64873518
H     -19.27284730     -7.16762425     -1.12693418
C      -1.28011360     -8.45600854      0.70863611
H       3.50123910     -1.89201961      6.97497493
C      -1.17141155     -7.13040986     13.28284520
H      -2.09764689     -8.88233290      1.41698913
H      -3.40653330     -8.08008866     13.53794885
H      -1.16817693     -5.92403308     13.19886355
C      -4.02944553      0.03312935     -7.60035156
H       6.18556915      8.32331436     -2.06859678
C       4.18896966      7.23974348     -1.48585923
H      -4.51214148      0.96153927     -8.10811642
H       4.09795569      7.86041616     -0.41486082
H       3.67146889      6.17526600     -1.12734872
H       3.11264079      7.66867476     -1.91862463
H       8.86336620     -7.51997052     -9.49137270
H       8.48829135     -8.88912940     -8.58247495
H      10.47914988     -8.29095151     -6.56271611
H       5.64921106      1.67881033      8.62094608
H       4.39302924     -0.69475973      8.74765524
H      -2.03837760     -9.35857388     13.93222885
H       6.98978561      1.32045835      6.07997160
H      -8.74547969     -4.13751067     22.52023752
H       4.78526211     13.78359928     17.27847265
H       3.35983705     13.39203422     20.35684489
H       6.23582513     -1.95810634     10.36136235
H      17.44408467      4.40187025      0.14997213
H      -4.76183211     12.91707312     10.67071795
H      18.13407972      4.54994679      0.48220374
H       2.71842193     -1.33030103     -1.45162273
H       7.14336279     -4.32368622      4.85970042
H       6.93604473     -5.88560319     -8.47760274
H       7.48413100     -1.84323133      9.47471336
C       2.49508210     -1.20426054      3.92952973
C      -2.26538186     -8.14873800     14.00208902
C       6.33372629      0.74037871      8.19729379
C       5.40748766     -0.73192677      8.04094064
C       7.55806720      1.21265753      7.13846970
C       5.07679777     14.28488066     18.36053489
C       6.33414099     -1.52259591      9.23045802
C      -4.20688453     14.01302854     10.75457530
C       4.08827018     13.76539190     19.51603118
C       6.81455278      6.22011521     -1.65852278
C      11.14440550      1.20536636      4.87934911
C       9.80131969      1.70475670      5.46361281
C       9.99996497     -7.57030196     -7.40976333
C       5.67211843      7.22542236     -2.36764324
C       6.94610924     -3.60869811      5.84728429
H       7.91284281      6.39193301     -1.17663275
H       5.12744758     -8.35568357     -8.18729316
H       1.27932072     -1.43798006      3.96090167
H      -8.61715362     -3.46527414     22.89444396
H      -2.38820375     -7.98358991     15.21867630
H       9.38694500      2.81301168      7.48693741
H       6.86483519      1.14361475      9.24345707
H       6.24739331     13.99547045     18.59077753
H       5.01244665     15.50647814     18.25730446
H      -3.56359665     -0.91160772     -7.10726452
H       6.84981903      5.03183760     -1.43057809
H      -4.35881012     14.63172331      9.70088986
H      -0.45628466     -8.07278467     -0.01662441
H       2.43673100     -0.82270382     -1.41049549
H       8.14155398     -3.28295805      5.90094056
H      10.86606173     -6.72288043     -7.40074480
H      -4.70221499     14.65394620     11.68193225
   94

C       7.15113389     -6.80981590     -7.68321012
C       5.69986544     -7.62753806     -7.25187278
H       7.41447774     -5.98278091     -6.79084594
C       3.64995237     -0.96993659      4.77526728
H     -18.89185999     -7.18329685     -1.80818867
H       4.69294211     -7.02400525     -6.85239711
C       4.56169869     -1.39390129      6.24955752
H       5.73536191     -8.45021441     -6.32414710
H      -7.81523282     -6.27941550    -16.91792814
H      -7.80752163     -7.04880949    -16.78996947
C       9.10254300      1.65518347      7.01101370
H       9.88439278      1.06831139      7.76815311
C       5.63370723     -2.70334091      5.95593779
H       6.88617774      5.12347087     -5.27414105
H       5.88089299     -2.18870209      4.87819622
H      -0.14327263     -7.37313961     12.68688568
C       5.87835811     -4.05412630      6.87816823
H       5.03472494     -4.64954077      7.54517126
C       5.62229200      7.15849104     -4.15548899
H       6.41810616     -4.80429233      7.70024235
H       6.34603525      8.01843481     -4.68165876
H       4.65406923      7.69396572     -4.71293265
C       5.89768617      5.79592306     -5.08273076
H      10.49334511      4.38942486    -14.13512651
C       9.84068150      4.03841648    -13.28124111
H       9.38417703      2.04724055      4.42747930
H       5.19874521      5.15978571     -5.83886520
H      -3.00408555     13.84794160     10.96389429
C       8.54674417     -7.64838348     -8.25337763
H       2.66530179     -0.31472054      5.02461678
H     -19.27118577     -7.16726916     -1.12682601
C      -1.26400008     -8.37246212      0.62488775
H       3.43062634     -1.70097943      6.61631960
C      -1.16836746     -7.12814256     13.27901552
H      -2.07500289     -8.84335915      1.31388387
H      -3.40368435     -8.07766679     13.53437257
H      -1.16509017     -5.92173203     13.19495763
C      -3.94925518      0.01934142     -7.52171157
H       6.11482608      8.24452379     -2.10400891
C       4.11218982      7.11638238     -1.55959177
H      -4.45343848      0.92590953     -8.04908116
H       4.01257290      7.72310338     -0.48166004
H       3.59582134      6.03924329     -1.23498602
H       3.04079684      7.55595122     -1.99332697
H       8.81912888     -7.48130875     -9.45304286
H       8.44159924     -8.84813053     -8.54613840
H      10.44546404     -8.26688892     -6.53545374
H       5.51840398      1.67089852      8.48518375
H       4.23385607     -0.64971358      8.39720817
H      -2.03574256     -9.35619948     13.92869563
H       6.93752143      1.35975708      5.99939352
H      -8.74526114     -4.13751913     22.51988062
H       4.78428295     13.78760266     17.27630823
H       3.36254627     13.38959210     20.35787782
H       5.98768672     -1.95047512     10.13322582
H      17.43837817      4.39965506      0.15020649
H      -4.76113507     12.91559780     10.66978309
H      18.12855175      4.54803080      0.48193601
H       3.54208825     -1.06253595      1.94766015
H       7.13925824     -4.43606076      4.79671384
H       6.90967322     -5.83052135     -8.41556078
H       7.28626145     -1.88130439      9.28282874
C       3.17566264     -0.98371688      3.10211555
C      -2.26250977     -8.14629541     13.99853115
C       6.20629542      0.73606063      8.05707404
C       5.29365371     -0.72282495      7.76292076
C       7.47934414      1.21162219      7.06724773
C       5.07606484     14.28538407     18.35991884
C       6.14974012     -1.53532282      8.99995603
C      -4.20622018     14.01157358     10.75361368
C       4.08903074     13.76496062     19.51628223
C       6.72568416      6.11473513     -1.73084853
C      11.11967744      1.14740463      4.94506477
C       9.76851290      1.65748944      5.49807926
C       9.96758282     -7.54295653     -7.38043743
C       5.60357869      7.15267631     -2.42580663
C       6.91388162     -3.66663211      5.73650332
H       7.82738815      6.27328177     -1.25397055
H       5.08542575     -8.27716225     -8.11137581
H       1.98521200     -1.22353935      2.82219479
H      -8.61696244     -3.46529564     22.89411990
H      -2.38564133     -7.98143119     15.21515116
H       9.33348314      2.74901572      7.54111918
H       6.68338476      1.10314885      9.14471263
H       6.24439817     13.99264497     18.59745192
H       5.01352964     15.50655861     18.25060747
H      -3.44510373     -0.88724676     -6.99434604
H       6.73660402      4.92457069     -1.50536853
H      -4.35808925     14.63018583      9.69987001
H      -0.45299820     -7.90156499     -0.06410938
H       3.49547629     -0.53666396      2.01791454
H       8.10616644     -3.33648151      5.83880375
H      10.84476791     -6.70695684     -7.38378879
H      -4.70157084     14.65256910     11.68090732
