   94

C      -4.53205268     -0.43906908     -0.65326787
C      -2.84057114     -0.48143788     -0.57556631
H      -4.84268028      0.40200361     -1.51773383
C      -5.49916408     -0.19646327      0.73090951
H      -4.90516887     -1.47582730     -1.22777248
H      -2.41994077      0.62171391     -0.22363341
C      -1.78543827     -0.71865798     -1.77214078
H      -2.40927952     -1.35782854      0.18380231
H      -3.55186346     -2.47344322    -10.65328387
H      -3.54415227     -3.24283722    -10.52532521
C      -0.23802057     -0.73509585     -2.20197010
H      -0.51989576      0.41602450     -2.55331722
C       1.43464039     -0.56396880     -2.32183999
H      -0.30287567     -1.94375439     -1.92945157
H       1.75251622     -0.02154820     -3.40644584
H       1.87223965     -1.46446526     -3.07766319
C       2.10429222     -0.09508175     -0.77507753
H       3.04073231      0.66965478     -1.10026537
C       1.32081452      0.36411574      0.77499924
H       3.04212607     -0.91588858     -0.67848884
H       1.41706164      1.55889683      0.46188026
H       1.99331521     -0.51891051      1.31348021
C       0.19071945      0.59306185      2.18434792
H       0.65161168      1.71063125      2.44549804
C       7.96527833     -1.20731748     -6.73129679
H       0.51391539     -0.48488571      2.68334961
H       7.26969789     -0.34962494     -7.22375941
H       7.26684710     -2.17318197     -6.93447881
C       9.45001673     -1.09368941     -6.00046158
H      -5.22879424      0.92651021      1.17599163
H      -5.26412172     -1.08251800      1.57573971
C      -7.15584387     -0.10269671      0.76339797
H      -7.87352158      0.85697716      0.59278652
C      -1.29013608      0.79057901      3.23870884
H      -7.96377335     -0.98270794      0.94299842
H      -1.19618554      2.01518823      3.31607726
H      -1.04513785     -0.19479022      3.93314380
C      -2.94877491      0.86255511      3.96588180
H      -3.13650622      2.05406280      3.70629792
C      -4.55719218      0.93352486      4.71954114
H      -2.97170618     -0.32017924      4.31176363
H      -5.01729695      1.92433241      5.31429538
H      -5.02423966      0.07576375      5.49325549
H      -5.72842674      0.90365226      4.30546438
H       9.68351101     -0.04014226     -5.40344507
H      10.39454077     -1.21794424     -6.78514424
H       9.68210694     -1.91355303     -5.10891245
H       7.37492168      0.25461639      8.65214217
H       4.74659985      0.41769671     10.25606845
H       7.16251332     -0.20033631      5.72567805
H       9.86493821      0.02187300      6.96524532
H       4.66464273      0.04791665      7.36286107
H       9.58359818     -0.45045168      4.02986726
H       2.14031637      1.55701095     11.94578077
H      12.29608944     -0.25564004      5.20093291
H      12.02927010     -0.71582277      2.26483446
H       2.02813378      0.49954495      9.28983100
H      14.74139332     -0.54803289      3.42399155
H      14.61095701     -0.97928740      0.45715067
H      -0.83799204      1.06765965     14.27245014
H      17.41126698     -0.87541955      1.60821673
H      -1.68615546      0.42379362     11.06809568
C       6.88588147      1.03546461      7.80472249
C       7.64834855      0.81079817      6.27977004
C       5.16587816      1.05102397      7.91833082
C       4.38647555      1.28824940      9.43049722
C       9.36227237      0.79555789      6.11991727
C      10.08787776      0.55635351      4.57491608
C      11.79830524      0.52624269      4.36125082
C       2.68749514      1.52565124      9.56681829
C       2.21763761      2.34580108     10.99176487
C      12.53963853      0.28229356      2.81793254
C      14.25416766      0.24612484      2.59212212
C      15.05909886      0.00721295      1.07918123
C      16.77577586     -0.01021064      0.98530584
C      -1.57588319      1.00841945     12.08253946
C      -1.43464930      1.79445796     13.48140191
H      17.35258077     -0.18055048     -0.09562313
H      -2.56249309      2.14816766     13.78989406
H       7.38245153      2.03123793      8.37799156
H       4.99711508      2.20218766     10.01842555
H       7.15991543      1.60863723      5.44852694
H       9.85693291      1.79619262      6.68592422
H       4.69288551      1.84159364      7.07279011
H       9.58020014      1.34701349      3.74883612
H       2.74557910      3.19803830     11.71474100
H      12.29229751      1.53198655      4.91695472
H      12.02896163      1.06155371      1.98448099
H       2.08134297      2.00075785      8.58488208
H      14.74217184      1.25741162      3.13915995
H      14.61324018      0.75688732      0.18467305
H      -0.86258226      2.87400046     13.58984497
H      17.41423977      1.00215374      1.31382226
H       1.33938471      3.19616954     10.81170954
   94

C      -4.54085257     -0.44170871     -0.65910083
C      -2.84942014     -0.48198783     -0.56995782
H      -4.85115848      0.39347768     -1.52935087
C      -5.50978023     -0.19785366      0.72408186
H      -4.91287628     -1.47581435     -1.23918539
H      -2.43002275      0.62298737     -0.22217922
C      -1.78465933     -0.71837951     -1.75688324
H      -2.42035749     -1.36126581      0.18733625
H      -3.81900704     -2.60965591    -10.70216971
H      -3.81104022     -3.37898698    -10.57384825
C      -0.24258316     -0.73675460     -2.20525559
H      -0.53341599      0.40577645     -2.57694614
C       1.43169866     -0.56333352     -2.31108366
H      -0.31441431     -1.94861021     -1.95035024
H       1.75489363     -0.01721344     -3.39196835
H       1.87670103     -1.46459304     -3.06135006
C       2.10151637     -0.09407833     -0.76577877
H       3.03661657      0.67365006     -1.08797216
C       1.31927072      0.36623281      0.78242921
H       3.03710652     -0.91697079     -0.66535910
H       1.40507733      1.56068803      0.46445846
H       1.99527313     -0.51316329      1.32295793
C       0.19365329      0.59308834      2.19299428
H       0.66060927      1.70740794      2.45909641
C       7.56902836     -0.51412277     -7.21834980
H       0.50909873     -0.49112100      2.68390030
H       6.74097217      0.17762182     -7.72836980
H       7.72201937     -2.55104292     -6.73679832
C       9.72453733     -1.25281256     -5.91192607
H      -5.23958304      0.92437535      1.17098121
H      -5.27547938     -1.08217484      1.57065019
C      -7.16650351     -0.10428175      0.75915371
H      -7.88544487      0.85482542      0.59079744
C      -1.28412933      0.79326229      3.24771537
H      -7.97513224     -0.98324238      0.94103177
H      -1.18996932      2.01822449      3.32350603
H      -1.03498968     -0.18530338      3.95100407
C      -2.94423293      0.86313644      3.96743237
H      -3.13449670      2.05221667      3.69793910
C      -4.54854819      0.93615529      4.72703780
H      -2.97008539     -0.32294169      4.30227950
H      -5.00190853      1.92731480      5.32617765
H      -5.01193196      0.07874853      5.50315424
H      -5.71889734      0.90754647      4.31031967
H      10.02632626     -0.22167671     -5.29974157
H      10.66143683     -1.39385952     -6.70655455
H       9.95183008     -2.08389521     -5.02677342
H       7.37136736      0.25657929      8.66136996
H       4.74105578      0.41865591     10.26642281
H       7.16105543     -0.19775581      5.73544951
H       9.86349236      0.02459966      6.97437046
H       4.66066606      0.05047914      7.37368312
H       9.58449088     -0.44760627      4.03940088
H       2.13572057      1.56642069     11.95921338
H      12.29687123     -0.25291973      5.21008707
H      12.03253193     -0.71289977      2.27473056
H       2.02320650      0.50419357      9.30492917
H      14.74459165     -0.54531935      3.43328085
H      14.61566336     -0.97642771      0.46715032
H      -0.84602012      1.06636349     14.27698767
H      17.41594453     -0.87292916      1.61629372
H      -1.69337367      0.42331074     11.07209788
C       6.88240755      1.03761508      7.81413168
C       7.64668618      0.81332435      6.28970716
C       5.16223257      1.05328911      7.92931407
C       4.38219797      1.29031474      9.44151489
C       9.36083787      0.79815104      6.12897158
C      10.08853225      0.55916927      4.58461780
C      11.79917612      0.52899949      4.37045312
C       2.68356327      1.53019582      9.57977398
C       2.21426882      2.35303333     11.00354604
C      12.54269005      0.28521356      2.82793026
C      14.25734623      0.24891410      2.60156124
C      15.06361821      0.01010425      1.08919536
C      16.78025038     -0.00760501      0.99380279
C      -1.58356006      1.00760531     12.08674154
C      -1.44308554      1.79292994     13.48603551
H      17.35683442     -0.17795544     -0.08729849
H      -2.57081247      2.14522639     13.79658676
H       7.37877808      2.03343774      8.38739839
H       4.99399501      2.20283527     10.03025983
H       7.15831346      1.61118177      5.45851852
H       9.85529509      1.79877345      6.69509716
H       4.68898583      1.84366727      7.08381163
H       9.58106138      1.34984692      3.75849489
H       2.74377161      3.20595201     11.72457416
H      12.29306091      1.53474656      4.92614808
H      12.03228080      1.06456818      1.99446791
H       2.07706794      2.00426505      8.59760100
H      14.74543636      1.26013596      3.14854575
H      14.61812211      0.76011425      0.19483327
H      -0.87195386      2.87309869     13.59278150
H      17.41902330      1.00463806      1.32199962
H       1.33582960      3.20331733     10.82375418
   94

C      -4.54908621     -0.44443040     -0.66515270
C      -2.85770338     -0.48266860     -0.56479272
H      -4.85901817      0.38483790     -1.54116210
C      -5.52000155     -0.19931211      0.71695841
H      -4.92000022     -1.47586000     -1.25081182
H      -2.43958642      0.62411323     -0.22106662
C      -1.78255235     -0.71811080     -1.74138901
H      -2.43102306     -1.36478545      0.19057680
H      -4.08650598     -2.74588607    -10.74996906
H      -4.07827521     -3.51516800    -10.62137042
C      -0.24614373     -0.73898350     -2.20865450
H      -0.54582370      0.39442405     -2.60075568
C       1.42968056     -0.56367704     -2.30021161
H      -0.32534106     -1.95371329     -1.97158351
H       1.75865640     -0.01394426     -3.37722225
H       1.88241261     -1.46572150     -3.04461250
C       2.09978013     -0.09353462     -0.75649828
H       3.03355344      0.67707476     -1.07589819
C       1.31835807      0.36803424      0.78967747
H       3.03312073     -0.91849563     -0.65216599
H       1.39383734      1.56203031      0.46683971
H       1.99767697     -0.50773760      1.33240068
C       0.19696233      0.59297890      2.20132409
H       0.66990398      1.70405166      2.47220505
C       7.09125514     -0.11256205     -7.66976670
H       0.50451271     -0.49732798      2.68425154
H       6.35279631      0.69263110     -8.14191467
H       8.14166706     -2.66286935     -6.59518147
C      10.00900387     -1.44663859     -5.83074557
H      -5.24999184      0.92215548      1.16572676
H      -5.28647376     -1.08186091      1.56531346
C      -7.17678670     -0.10593153      0.75464872
H      -7.89700245      0.85261552      0.58864691
C      -1.27779576      0.79590812      3.25640752
H      -7.98613004     -0.98380624      0.93889814
H      -1.18344013      2.02121861      3.33057892
H      -1.02466040     -0.17585118      3.96840269
C      -2.93932896      0.86367078      3.96870630
H      -3.13210261      2.05025514      3.68940269
C      -4.53951034      0.93869642      4.73424713
H      -2.96798787     -0.32561211      4.29259481
H      -4.98610653      1.93017578      5.33774055
H      -4.99917520      0.08162430      5.51275425
H      -5.70897995      0.91132513      4.31491286
H      10.23524699     -0.37606875     -5.25937204
H      10.94262146     -1.53791874     -6.63418726
H      10.28925545     -2.23525005     -4.92304982
H       7.36785842      0.25853504      8.67043114
H       4.73555227      0.41961463     10.27669032
H       7.15958028     -0.19519174      5.74504797
H       9.86204044      0.02733650      6.98317990
H       4.65671404      0.05302917      7.38442629
H       9.58527135     -0.44473579      4.04856500
H       2.13114560      1.57581427     11.97258220
H      12.29751719     -0.25009814      5.21878687
H      12.03558244     -0.70978187      2.28408468
H       2.01831510      0.50883935      9.31996965
H      14.74754533     -0.54234233      3.44219954
H      14.62019708     -0.97315029      0.47678817
H      -0.85401675      1.06506271     14.28147426
H      17.42039811     -0.87012043      1.62427980
H      -1.70056072      0.42283209     11.07604194
C       6.87895984      1.03975369      7.82338130
C       7.64500221      0.81584419      6.29945664
C       5.15861590      1.05554558      7.94020819
C       4.37795314      1.29237498      9.45244837
C       9.35937197      0.80074745      6.13771661
C      10.08904066      0.56203168      4.59394337
C      11.79989195      0.53184907      4.37919603
C       2.67966792      1.53473284      9.59266997
C       2.21092843      2.36024339     11.01526812
C      12.54546321      0.28837205      2.83737844
C      14.26027258      0.25196253      2.61061870
C      15.06790367      0.01347531      1.09879694
C      16.78451351     -0.00469297      1.00216399
C      -1.59120572      1.00678750     12.09089000
C      -1.45149074      1.79139534     13.49061687
H      17.36094676     -0.17504938     -0.07907146
H      -2.57909367      2.14228178     13.80322974
H       7.37513754      2.03562517      8.39664031
H       4.99091025      2.20347435     10.04200508
H       7.15666653      1.61370891      5.46832494
H       9.85362024      1.80135865      6.70396622
H       4.68510099      1.84572783      7.09474717
H       9.58174494      1.35268544      3.76775461
H       2.74199195      3.21383469     11.73434911
H      12.29363270      1.53760264      4.93491490
H      12.03527331      1.06770734      2.00381746
H       2.07282210      2.00776451      8.61026475
H      14.74840958      1.26311533      3.15759623
H      14.62269295      0.76369823      0.20450478
H      -0.88129282      2.87218632     13.59565928
H      17.42360083      1.00741439      1.33008394
H       1.33229968      3.21044294     10.83575117
   94

C      -4.55643006     -0.44723216     -0.67168616
C      -2.86506330     -0.48342320     -0.56058835
H      -4.86601783      0.37608173     -1.55340835
C      -5.52952135     -0.20087305      0.70927819
H      -4.92621787     -1.47597262     -1.26289737
H      -2.44836295      0.62514965     -0.22069491
C      -1.77868223     -0.71757073     -1.72615327
H      -2.44088094     -1.36833009      0.19298597
H      -4.35353362     -2.88177142    -10.79676520
H      -4.34508883     -3.65102072    -10.66798645
C      -0.24831281     -0.74131498     -2.21287069
H      -0.55686964      0.38242339     -2.62531464
C       1.42894987     -0.56413361     -2.29022881
H      -0.33512148     -1.95857763     -1.99379291
H       1.76427659     -0.01085493     -3.36318415
H       1.88964375     -1.46697703     -3.02850114
C       2.09914459     -0.09293970     -0.74793032
H       3.03159479      0.68051734     -1.06459439
C       1.31817825      0.36970483      0.79620996
H       3.03023440     -0.91993744     -0.63960975
H       1.38345372      1.56315331      0.46863861
H       2.00063656     -0.50251128      1.34115737
C       0.20080895      0.59277938      2.20890378
H       0.67964077      1.70060410      2.48445104
C       6.63931439      0.27512257     -8.08088285
H       0.50041177     -0.50344801      2.68394104
H       5.93961203      1.11734209     -8.53215478
H       8.49740552     -2.62565276     -6.51110493
C      10.30628900     -1.62679648     -5.74890813
H      -5.25971728      0.91981097      1.15998235
H      -5.29675479     -1.08161304      1.55945294
C      -7.18639446     -0.10768633      0.74969095
H      -7.90791317      0.85030727      0.58620953
C      -1.27095537      0.79847308      3.26442428
H      -7.99646523     -0.98442917      0.93647103
H      -1.17640900      2.02412233      3.33701604
H      -1.01393316     -0.16651962      3.98491314
C      -2.93384614      0.86412005      3.96947122
H      -3.12911538      2.04814796      3.68049107
C      -4.52986853      0.94110858      4.74095484
H      -2.96518504     -0.32822456      4.28249564
H      -4.96969555      1.93286866      5.34877509
H      -4.98576157      0.08435149      5.52184099
H      -5.69846476      0.91494259      4.31902694
H      10.49646978     -0.54362713     -5.19240283
H      11.24161910     -1.69968221     -6.54966015
H      10.57574651     -2.40920080     -4.83513385
H       7.36437011      0.26045886      8.67931603
H       4.73006987      0.42055835     10.28682312
H       7.15806813     -0.19267614      5.75446422
H       9.86056094      0.03001195      6.99172201
H       4.65276808      0.05555554      7.39503608
H       9.58591882     -0.44195771      4.05741739
H       2.12658559      1.58517082     11.98582701
H      12.29802073     -0.24736555      5.22715658
H      12.03843676     -0.70680555      2.29305519
H       2.01344550      0.51347078      9.33488049
H      14.75030825     -0.53943288      3.45093647
H      14.62468968     -0.97000701      0.48633672
H      -0.86197029      1.06375198     14.28586711
H      17.42477160     -0.86733073      1.63229230
H      -1.70771300      0.42236429     11.07987588
C       6.87552345      1.04185790      7.83245789
C       7.64329104      0.81831594      6.30901545
C       5.15501251      1.05777739      7.95096554
C       4.37372610      1.29441661      9.46324849
C       9.35787023      0.80327819      6.14619421
C      10.08941813      0.56480004      4.60296015
C      11.80046907      0.53460063      4.38759501
C       2.67579348      1.53925002      9.60544142
C       2.20760971      2.36741362     11.02687331
C      12.54802993      0.29138910      2.84645891
C      14.26301454      0.25492923      2.61947583
C      15.07211878      0.01674775      1.10827058
C      16.78871062     -0.00181634      1.01051382
C      -1.59881348      1.00596268     12.09493901
C      -1.45985089      1.78984966     13.49510183
H      17.36506810     -0.17217633     -0.07081595
H      -2.58732062      2.13933384     13.80978181
H       7.37152037      2.03777626      8.40570183
H       4.98784550      2.20409064     10.05361440
H       7.15498843      1.61618962      5.47794420
H       9.85192168      1.80387813      6.71255933
H       4.68122467      1.84776299      7.10554709
H       9.58230144      1.35542466      3.77669733
H       2.74023332      3.22166574     11.74401272
H      12.29406009      1.54036893      4.94333393
H      12.03806580      1.07067769      2.01276712
H       2.06859481      2.01124523      8.62280574
H      14.75117455      1.26603005      3.16643905
H      14.62719750      0.76715942      0.21403091
H      -0.89058178      2.87125712     13.59843762
H      17.42807363      1.01017464      1.33817480
H       1.32879103      3.21753133     10.84764284
   94

C      -4.56264072     -0.45015033     -0.67887397
C      -2.87120320     -0.48428563     -0.55781821
H      -4.87199575      0.36716841     -1.56624197
C      -5.53812919     -0.20258581      0.70086192
H      -4.93130784     -1.47619132     -1.27559994
H      -2.45613841      0.62605724     -0.22140672
C      -1.77264808     -0.71664971     -1.71161838
H      -2.44960926     -1.37191286      0.19410013
H      -4.61999675     -3.01735870    -10.84267972
H      -4.61137327     -3.78658999    -10.71380725
C      -0.24871437     -0.74341382     -2.21860602
H      -0.56637656      0.37010012     -2.65113636
C       1.42989678     -0.56407329     -2.28242268
H      -0.34321366     -1.96285785     -2.01767471
H       1.77200344     -0.00717561     -3.35114113
H       1.89874154     -1.46756198     -3.01454400
C       2.09957945     -0.09209230     -0.74090745
H       3.03073222      0.68421615     -1.05474187
C       1.31880033      0.37124041      0.80141745
H       3.02840844     -0.92111317     -0.62861288
H       1.37405606      1.56409457      0.46940724
H       2.00424789     -0.49752555      1.34850557
C       0.20533895      0.59245167      2.21527323
H       0.68997004      1.69701063      2.49542551
C       6.19570712      0.70853839     -8.46701723
H       0.49703988     -0.50949033      2.68251035
H       5.49705256      1.54593361     -8.91174344
H       8.85947922     -2.63335504     -6.41435985
C      10.59344000     -1.80490058     -5.66624291
H      -5.26854356      0.91728595      1.15358076
H      -5.30607541     -1.08147651      1.55288216
C      -7.19512792     -0.10958805      0.74417837
H      -7.91799597      0.84785497      0.58342747
C      -1.26344272      0.80087430      3.27142105
H      -8.00594317     -0.98514294      0.93368379
H      -1.16868721      2.02684504      3.34255764
H      -1.00260501     -0.15742029      4.00014410
C      -2.92758857      0.86443670      3.96954745
H      -3.12534591      2.04585168      3.67104880
C      -4.51944501      0.94335394      4.74700229
H      -2.96148556     -0.33082249      4.27181458
H      -4.95250658      1.93534988      5.35913328
H      -4.97151784      0.08689745      5.53026230
H      -5.68718172      0.91836157      4.32251574
H      10.76483859     -0.71391427     -5.12086306
H      11.52841533     -1.86517090     -6.46690507
H      10.85426199     -2.58356506     -4.74861061
H       7.36089123      0.26236162      8.68797353
H       4.72459641      0.42148742     10.29677035
H       7.15651509     -0.19018860      5.76364523
H       9.85905518      0.03266037      6.99993665
H       4.64881379      0.05806380      7.40545342
H       9.58644391     -0.43921875      4.06589685
H       2.12203465      1.59448344     11.99890494
H      12.29838830     -0.24464271      5.23508733
H      12.04108458     -0.70384811      2.30149408
H       2.00858583      0.51808786      9.34960760
H      14.75284998     -0.53644740      3.45932234
H      14.62905071     -0.96679731      0.49554798
H      -0.86988099      1.06242654     14.29013838
H      17.42897994     -0.86438850      1.64021813
H      -1.71482977      0.42191291     11.08356237
C       6.87208426      1.04393786      7.84131107
C       7.64154488      0.82076068      6.31833317
C       5.15140644      1.05998867      7.96153184
C       4.36950398      1.29644000      9.47386428
C       9.35632678      0.80577602      6.15434682
C      10.08966347      0.56753431      4.61160515
C      11.80090407      0.53732952      4.39554144
C       2.67192608      1.54374794      9.61803800
C       2.20430603      2.37453822     11.03831922
C      12.55035357      0.29439851      2.85503023
C      14.26553485      0.25794944      2.62795402
C      15.07615272      0.02013335      1.11737480
C      16.79274578      0.00118076      1.01872018
C      -1.60638392      1.00512822     12.09885667
C      -1.46816609      1.78828736     13.49946146
H      17.36911116     -0.16917931     -0.06265879
H      -2.59549297      2.13637634     13.81621686
H       7.36790927      2.03990045      8.41453718
H       4.98478693      2.20468319     10.06504057
H       7.15326345      1.61864076      5.48732600
H       9.85018714      1.80636371      6.72082634
H       4.67733795      1.84977417      7.11615555
H       9.58271452      1.35811406      3.78525920
H       2.73848771      3.22943787     11.75352645
H      12.29432615      1.54311865      4.95131346
H      12.04060427      1.07358032      2.02115302
H       2.06437277      2.01470594      8.63517172
H      14.75367744      1.26901126      3.17492141
H      14.63149264      0.77064222      0.22312151
H      -0.89982106      2.87030561     13.60109066
H      17.43235464      1.01306670      1.34615614
H       1.32529616      3.22457643     10.85938992
   94

C      -4.56795667     -0.45312786     -0.68665752
C      -2.87635681     -0.48513175     -0.55640359
H      -4.87722879      0.35815877     -1.57958873
C      -5.54599137     -0.20441445      0.69181221
H      -4.93548797     -1.47647058     -1.28885420
H      -2.46318024      0.62695977     -0.22307804
C      -1.76490110     -0.71512335     -1.69789803
H      -2.45736992     -1.37542569      0.19393237
H      -4.88592350     -3.15259668    -10.88787540
H      -4.87718864     -3.92182505    -10.75899569
C      -0.24782803     -0.74474104     -2.22592799
H      -0.57499826      0.35799450     -2.67817033
C       1.43200715     -0.56254404     -2.27714730
H      -0.34988314     -1.96603095     -2.04324948
H       1.78094407     -0.00182718     -3.34150837
H       1.90895103     -1.46645261     -3.00331917
C       2.10063150     -0.09059548     -0.73564334
H       3.03053663      0.68856158     -1.04649402
C       1.31999006      0.37285901      0.80525397
H       3.02713194     -0.92170720     -0.61956109
H       1.36538766      1.56510983      0.46919742
H       2.00831725     -0.49261689      1.35426255
C       0.21042552      0.59209791      2.22047960
H       0.70077705      1.69335497      2.50523466
C       5.71887870      1.17344597     -8.84986685
H       0.49432556     -0.51536537      2.67995178
H       5.01948828      2.00238412     -9.29015381
H       9.24632520     -2.70909597     -6.29078909
C      10.88188926     -1.98449960     -5.57818473
H      -5.27664253      0.91461792      1.14662214
H      -5.31457498     -1.08142976      1.54567932
C      -7.20314860     -0.11161206      0.73820615
H      -7.92741167      0.84527514      0.58036016
C      -1.25537060      0.80315244      3.27746767
H      -8.01471052     -0.98594230      0.93058797
H      -1.16039371      2.02942677      3.34731475
H      -0.99077049     -0.14855031      4.01411976
C      -2.92066955      0.86464598      3.96901251
H      -3.12091736      2.04339590      3.66116045
C      -4.50835788      0.94545000      4.75245846
H      -2.95700410     -0.33338700      4.26062038
H      -4.93466045      1.93763454      5.36888703
H      -4.95655987      0.08927439      5.53808154
H      -5.67524972      0.92159975      4.32544967
H      11.03663761     -0.88513071     -5.04577953
H      11.81434948     -2.03082575     -6.38173110
H      11.14358377     -2.75504017     -4.65509268
H       7.35740945      0.26424340      8.69640557
H       4.71912597      0.42240299     10.30653045
H       7.15490685     -0.18772779      5.77258729
H       9.85750932      0.03527914      7.00784401
H       4.64483975      0.06055751      7.41566988
H       9.58684413     -0.43652578      4.07402663
H       2.11749102      1.60375376     12.01181932
H      12.29861637     -0.24193419      5.24263214
H      12.04357263     -0.70092005      2.30948023
H       2.00373174      0.52269297      9.36415166
H      14.75521039     -0.53336351      3.46746967
H      14.63343972     -0.96349926      0.50462010
H      -0.87775020      1.06108779     14.29429383
H      17.43313662     -0.86123526      1.64821157
H      -1.72191243      0.42147788     11.08710859
C       6.86863229      1.04599361      7.84994092
C       7.63975189      0.82317723      6.32740913
C       5.14778764      1.06218066      7.97190210
C       4.36528185      1.29844647      9.48429366
C       9.35473086      0.80823736      6.16219147
C      10.08977389      0.57022819      4.61990031
C      11.80119653      0.54002937      4.40308479
C       2.66806141      1.54822880      9.63046119
C       2.20101563      2.38161880     11.04960912
C      12.55246833      0.29740037      2.86316015
C      14.26787259      0.26104123      2.63616281
C      15.08012637      0.02369528      1.12626139
C      16.79673627      0.00434970      1.02692494
C      -1.61391861      1.00428530     12.10264943
C      -1.47643807      1.78671000     13.50370195
H      17.37322807     -0.16599582     -0.05444229
H      -2.60361229      2.13341083     13.82254157
H       7.36429499      2.04199721      8.42314739
H       4.98172969      2.20525267     10.07628268
H       7.15148357      1.62106094      5.49646671
H       9.84840680      1.80881230      6.72878305
H       4.67343310      1.85176338      7.12656673
H       9.58298586      1.36074510      3.79345702
H       2.73675383      3.23715235     11.76289395
H      12.29442672      1.54584911      4.95889911
H      12.04292410      1.07640515      2.02903330
H       2.06015203      2.01814934      8.64736422
H      14.75594133      1.27208727      3.18314452
H      14.63568994      0.77417532      0.23190654
H      -0.90901219      2.86933328     13.60362420
H      17.43653005      1.01615988      1.35416810
H       1.32181350      3.23158034     10.87099691
   94

C      -4.57277366     -0.45607966     -0.69491171
C      -2.88094763     -0.48582283     -0.55602570
H      -4.88209083      0.34914793     -1.59332131
C      -5.55339510     -0.20629065      0.68231228
H      -4.93912709     -1.47673393     -1.30253599
H      -2.46988387      0.62799659     -0.22543354
C      -1.75622399     -0.71286513     -1.68494566
H      -2.46453617     -1.37875488      0.19273636
H      -5.15125066     -3.28737333    -10.93249461
H      -5.14252758     -4.05661525    -10.80369798
C      -0.24646983     -0.74505299     -2.23456683
H      -0.58353161      0.34638862     -2.70611973
C       1.43442780     -0.55916738     -2.27396129
H      -0.35584437     -1.96786678     -2.07010597
H       1.78981596      0.00559883     -3.33395863
H       1.91919455     -1.46330432     -2.99447049
C       2.10168630     -0.08834480     -0.73180914
H       3.03038340      0.69366429     -1.03950861
C       1.32138721      0.37471669      0.80807612
H       3.02575259     -0.92166252     -0.61219871
H       1.35701732      1.56636303      0.46833262
H       2.01251840     -0.48764664      1.35874006
C       0.21580895      0.59181782      2.22487585
H       0.71181864      1.68973340      2.51423752
C       5.22151408      1.64327103     -9.22327023
H       0.49200610     -0.52099909      2.67657950
H       4.52756359      2.46631571     -9.66301822
H       9.64483509     -2.80983657     -6.15509891
C      11.17274469     -2.16377568     -5.48576982
H      -5.28430656      0.91188006      1.13927881
H      -5.32253657     -1.08142214      1.53800719
C      -7.21073067     -0.11370699      0.73190891
H      -7.93642101      0.84261421      0.57708098
C      -1.24698623      0.80538887      3.28284934
H      -8.02302310     -0.98680116      0.92725671
H      -1.15178770      2.03195384      3.35155406
H      -0.97868296     -0.13984912      4.02711836
C      -2.91334962      0.86479709      3.96804289
H      -3.11608720      2.04083599      3.65099579
C      -4.49685331      0.94743893      4.75748034
H      -2.95200414     -0.33587872      4.24908286
H      -4.91639778      1.93976802      5.37818692
H      -4.94113147      0.09151808      5.54544590
H      -5.66290725      0.92470028      4.32797234
H      11.31223851     -1.05651464     -4.96647991
H      12.10144235     -2.19637547     -6.29353499
H      11.43770148     -2.92520599     -4.55691771
H       7.35394681      0.26609836      8.70462683
H       4.71367216      0.42330784     10.31612884
H       7.15325132     -0.18530456      5.78131272
H       9.85595441      0.03784013      7.01542678
H       4.64085822      0.06303826      7.42571560
H       9.58710104     -0.43392683      4.08179526
H       2.11296040      1.61298678     12.02459878
H      12.29871457     -0.23931586      5.24968337
H      12.04580565     -0.69814212      2.31686903
H       1.99889346      0.52728860      9.37854788
H      14.75731841     -0.53029487      3.47515628
H      14.63768421     -0.96028139      0.51327954
H      -0.88557916      1.05974004     14.29835545
H      17.43711356     -0.85794268      1.65608503
H      -1.72896319      0.42105693     11.09054346
C       6.86518692      1.04801900      7.85836374
C       7.63793517      0.82555059      6.33626099
C       5.14417478      1.06435303      7.98210440
C       4.36107253      1.30043860      9.49456236
C       9.35310518      0.81063240      6.16971505
C      10.08975548      0.57282643      4.62782563
C      11.80134377      0.54261911      4.41012019
C       2.66421231      1.55269434      9.64274304
C       2.19774522      2.38865968     11.06077128
C      12.55429975      0.30025980      2.87071232
C      14.26994352      0.26407797      2.64387373
C      15.08387850      0.02725951      1.13466214
C      16.80053303      0.00759583      1.03492532
C      -1.62141878      1.00343711     12.10634246
C      -1.48466874      1.78512251     13.50784657
H      17.37729514     -0.16271083     -0.04635646
H      -2.61168066      2.13044240     13.82877803
H       7.36070439      2.04405881      8.43154446
H       4.97868854      2.20580143     10.08736428
H       7.14966643      1.62343867      5.50539015
H       9.84662119      1.81119127      6.73640521
H       4.66952631      1.85373200      7.13681164
H       9.58311408      1.36327285      3.80128515
H       2.73503914      3.24481417     11.77214159
H      12.29438234      1.54847694      4.96597127
H      12.04494836      1.07902852      2.03628352
H       2.05594246      2.02157827      8.65941786
H      14.75788970      1.27513720      3.19086730
H      14.63961388      0.77755917      0.24010125
H      -0.91815662      2.86834485     13.60605907
H      17.44043722      1.01937021      1.36201348
H       1.31834906      3.23854694     10.88249257
   94

C      -4.57743075     -0.45893447     -0.70350200
C      -2.88534998     -0.48627855     -0.55631991
H      -4.88686435      0.34021898     -1.60731277
C      -5.56059904     -0.20814847      0.67253609
H      -4.94255157     -1.47691065     -1.31651693
H      -2.47655878      0.62924645     -0.22819459
C      -1.74729644     -0.70991302     -1.67260878
H      -2.47147525     -1.38183316      0.19085262
H      -5.41601032     -3.42162931    -10.97668217
H      -5.40744722     -4.19090073    -10.84805385
C      -0.24530395     -0.74448703     -2.24404588
H      -0.59244734      0.33522850     -2.73450738
C       1.43649149     -0.55434651     -2.27193046
H      -0.36180614     -1.96850582     -2.09759437
H       1.79771512      0.01466185     -3.32762980
H       1.92873042     -1.45858889     -2.98702519
C       2.10238847     -0.08553290     -0.72878935
H       3.02988537      0.69932692     -1.03324804
C       1.32274301      0.37683827      0.81038588
H       3.02392097     -0.92116315     -0.60588985
H       1.34863639      1.56785709      0.46719478
H       2.01661353     -0.48256535      1.36249438
C       0.22125911      0.59166286      2.22887979
H       0.72287242      1.68620844      2.52281764
C       4.71858174      2.10912779     -9.58690186
H       0.48981326     -0.52635788      2.67281393
H       4.03509924      2.92773427    -10.03093373
H      10.04801699     -2.91696477     -6.01408270
C      11.46472478     -2.34144697     -5.38996818
H      -5.29179570      0.90914309      1.13171174
H      -5.33023415     -1.08140004      1.53003143
C      -7.21812059     -0.11582046      0.72540304
H      -7.94525440      0.83992277      0.57364879
C      -1.23852396      0.80765692      3.28788365
H      -8.03111552     -0.98768599      0.92375346
H      -1.14311332      2.03450541      3.35554333
H      -0.96659922     -0.13124357      4.03948415
C      -2.90588427      0.86493707      3.96681790
H      -3.11109825      2.03822495      3.64072240
C      -4.48517087      0.94936656      4.76222738
H      -2.94674720     -0.33825843      4.23738446
H      -4.89795020      1.94180198      5.38718225
H      -4.92547344      0.09367120      5.55250689
H      -5.65038413      0.92771084      4.33022554
H      11.59018362     -1.22700153     -4.88349731
H      12.38888816     -2.36123176     -6.20255189
H      11.73269336     -3.09390647     -4.45545737
H       7.35053564      0.26792480      8.71265986
H       4.70825493      0.42420698     10.32559952
H       7.15157327     -0.18292638      5.78985487
H       9.85443561      0.04032310      7.02267391
H       4.63689364      0.06550848      7.43563338
H       9.58721651     -0.43146254      4.08920192
H       2.10845060      1.62218903     12.03727763
H      12.29871352     -0.23685462      5.25613828
H      12.04770828     -0.69563739      2.32352576
H       1.99408719      0.53187761      9.39284008
H      14.75911914     -0.52736401      3.48213655
H      14.64159754     -0.95735116      0.52119751
H      -0.89336880      1.05838829     14.30234795
H      17.44077886     -0.85459830      1.66360901
H      -1.73598339      0.42064742     11.09389947
C       6.86177775      1.05001139      7.86660329
C       7.63613206      0.82787135      6.34491531
C       5.14059702      1.06650814      7.99217730
C       4.35689491      1.30242082      9.50470445
C       9.35148658      0.81293821      6.17690981
C      10.08963385      0.57528362      4.63536805
C      11.80136283      0.54502382      4.41654588
C       2.66039750      1.55714686      9.65492306
C       2.19450392      2.39566642     11.07183955
C      12.55579344      0.30284344      2.87755302
C      14.27167950      0.26691785      2.65082851
C      15.08723380      0.03060849      1.14226415
C      16.80397488      0.01080065      1.04247373
C      -1.62888485      1.00258732     12.10996397
C      -1.49285959      1.78353054     13.51192128
H      17.38116774     -0.15943578     -0.03864003
H      -2.61969994      2.12747690     13.83495031
H       7.35717295      2.04608188      8.43974758
H       4.97568357      2.20633446     10.09831671
H       7.14784322      1.62576606      5.51412773
H       9.84488316      1.81347585      6.74367339
H       4.66564369      1.85568309      7.14693137
H       9.58311557      1.36565871      3.80874258
H       2.73335304      3.25243017     11.78130073
H      12.29423483      1.55092576      4.97241002
H      12.04661821      1.08132641      2.04278148
H       2.05175977      2.02499578      8.67137476
H      14.75946419      1.27802702      3.19781432
H      14.64307668      0.78054795      0.24737185
H      -0.92725542      2.86734583     13.60841839
H      17.44390103      1.02259248      1.36944503
H       1.31491104      3.24548092     10.89391001
   94

C      -4.58215466     -0.46165057     -0.71230938
C      -2.88982246     -0.48648738     -0.55696316
H      -4.89170900      0.33142489     -1.62145598
C      -5.56778791     -0.20993969      0.66261900
H      -4.94598944     -1.47695373     -1.33068561
H      -2.48339057      0.63071810     -0.23112967
C      -1.73857514     -0.70642859     -1.66068441
H      -2.47846935     -1.38464897      0.18861544
H      -5.68033541     -3.55538182    -11.02058205
H      -5.67206895     -4.32469615    -10.89219322
C      -0.24472100     -0.74339712     -2.25382840
H      -0.60187229      0.32428192     -2.76276728
C       1.43782945     -0.54888262     -2.27002552
H      -0.36827376     -1.96829998     -2.12501424
H       1.80429108      0.02446839     -3.32150679
H       1.93720602     -1.45319957     -2.97983717
C       2.10263215     -0.08248146     -0.72591487
H       3.02890298      0.70521631     -1.02715510
C       1.32393492      0.37916455      0.81267747
H       3.02155986     -0.92049078     -0.59988130
H       1.34008709      1.56949824      0.46613624
H       2.02047191     -0.47738903      1.36612263
C       0.22661444      0.59164239      2.23287031
H       0.73377632      1.68280744      2.53130698
C       4.21784640      2.57081883     -9.94642972
H       0.48753550     -0.53144231      2.66906034
H       3.54742551      3.38538585    -10.39769259
H      10.45401401     -3.02549598     -5.86905738
C      11.75752227     -2.51681343     -5.29081254
H      -5.29929270      0.90645930      1.12404347
H      -5.33787836     -1.08132098      1.52188936
C      -7.22549425     -0.11791065      0.71877102
H      -7.95407283      0.83724359      0.57010170
C      -1.23016157      0.81000718      3.29284839
H      -8.03915941     -0.98856504      0.92012373
H      -1.13455467      2.03713703      3.35950282
H      -0.95472525     -0.12267161      4.05153649
C      -2.89847382      0.86510001      3.96548530
H      -3.10613351      2.03560244      3.63047621
C      -4.47349833      0.95127156      4.76683060
H      -2.94144051     -0.34049717      4.22568434
H      -4.87949775      1.94378185      5.39599310
H      -4.90977802      0.09577264      5.55939054
H      -5.63785881      0.93067260      4.33232269
H      11.86953375     -1.39576281     -4.79702817
H      12.67640657     -2.52481947     -6.10869139
H      12.02738212     -3.26060615     -4.35073716
H       7.34721011      0.26972415      8.72053301
H       4.70289448      0.42510598     10.33497742
H       7.14990924     -0.18059689      5.79825378
H       9.85300391      0.04271637      7.02959091
H       4.63297609      0.06797080      7.44546795
H       9.58721478     -0.42916299      4.09626736
H       2.10396893      1.63136693     12.04988814
H      12.29866362     -0.23460416      5.26193198
H      12.04924651     -0.69352245      2.32937308
H       1.98933046      0.53646245      9.40706996
H      14.76059359     -0.52469637      3.48820358
H      14.64504235     -0.95494737      0.52808468
H      -0.90112005      1.05703711     14.30629357
H      17.44404320     -0.85130330      1.67057018
H      -1.74297363      0.42024702     11.09720558
C       6.85843769      1.05197106      7.87468798
C       7.63438780      0.83013558      6.35340545
C       5.13708685      1.06864966      8.00216110
C       4.35276883      1.30439795      9.51475448
C       9.34992026      0.81514002      6.18378264
C      10.08945429      0.57756722      4.64253422
C      11.80129235      0.54718048      4.42229592
C       2.65663642      1.56158858      9.66703899
C       2.19130054      2.40264438     11.08284568
C      12.55693572      0.30503043      2.88359417
C      14.27305098      0.26941258      2.65680330
C      15.09005837      0.03349650      1.14879394
C      16.80693976      0.01382746      1.04933752
C      -1.63631680      1.00173924     12.11353908
C      -1.50101184      1.78193919     13.51594921
H      17.38473308     -0.15630312     -0.03152027
H      -2.62767177      2.12451956     13.84107948
H       7.35373682      2.04806665      8.44778151
H       4.97273463      2.20685752     10.10917233
H       7.14605496      1.62803904      5.52271514
H       9.84325036      1.81565056      6.75058358
H       4.66181571      1.85762017      7.15696752
H       9.58302818      1.36787385      3.81584393
H       2.73170397      3.26000717     11.79040088
H      12.29404713      1.55313251      4.97812786
H      12.04791594      1.08318598      2.04844982
H       2.04762139      2.02840430      8.68327435
H      14.76064635      1.28061910      3.20373712
H      14.64593763      0.78287064      0.25342428
H      -0.93630950      2.86634115     13.61072279
H      17.44678080      1.02570871      1.37622086
H       1.31150743      3.25238658     10.90527929
   94

C      -4.59409611     -0.46576396     -0.72749055
C      -2.90171695     -0.48606725     -0.55424609
H      -4.90320870      0.31578499     -1.64677620
C      -5.58380183     -0.21279953      0.64575362
H      -4.95535829     -1.47540316     -1.35687579
H      -2.49971197      0.63449365     -0.23348920
C      -1.72601691     -0.69932651     -1.63382592
H      -2.49574508     -1.38969913      0.18795000
H      -5.95424153     -3.69409186    -11.07920866
H      -5.94653034     -4.46348585    -10.95125000
C      -0.24944095     -0.74279623     -2.26877412
H      -0.62413015      0.30202991     -2.81113670
C       1.43435352     -0.54195127     -2.25906991
H      -0.38726818     -1.96839126     -2.17121228
H       1.81003518      0.03888594     -3.30285276
H       1.94591692     -1.44771699     -2.95773735
C       2.09882892     -0.07809144     -0.71507941
H       3.02259403      0.71473050     -1.01102678
C       1.32334799      0.38445302      0.82172577
H       3.01205723     -0.92124038     -0.58248222
H       1.32089444      1.57299657      0.46791907
H       2.02423458     -0.46708570      1.37805210
C       0.23352591      0.59265421      2.24410242
H       0.75066849      1.67779318      2.55024074
C       3.69780863      3.05027801    -10.34491686
H       0.47976720     -0.53973870      2.66577200
H       3.05180188      3.85840561    -10.80429584
H      11.00172860     -3.07898185     -5.64314726
C      12.07661157     -2.69844546     -5.16000344
H      -5.31594679      0.90184591      1.11157008
H      -5.35500140     -1.08093091      1.50809593
C      -7.24172424     -0.12116506      0.70804568
H      -7.97283563      0.83284352      0.56443946
C      -1.21775089      0.81513453      3.30532330
H      -8.05666709     -0.98963124      0.91428868
H      -1.12173174      2.04282974      3.37010743
H      -0.93562292     -0.10586734      4.07703172
C      -2.88732308      0.86601506      3.96685639
H      -3.09967902      2.03095485      3.61466455
C      -4.45478976      0.95504617      4.77808038
H      -2.93426624     -0.34404716      4.20667700
H      -4.84842418      1.94758855      5.41482080
H      -4.88341873      0.09974721      5.57470916
H      -5.61699111      0.93590692      4.33739068
H      12.16732100     -1.56935593     -4.68427354
H      12.97559934     -2.68362468     -5.99705760
H      12.34820212     -3.43233358     -4.21492636
H       7.34379230      0.27143588      8.72913486
H       4.69583079      0.42468674     10.34620892
H       7.14886955     -0.17811808      5.80829092
H       9.85324592      0.04478080      7.03557840
H       4.62815977      0.07063167      7.45777593
H       9.58748231     -0.42735498      4.10310797
H       2.09855998      1.64493921     12.06729995
H      12.30052343     -0.23454008      5.26193276
H      12.04719625     -0.69406046      2.32877324
H       1.98295784      0.54201621      9.42778783
H      14.76029202     -0.52774355      3.48016580
H      14.63799943     -0.95936581      0.51663490
H      -0.91039391      1.05491546     14.31081169
H      17.44002579     -0.85564305      1.65890577
H      -1.75325357      0.41858633     11.10163148
C       6.85478399      1.05392717      7.88378333
C       7.63366291      0.83245784      6.36329386
C       5.13309513      1.07073801      8.01462369
C       4.34760270      1.30588159      9.52732910
C       9.34951384      0.81694851      6.19007386
C      10.09060575      0.57910370      4.64893963
C      11.80228726      0.54725710      4.42294346
C       2.65210135      1.56688363      9.68366537
C       2.18810407      2.41247789     11.09758000
C      12.55624170      0.30380853      2.88294828
C      14.27187499      0.26632985      2.64925543
C      15.08441473      0.02776807      1.13864534
C      16.80170089      0.00928775      1.03852064
C      -1.64639488      0.99995677     12.11795263
C      -1.51062354      1.77966552     13.52057041
H      17.37813855     -0.16117355     -0.04303779
H      -2.63634471      2.12121307     13.85007817
H       7.34999866      2.05016567      8.45647935
H       4.96961827      2.20589991     10.12294933
H       7.14498831      1.63051441      5.53306276
H       9.84346387      1.81725188      6.75648560
H       4.65696833      1.85936950      7.16973998
H       9.58376988      1.36975069      3.82290915
H       2.73188012      3.27056884     11.80167111
H      12.29642519      1.55293122      4.97790014
H      12.04690783      1.08253667      2.04856578
H       2.04200580      2.03194743      8.69985485
H      14.76112794      1.27719759      3.19542445
H      14.64026081      0.77788404      0.24379345
H      -0.94638803      2.86459487     13.61131034
H      17.44304443      1.02056440      1.36473746
H       1.30827878      3.26247953     10.92096873
