   94
energy=      0.00000000
C       7.13875900     -6.83572456     -7.67257819
C       5.66098620     -7.61206650     -7.24923431
H       7.40663108     -6.02893101     -6.76374143
C     -10.35223719     -0.90292630      5.86262389
H     -18.89185999     -7.18329685     -1.80818867
H       4.66892271     -6.96570656     -6.87723420
C       9.87465546     -1.90962228      8.28691485
H       5.65483288     -8.42466593     -6.31217384
H      -7.79459229     -6.25680611    -16.92497689
H      -7.78688110     -7.02620011    -16.79701822
C      10.13382571      2.31254736      6.95448142
H      11.15083169      2.63822027      7.55986436
C       9.64528507     -2.88866069      7.00618160
H       7.26495422      4.03979606     -3.88178218
H      10.80403476     -2.74870397      6.62476520
H      -0.14325058     -7.37313422     12.68691672
C       8.67978606     -4.15855526      7.11991533
H       7.68840506     -4.35463949      7.82473979
C       5.83964449      5.75446153     -2.76522937
H       9.05745907     -5.30836781      7.34705255
H       6.56426232      6.66320589     -3.21656565
H       4.80270609      6.26335765     -3.21349571
C       6.09653690      4.43538337     -3.84938903
H      10.06135663      4.52405364    -13.26815452
C       9.40869299      4.17304527    -12.41426904
H       5.86762328      3.23830024     -3.68393742
H       5.59441392      4.44215161     -5.00024740
H      -3.00407118     13.84794178     10.96390706
C       8.55242461     -7.65813001     -8.22490546
H     -10.74359595      0.21633235      5.71281672
H     -19.27118577     -7.16726916     -1.12682601
C       0.53237992     -6.42567805      1.99063443
H     -11.01390178     -1.78378982      5.39934946
C      -1.16836746     -7.12813897     13.27900916
H      -0.28105909     -6.89558879      2.67742775
H      -3.40368927     -8.07765248     13.53438752
H      -1.16511283     -5.92173117     13.19491134
C      -3.85857337     -0.09853118     -7.36510218
H       6.37240523      6.97771976     -0.77600276
C       4.39492410      5.97734854     -0.07516082
H      -4.40267786      0.78488785     -7.89190956
H       4.31724302      6.76259607      0.88474654
H       3.90985461      4.99064269      0.49210334
H       3.28602558      6.29459840     -0.51820800
H       8.84076306     -7.48779017     -9.42080166
H       8.43160101     -8.86355089     -8.48517797
H      10.59625439     -8.31219004     -6.68351306
H       7.99011279      0.04153388      9.61132449
H      11.40320064     -0.85638831      8.86920188
H      -2.03575257     -9.35619587     13.92867540
H       8.02129455      1.16276735      7.07017684
H      -8.74525986     -4.13751985     22.51987896
H       5.05957906     13.60585690     17.32595385
H       3.22307639     13.62442962     20.35621151
H      10.81660314     -1.29190537     11.86457108
H      17.32066155      4.32686045      0.25060614
H      -4.76112071     12.91559797     10.66979586
H      18.01083541      4.47523631      0.58233550
H       0.12703865      1.58825898    -19.49091687
H       7.66606808     -3.17408448      5.11369568
H       6.90080786     -5.87726035     -8.43331648
H      11.80954075      0.11654533     11.30588055
C      -9.02049327     -1.20442128      6.63797963
C      -2.26250827     -8.14629068     13.99852871
C       9.06765142      0.47228970      9.17352000
C      10.27958146     -0.71853289      9.33614783
C       9.04774939      1.30550568      7.71767703
C       5.07774554     14.22009589     18.38303177
C      10.98206380     -0.65333410     10.85151148
C      -4.20620582     14.01157376     10.75362645
C       4.02266644     13.73106728     19.49789549
C       6.94239891      4.89139049     -0.22784640
C      11.44681867      1.75797541      4.20820476
C      10.78575592      1.86416572      5.56497208
C       9.99381234     -7.53140662     -7.38602067
C       5.83907566      5.87760515     -1.02290780
C       8.70549973     -3.30685444      5.75780426
H       8.02824943      5.08350182      0.27524923
H       5.03998349     -8.27101395     -8.09686094
H      -8.03208998     -1.42818700      7.21343874
H      -8.61696116     -3.46529637     22.89411823
H      -2.38562123     -7.98143390     15.21515168
H       9.67387121      3.42473361      6.71510545
H       8.88068121      1.36189904     10.01558224
H       6.26255016     14.15033863     18.10587993
H       4.92416322     15.39495382     18.68941011
H      -3.39355426     -1.02590263     -6.83808763
H       6.93258977      3.72653944      0.10208608
H      -4.35807489     14.63018600      9.69988278
H       1.34093780     -5.95379719      1.29944214
H       0.06729184      2.36268043    -19.56234290
H       9.11759497     -3.23731393      4.59913605
H      10.79048242     -6.62382063     -7.28371532
H      -4.70155648     14.65256928     11.68092009
   94
energy=      0.00000000
C       7.14132515     -6.82746937     -7.67211851
C       5.66976870     -7.61496441     -7.24969522
H       7.40694927     -6.01577660     -6.76683580
C     -10.35223719     -0.90292630      5.86262389
H     -18.89185999     -7.18329685     -1.80818867
H       4.67166138     -6.98084813     -6.87401617
C       9.95468161     -1.97273913      8.39004474
H       5.67381937     -8.42885859     -6.31365259
H      -7.80593454     -6.26921023    -16.92112743
H      -7.79822335     -7.03860423    -16.79316876
C       9.64535897      2.14847603      6.08658282
H      10.79115716      2.30487782      6.46614137
C       9.72922803     -3.01205797      7.16366907
H       7.05694045      4.07333598     -4.12410249
H      10.90341720     -2.93668333      6.81122168
H      -0.14325298     -7.37313449     12.68691269
C       8.74250375     -4.26559077      7.28234263
H       7.76441577     -4.45936574      8.00563599
C       5.73380551      6.02040460     -2.95411390
H       9.09840508     -5.42637520      7.48716424
H       6.45771463      6.89485591     -3.45175502
H       4.67630330      6.43688106     -3.44245629
C       6.08751385      4.79290679     -4.03525771
H      10.11733859      4.52105979    -13.33313342
C       9.46467496      4.17005141    -12.47924795
H       8.99294478      2.24320972      3.33704072
H       5.54174780      4.42668169     -5.05831530
H      -3.00408543     13.84794161     10.96389439
C       8.54792762     -7.65824755     -8.22881132
H     -10.74359595      0.21633235      5.71281672
H     -19.27118577     -7.16726916     -1.12682601
C       0.52599529     -6.42866969      1.98652116
H     -11.01390178     -1.78378982      5.39934946
C      -1.16836747     -7.12813897     13.27900915
H      -0.28583686     -6.89923232      2.67476856
H      -3.40368859     -8.07765387     13.53438564
H      -1.16511054     -5.92173090     13.19491519
C      -3.87595701     -0.10819230     -7.36505664
H       6.27715124      7.16918721     -0.97643500
C       4.27689769      6.13015603     -0.29494116
H      -4.39435324      0.79037733     -7.89231580
H       4.20353081      6.89629141      0.67912942
H       3.79334800      5.11946210      0.23163992
H       3.17320154      6.45378256     -0.74730653
H       8.82937245     -7.49641360     -9.42743234
H       8.42955287     -8.86345561     -8.49139871
H      10.56863748     -8.30751328     -6.65835003
H       8.14849704      0.11695459      9.45882865
H      11.48655968     -0.73676973      8.87655071
H      -2.03575112     -9.35619574     13.92867783
H       7.90543754      1.02607611      7.00137285
H      -8.74525987     -4.13751985     22.51987897
H       4.88943974     13.63721275     17.32690582
H       3.25926846     13.52698478     20.33246714
H      10.78218324     -1.44147368     11.87141955
H      17.43837796      4.39965497      0.15020661
H      -4.76113496     12.91559780     10.66978319
H      18.12855173      4.54803079      0.48193603
H       0.11273072      1.59437111    -19.51251844
H       7.70729345     -3.14768642      5.33805776
H       6.90653660     -5.86021990     -8.42267078
H      11.78862246     -0.05711209     11.44270344
C      -9.02049327     -1.20442128      6.63797963
C      -2.26250827     -8.14629068     13.99852871
C       9.19494084      0.51209783      8.92591805
C      10.34865785     -0.69259399      9.32436375
C       9.03910215      1.21512072      7.37039787
C       5.08873904     14.24862159     18.37154065
C      10.96070796     -0.75612253     10.88804880
C      -4.20622006     14.01157358     10.75361378
C       4.05973914     13.74082761     19.49890826
C       6.84298315      5.06530565     -0.47169851
C      10.88080856      1.74952469      3.67845200
C       9.55921156      2.08792721      4.40650597
C       9.98552754     -7.53344649     -7.38418573
C       5.73349446      6.07525744     -1.22177440
C       8.75573889     -3.39279585      5.93273971
H       7.93402571      5.26250767      0.01873931
H       5.05318183     -8.27203875     -8.10196885
H      -8.03208998     -1.42818700      7.21343874
H      -8.61696117     -3.46529636     22.89411824
H      -2.38562326     -7.98143263     15.21515130
H       9.53270963      3.34565552      6.32623789
H       9.03314497      1.37879967      9.79490123
H       6.30343405     14.11457045     18.29678992
H       4.96923162     15.45852585     18.53183421
H      -3.38449524     -1.02173099     -6.83772693
H       6.81615862      3.88950715     -0.18588836
H      -4.35808914     14.63018583      9.69987011
H       1.33616677     -5.95743679      1.29677713
H       0.05298390      2.36879256    -19.58394447
H       9.15057037     -3.38480025      4.76573249
H      10.79200079     -6.63300493     -7.29813748
H      -4.70157073     14.65256910     11.68090742
