   94

C       6.11623863     -7.27675812    -14.01009863
C      -3.56858173    -13.19936374    -10.05527369
H       6.79622653     -6.54962319    -13.34165467
C      -1.07586144     -0.86419611      8.29386435
H      -5.83398111      8.54469481     -3.01023782
H       3.05845557     -3.24578639      9.07023995
C       0.20370607     -1.18000057      9.31269028
H       5.78162941     -8.34585551    -13.58232122
H      -9.00629938     -6.97077983    -19.18209263
H      -8.99858819     -7.74017383    -19.05413396
C       6.79638864      0.09125250     -2.53717336
H      17.20219850      4.49918250     15.05404277
C       8.63972655    -10.47364140      5.10331450
H       8.08916480     10.90965459     -2.79981877
H       8.91764410     -9.72458736      4.25241995
H       2.50425844    -10.90118632     17.33758517
C       7.25688303    -10.93831072      7.58219403
H       6.14205034    -10.55478346      7.22224717
C       7.33530992     11.14278002     -0.58957032
H       6.92194637    -11.74446357      8.45010734
H      16.64855012     13.65407322      6.37431069
H       6.76737684     11.74806627      0.23991177
C       8.11140475     10.31391522     -1.72663185
H      14.44711266     -4.37780461     -6.56034811
C      14.40488092     -5.57311890     -6.69251676
H      13.21199046     -5.37639078     -6.63961730
H       7.59844255      9.21170391     -1.89730825
H      -3.07358194     10.19064936     10.33173393
C      15.69715363     -6.58048185     -6.91537765
H      -2.18538401     -0.59378502      8.71980829
H      -5.90240332      8.58208666     -1.07722355
C       5.72980147     -2.83251797     -2.11328374
H      -0.13039287     -2.26684272      9.79343042
C       1.47819573    -10.71751696     17.93036419
H       5.58643131     -2.95807774     -0.90167252
H     -10.96213609    -12.27297242     15.66815272
H       1.07348491     -9.60107587     18.09678088
C      -5.24717734     -1.11765127     -5.88913936
H      -2.90747795      8.82227735     -1.77260072
C      -3.44044701     11.24492791     -2.20123570
H      -6.39130319     -0.97144750     -5.80251391
H      -3.63687298     11.92010410     -1.18751917
H      -2.29207245     11.54031972     -2.53691277
H      -4.05138000     11.83508548     -3.09432394
H      16.42912219     -5.83720324     -7.50119855
H      17.47417563     -8.45463877     -7.59338091
H      17.68342493     -8.08516926     -6.15118270
H       2.78206019      0.58486385      7.04544137
H       0.13264596     -0.40433940     10.27100524
H       0.85684386    -11.65028868     18.35672652
H       6.86550718      0.67022696     -3.57492290
H      -9.42675544     -2.95204824     23.99740376
H       4.34725348     15.16486320     22.65560149
H      16.31936122     13.00158610      6.64688218
H       3.25941377     -1.98119541     10.72768483
H      27.34947999      7.72515486     -1.91711422
H      -4.93089105      9.31681407     10.64570919
H      28.03965355      7.87353058     -1.58538466
H      -1.31420418     -1.81288781      5.95616109
H       8.69090285    -12.48058848      6.09475333
H       5.77085995     -6.93479564    -15.10632002
H       4.31212120     -1.94573504      9.31408167
C      -1.20099169     -0.85385811      6.67481032
C     -10.36016020    -12.21606716     16.66242232
C       2.33623384     -0.14348988      7.84420064
C       1.83018818     -1.19204957      8.92666093
C       7.51245911      0.64709570     -1.26159484
C       6.66392978     18.45793159     11.45805926
C       3.10681590     -2.09427134      9.50925586
C      -4.04241431      9.62877642      9.90328527
C       7.61213867     17.63174347     10.62864389
C      -5.22798374      8.88543705     -2.02725322
C      -4.00204172     -1.78778817     -6.47272944
C       6.09060398     -1.30326056     -2.41919415
C      16.65800437     -7.96286778     -6.81919344
C      -3.78611546      9.63373208     -1.99284246
C       8.19958520    -11.39845523      6.30670134
H       9.28723473     10.13595643     -1.42186046
H      -3.34055824    -13.96610294    -10.85623579
H      16.08146568     -9.03584514     -6.69286406
H      -9.29845674     -2.27982476     24.37164303
H      -9.75818431    -12.15916191     17.65669192
H      17.02636410      5.25263561     14.95509535
H       8.06876856      0.95260692     -0.28568605
H       5.04347153     15.37147220     22.94019443
H       5.93741921     19.09110341     12.09382905
H      -3.27443336     -2.43010276     -7.10229010
H      -4.12272602      9.37902553      8.73318169
H      -7.60795419     21.24264930      9.77839801
H       4.69759587     -3.29411439     -2.58469665
H      -1.19858797      0.12077184      5.96688797
H       7.81494489    -10.09057218      8.28205779
H       6.63712414     -3.50036363     -2.59749302
H      -7.74116572     21.25126849     10.54689030
   94

C       6.11631348     -7.27682614    -14.01016148
C      -3.56843352    -13.20078292    -10.05573462
H       6.79630849     -6.54969494    -13.34172058
C      -1.07787387     -0.86393671      8.29839704
H      -5.93267139      8.40389166     -2.94997297
H       3.05617960     -3.24732432      9.07695226
C       0.20148874     -1.17958235      9.31756761
H       5.78170160     -8.34592202    -13.58238220
H      -9.00632524     -6.97083038    -19.18217084
H      -8.99861226     -7.74022340    -19.05420642
C       6.79403017      0.08995143     -2.54131174
H      17.20235393      4.49714524     15.05607427
C       8.63980335    -10.47374977      5.10323746
H       8.11241249     10.90712450     -2.79669911
H       8.91836942     -9.72551207      4.25185020
H       2.50426266    -10.90120829     17.33760265
C       7.25675227    -10.93816527      7.58235089
H       6.14194174    -10.55346271      7.22360086
C       7.35896910     11.14028753     -0.58614817
H       6.92333689    -11.74643918      8.44890505
H      16.66070974     13.66013520      6.38368345
H       6.79193061     11.74560511      0.24392732
C       8.13454199     10.31136493     -1.72352298
H      14.45694882     -4.38397696     -6.55652756
C      14.42136772     -5.57888491     -6.69458911
H      13.22536014     -5.40624395     -6.64415205
H       7.62147805      9.20920600     -1.89421921
H      -3.06689565     10.19797195     10.40375881
C      15.71525579     -6.57911450     -6.92585393
H      -2.18727406     -0.59284274      8.72420215
H      -5.99810396      8.42203981     -1.01564243
C       5.72706880     -2.83431742     -2.11775335
H      -0.13296730     -2.26609871      9.79874907
C       1.47820000    -10.71753979     17.93038195
H       5.58367402     -2.96180628     -0.90634870
H     -10.96214076    -12.27298383     15.66816012
H       1.07349021     -9.60109918     18.09680414
C      -5.24802054     -1.20256225     -5.93406108
H      -2.99610810      8.68851778     -1.71975091
C      -3.57222842     11.10349846     -1.97754458
H      -6.39019674     -1.04694456     -5.83839843
H      -3.78678015     11.72596494     -0.94225553
H      -2.06812521     12.24924493     -2.99942921
H      -3.71371113     12.54244359     -3.55606396
H      16.44145026     -5.83283264     -7.51628029
H      17.47219033     -8.45592134     -7.60748863
H      17.67976972     -8.08254062     -6.13944377
H       2.77838036      0.58645852      7.05152527
H       0.13075833     -0.40344724     10.27552852
H       0.85684628    -11.65031185     18.35674078
H       6.85993554      0.66938285     -3.57900792
H      -9.42676395     -2.95206386     23.99742905
H       4.34728382     15.16488144     22.65566915
H      16.33152521     13.00764661      6.65625674
H       3.25746003     -1.98500437     10.73268706
H      27.34950733      7.72514910     -1.91711355
H      -4.92432197      9.32416781     10.71776811
H      28.03968007      7.87352608     -1.58538289
H      -1.31620828     -1.81399137      5.96120008
H       8.69075541    -12.48028651      6.09470419
H       5.77092846     -6.93486026    -15.10637987
H       4.30900147     -1.94351468      9.31628445
C      -1.20327330     -0.85454839      6.67933876
C     -10.36016488    -12.21607865     16.66242974
C       2.33357249     -0.14300085      7.84984625
C       1.82800658     -1.19229904      8.93182132
C       7.51008506      0.64690910     -1.26624772
C       6.66408891     18.45803083     11.45824905
C       3.10445844     -2.09506929      9.51402215
C      -4.03575895      9.63607059      9.97542817
C       7.61231080     17.63184157     10.62884851
C      -5.32808089      8.73884965     -1.96452646
C      -4.00048535     -1.86979078     -6.51582703
C       6.09052075     -1.30558541     -2.42281916
C      16.66332530     -7.96748561     -6.82280144
C      -3.88550885      9.48518076     -1.94322459
C       8.19942133    -11.39818645      6.30679001
H       9.31036609     10.13325826     -1.41881184
H      -3.34040397    -13.96750177    -10.85671405
H      16.07527503     -9.03419367     -6.69100358
H      -9.29846546     -2.27984099     24.37166950
H      -9.75818892    -12.15917334     17.65669931
H      17.02652157      5.25059914     14.95712927
H       8.06567854      0.95417451     -0.29049295
H       5.04350476     15.37148960     22.94025562
H       5.93756004     19.09120102     12.09399988
H      -3.26731989     -2.50960216     -7.14150115
H      -4.11605095      9.38610448      8.80537578
H      -7.60809527     21.24298644      9.77876642
H       4.69341894     -3.29008047     -2.59173439
H      -1.20152346      0.11959816      5.97073866
H       7.81336924    -10.08960942      8.28236898
H       6.63343178     -3.50481538     -2.60009447
H      -7.74129489     21.25155243     10.54726125
   94

C       6.11638112     -7.27687492    -14.01021410
C      -3.56828390    -13.20221279    -10.05619934
H       6.79637997     -6.54974603    -13.34177445
C      -1.07989974     -0.86363556      8.30294527
H      -6.03874348      8.24487500     -2.87709118
H       3.05389181     -3.24882559      9.08365265
C       0.19926411     -1.17912287      9.32245031
H       5.78176995     -8.34597146    -13.58243565
H      -9.00634755     -6.97087003    -19.18224230
H      -8.99863350     -7.74026243    -19.05427420
C       6.79157580      0.08872142     -2.54546540
H      17.20250008      4.49510960     15.05810044
C       8.63987818    -10.47385382      5.10316043
H       8.13503933     10.90435262     -2.79353878
H       8.91909190     -9.72643324      4.25128101
H       2.50426641    -10.90122701     17.33761913
C       7.25662035    -10.93801638      7.58250815
H       6.14183257    -10.55214274      7.22495602
C       7.38190747     11.13744483     -0.58269021
H       6.92472666    -11.74840404      8.44770029
H      16.67285158     13.66618862      6.39305307
H       6.81564055     11.74260641      0.24802784
C       8.15703174     10.30854948     -1.72038657
H      14.46683254     -4.39029817     -6.55272787
C      14.43780402     -5.58472766     -6.69676242
H      13.23915868     -5.43622466     -6.64866769
H       7.64380171      9.20648079     -1.89115284
H      -3.06018836     10.20543423     10.47473219
C      15.73335292     -6.57782750     -6.93622775
H      -2.18917449     -0.59184889      8.72861100
H      -6.10411715      8.26699836     -0.93930779
C       5.72430527     -2.83607122     -2.12224355
H      -0.13554940     -2.26531226      9.80407441
C       1.47820380    -10.71755935     17.93039874
H       5.58088337     -2.96549532     -0.91104900
H     -10.96214562    -12.27299522     15.66816927
H       1.07349488     -9.60111919     18.09682591
C      -5.24894630     -1.28768695     -5.97912605
H      -3.09156929      8.53127659     -1.65138186
C      -3.68086839     10.92934243     -1.91932881
H      -6.38899063     -1.12252888     -5.87428871
H      -3.88296414     11.56965169     -0.89891336
H      -1.86058721     12.99280751     -3.32368128
H      -3.39557982     13.28474087     -3.85863968
H      16.45366373     -5.82851414     -7.53125857
H      17.47005793     -8.45710350     -7.62160270
H      17.67590583     -8.07964989     -6.12776594
H       2.77467235      0.58810658      7.05760879
H       0.12886593     -0.40250837     10.28005217
H       0.85684852    -11.65033179     18.35675440
H       6.85422552      0.66862848     -3.58309047
H      -9.42677087     -2.95207471     23.99744886
H       4.34730551     15.16489479     22.65571503
H      16.34366841     13.01369929      6.66562628
H       3.25549855     -1.98877361     10.73767060
H      27.34952947      7.72514304     -1.91711280
H      -4.91765582      9.33163253     10.78876010
H      28.03970156      7.87352118     -1.58538130
H      -1.31821601     -1.81507492      5.96626244
H       8.69060705    -12.47998074      6.09465465
H       5.77098919     -6.93490478    -15.10642906
H       4.30585639     -1.94127068      9.31848403
C      -1.20556592     -0.85521470      6.68388514
C     -10.36016946    -12.21608965     16.66243871
C       2.33089944     -0.14246795      7.85548909
C       1.82581446     -1.19250834      8.93697566
C       7.50761756      0.64679798     -1.27091921
C       6.66419908     18.45808190     11.45840713
C       3.10208692     -2.09583479      9.51877852
C      -4.02908069      9.64355253     10.04644243
C       7.61243168     17.63188911     10.62902162
C      -5.43445961      8.57594649     -1.89070384
C      -3.99887715     -1.95183930     -6.55895132
C       6.09039747     -1.30786485     -2.42646306
C      16.66868153     -7.97211699     -6.82636376
C      -3.99005599      9.31548761     -1.87280289
C       8.19925641    -11.39791399      6.30687854
H       9.33284978     10.13030688     -1.41572988
H      -3.34024783    -13.96890954    -10.85719760
H      16.06899342     -9.03232526     -6.68920158
H      -9.29847248     -2.27985219     24.37168999
H      -9.75819320    -12.15918390     17.65670807
H      17.02666899      5.24856404     14.95915731
H       8.06249952      0.95581275     -0.29532304
H       5.04352850     15.37150209     22.94029707
H       5.93765486     19.09125322     12.09413951
H      -3.26014381     -2.58909712     -7.18069475
H      -4.10938873      9.39362328      8.87638563
H      -7.60819940     21.24314662      9.77901767
H       4.68924751     -3.28600798     -2.59877685
H      -1.20446699      0.11844940      5.97461112
H       7.81179232    -10.08864655      8.28268093
H       6.62969955     -3.50921331     -2.60272230
H      -7.74138823     21.25168750     10.54751455
   94

C       6.11644317     -7.27691089    -14.01025740
C      -3.56813397    -13.20364625    -10.05666396
H       6.79644352     -6.54978335    -13.34181766
C      -1.08193709     -0.86329444      8.30746898
H      -6.14247155      8.08735323     -2.80087355
H       3.05159195     -3.25029574      9.09033043
C       0.19702628     -1.17862999      9.32730913
H       5.78183467     -8.34600931    -13.58248132
H      -9.00636786     -6.97090254    -19.18230720
H      -8.99865317     -7.74029455    -19.05433678
C       6.78903536      0.08755894     -2.54962563
H      17.20263937      4.49307653     15.06012038
C       8.63994880    -10.47395128      5.10308125
H       8.15676460     10.90157247     -2.79044267
H       8.91980852     -9.72734776      4.25071064
H       2.50426948    -10.90124316     17.33763348
C       7.25648511    -10.93786180      7.58266340
H       6.14172083    -10.55082089      7.22631014
C       7.40371471     11.13455242     -0.57939834
H       6.92611341    -11.75035595      8.44649060
H      16.68496026     13.67223328      6.40240547
H       6.83786413     11.73945521      0.25179257
C       8.17860995     10.30573980     -1.71730613
H      14.47677151     -4.39676905     -6.54894399
C      14.45417738     -5.59064720     -6.69904735
H      13.25337630     -5.46630573     -6.65316388
H       7.66523984      9.20375427     -1.88817885
H      -3.05347914     10.21291026     10.54534123
C      15.75143774     -6.57662698     -6.94648290
H      -2.19108472     -0.59081073      8.73299594
H      -6.20948341      8.11917500     -0.85924699
C       5.72149909     -2.83777242     -2.12674731
H      -0.13814480     -2.26449215      9.80937540
C       1.47820697    -10.71757637     17.93041349
H       5.57804502     -2.96913379     -0.91576634
H     -10.96215013    -12.27300542     15.66817778
H       1.07349879     -9.60113665     18.09684523
C      -5.24992641     -1.37276528     -6.02420371
H      -3.18631448      8.37743597     -1.57634960
C      -3.78284729     10.75152519     -1.88175085
H      -6.38764277     -1.19790347     -5.91004014
H      -3.95830323     11.45745106     -0.90972723
H      -1.65757441     13.71516703     -3.63717442
H      -3.09572272     13.98285583     -4.12528238
H      16.46575163     -5.82425700     -7.54612482
H      17.46777561     -8.45817780     -7.63572573
H      17.67183676     -8.07649946     -6.11615184
H       2.77093377      0.58979441      7.06366999
H       0.12696170     -0.40153670     10.28455215
H       0.85685041    -11.65034924     18.35676631
H       6.84840460      0.66794942     -3.58716640
H      -9.42677715     -2.95208386     23.99746583
H       4.34732407     15.16490619     22.65575060
H      16.35577591     13.01974372      6.67497672
H       3.25352577     -1.99251010     10.74262502
H      27.34954525      7.72513747     -1.91711186
H      -4.91095841      9.33910606     10.85938715
H      28.03971689      7.87351655     -1.58537985
H      -1.32023739     -1.81610742      5.97130171
H       8.69045610    -12.47966897      6.09460272
H       5.77104452     -6.93493640    -15.10646897
H       4.30268482     -1.93900860      9.32067211
C      -1.20787336     -0.85582922      6.68840724
C     -10.36017369    -12.21609942     16.66244703
C       2.32821145     -0.14190165      7.86110959
C       1.82360957     -1.19268616      8.94210680
C       7.50506588      0.64675884     -1.27560079
C       6.66427454     18.45809979     11.45852660
C       3.09969949     -2.09657306      9.52351405
C      -4.02239581      9.65105715     10.11706570
C       7.61251141     17.63190091     10.62915141
C      -5.54169150      8.42082755     -1.81379943
C      -3.99724610     -2.03376500     -6.60199782
C       6.09022694     -1.31009307     -2.43011730
C      16.67407720     -7.97676690     -6.82987488
C      -4.09495679      9.14929064     -1.78846735
C       8.19908844    -11.39763574      6.30696470
H       9.35441528     10.12742325     -1.41264366
H      -3.34009113    -13.97031979    -10.85768202
H      16.06262918     -9.03024268     -6.68745772
H      -9.29847885     -2.27986165     24.37170753
H      -9.75819712    -12.15919322     17.65671618
H      17.02680903      5.24653132     14.96117858
H       8.05924166      0.95752232     -0.30016972
H       5.04354880     15.37151260     22.94032900
H       5.93772016     19.09127454     12.09424410
H      -3.25296329     -2.66845205     -7.21976778
H      -4.10272812      9.40122730      8.94698960
H      -7.60827966     21.24321273      9.77919254
H       4.68506720     -3.28188455     -2.60581700
H      -1.20743213      0.11735299      5.97846130
H       7.81021228    -10.08768159      8.28299135
H       6.62591411     -3.51355349     -2.60536824
H      -7.74145901     21.25174573     10.54769106
   94

C       6.11649986     -7.27693267    -14.01029145
C      -3.56798310    -13.20508511    -10.05712989
H       6.79649928     -6.54980545    -13.34185025
C      -1.08397213     -0.86296279      8.31200267
H      -6.24542708      7.93185735     -2.72593436
H       3.04930076     -3.25175750      9.09700234
C       0.19479395     -1.17813879      9.33217607
H       5.78189613     -8.34603430    -13.58251935
H      -9.00638592     -6.97092737    -19.18236617
H      -8.99867102     -7.74031924    -19.05439484
C       6.78641921      0.08646624     -2.55379681
H      17.20277244      4.49104671     15.06213358
C       8.64001747    -10.47404416      5.10299987
H       8.17742766     10.89896915     -2.78750222
H       8.92052166     -9.72825776      4.25013900
H       2.50427300    -10.90125992     17.33764824
C       7.25634926    -10.93770470      7.58281696
H       6.14160912    -10.54950057      7.22766357
C       7.42419402     11.13186905     -0.57641383
H       6.92749998    -11.75229820      8.44527627
H      16.69702788     13.67827135      6.41173552
H       6.85831673     11.73651581      0.25494520
C       8.19913106     10.30314864     -1.71435724
H      14.48677472     -4.40338993     -6.54517205
C      14.47047932     -5.59664307     -6.70145574
H      13.26800526     -5.49646166     -6.65764393
H       7.68568175      9.20121875     -1.88534867
H      -3.04675924     10.22038419     10.61591233
C      15.76950655     -6.57551803     -6.95660905
H      -2.19299204     -0.58978388      8.73739205
H      -6.31472518      7.96832656     -0.78099999
C       5.71865975     -2.83941915     -2.13126923
H      -0.14072985     -2.26367358      9.81468740
C       1.47821067    -10.71759410     17.93042881
H       5.57516916     -2.97272106     -0.92050534
H     -10.96215525    -12.27301814     15.66818816
H       1.07350324     -9.60115483     18.09686529
C      -5.25096445     -1.45785715     -6.06933765
H      -3.28157434      8.22622244     -1.50298308
C      -3.88915879     10.57723642     -1.81741501
H      -6.38615296     -1.27314918     -5.94571144
H      -4.03669812     11.34522812     -0.89888732
H      -1.44610144     14.43595554     -3.97249651
H      -2.78946078     14.67189541     -4.41207615
H      16.47770715     -5.82006946     -7.56087524
H      17.46534340     -8.45913857     -7.64986144
H      17.66756809     -8.07309223     -6.10460638
H       2.76718740      0.59148837      7.06972961
H       0.12506284     -0.40056497     10.28905827
H       0.85685288    -11.65036743     18.35677878
H       6.84248232      0.66734981     -3.59123889
H      -9.42678365     -2.95209367     23.99748437
H       4.34734105     15.16491743     22.65577743
H      16.36783957     13.02578204      6.68430259
H       3.25156362     -1.99623574     10.74756866
H      27.34955328      7.72513273     -1.91711064
H      -4.90424463      9.34656935     10.93000006
H      28.03972473      7.87351247     -1.58537852
H      -1.32225343     -1.81715979      5.97635432
H       8.69030478    -12.47935353      6.09454797
H       5.77109458     -6.93495380    -15.10649966
H       4.29950584     -1.93674882      9.32286444
C      -1.21018010     -0.85646153      6.69293993
C     -10.36017841    -12.21611145     16.66245712
C       2.32552276     -0.14132953      7.86672921
C       1.82140824     -1.19285857      8.94723846
C       7.50244019      0.64679642     -1.28029779
C       6.66430571     18.45808629     11.45858367
C       3.09731612     -2.09730769      9.52824753
C      -4.01569943      9.65854632     10.18766684
C       7.61253812     17.63187906     10.62921126
C      -5.64844765      8.26616230     -1.73742286
C      -3.99558176     -2.11560843     -6.64499931
C       6.09002009     -1.31226811     -2.43378566
C      16.67951929     -7.98144001     -6.83333265
C      -4.20035640      8.98616710     -1.70346155
C       8.19891989    -11.39735398      6.30704832
H       9.37491502     10.12483468     -1.40961213
H      -3.33993321    -13.97173415    -10.85816888
H      16.05619280     -9.02794801     -6.68577385
H      -9.29848542     -2.27987170     24.37172652
H      -9.75820140    -12.15920454     17.65672597
H      17.02694228      5.24450162     14.96319244
H       8.05591475      0.95931113     -0.30503916
H       5.04356737     15.37152282     22.94035265
H       5.93774821     19.09126647     12.09429233
H      -3.24576286     -2.74770100     -7.25875273
H      -4.09605951      9.40879219      9.01757672
H      -7.60831908     21.24319014      9.77925669
H       4.68088727     -3.27770909     -2.61285903
H      -1.21039331      0.11623573      5.98231924
H       7.80863189    -10.08671777      8.28330057
H       6.62208438     -3.51783502     -2.60803681
H      -7.74149331     21.25173471     10.54775591
   94

C       6.11655217     -7.27694098    -14.01031760
C      -3.56783107    -13.20653172    -10.05759803
H       6.79654846     -6.54981313    -13.34187371
C      -1.08600285     -0.86264744      8.31655471
H      -6.34962794      7.77557381     -2.65224013
H       3.04702057     -3.25321493      9.10367223
C       0.19257020     -1.17765428      9.33705792
H       5.78195527     -8.34604710    -13.58255109
H      -9.00640179     -6.97094514    -19.18242060
H      -8.99868715     -7.74033709    -19.05444966
C       6.78374905      0.08542860     -2.55797959
H      17.20289981      4.48902041     15.06414028
C       8.64008517    -10.47413367      5.10291680
H       8.19709380     10.89670453     -2.78480732
H       8.92123264     -9.72916466      4.24956651
H       2.50427720    -10.90127775     17.33766393
C       7.25621363    -10.93754619      7.58296939
H       6.14149827    -10.54818297      7.22901682
C       7.44351014     11.12960572     -0.57382050
H       6.92888713    -11.75423188      8.44405791
H      16.70905411     13.68430631      6.42104167
H       6.87725055     11.73410379      0.25738559
C       8.21870974     10.30094408     -1.71162717
H      14.49685214     -4.41016208     -6.54140940
C      14.48670290     -5.60271618     -6.70399687
H      13.28303777     -5.52666820     -6.66211272
H       7.70525647      9.19903011     -1.88271345
H      -3.04003117     10.22785268     10.68646532
C      15.78755594     -6.57450762     -6.96659795
H      -2.19489451     -0.58877547      8.74180756
H      -6.42100582      7.81309053     -0.70408369
C       5.71579639     -2.84102175     -2.13580930
H      -0.14330197     -2.26286165      9.82001662
C       1.47821512    -10.71761301     17.93044524
H       5.57226468     -2.97626765     -0.92526602
H     -10.96216116    -12.27303411     15.66820102
H       1.07350848     -9.60117421     18.09688668
C      -5.25206610     -1.54299953     -6.11453859
H      -3.37727016      8.07246354     -1.43128541
C      -4.00119973     10.40256584     -1.72784991
H      -6.38452141     -1.34831233     -5.98132138
H      -4.12549472     11.21685495     -0.85667428
H      -1.22323324     15.16768511     -4.32667030
H      -2.46811874     15.37836807     -4.72586510
H      16.48952493     -5.81596123     -7.57550582
H      17.46276266     -8.45998186     -7.66401295
H      17.66310668     -8.06943270     -6.09313503
H       2.76344009      0.59318202      7.07579380
H       0.12317211     -0.39959775     10.29357683
H       0.85685608    -11.65038682     18.35679228
H       6.83648553      0.66681292     -3.59530928
H      -9.42679042     -2.95210432     23.99750507
H       4.34735660     15.16492914     22.65579522
H      16.37985951     13.03181762      6.69360263
H       3.24961436     -1.99995397     10.75250579
H      27.34955330      7.72512920     -1.91710932
H      -4.89752045      9.35401888     11.00061490
H      28.03972480      7.87350927     -1.58537748
H      -1.32425996     -1.81824383      5.98142849
H       8.69015375    -12.47903558      6.09449089
H       5.77114021     -6.93495755    -15.10652239
H       4.29632202     -1.93449525      9.32506510
C      -1.21248213     -0.85712409      6.69749214
C     -10.36018374    -12.21612638     16.66246958
C       2.32283725     -0.14075675      7.87235357
C       1.81921287     -1.19303012      8.95237588
C       7.49976125      0.64689684     -1.28501050
C       6.66428955     18.45804711     11.45856664
C       3.09493947     -2.09804294      9.53298327
C      -4.00899424      9.66601692     10.25826629
C       7.61250895     17.63183045     10.62918860
C      -5.75569384      8.10786912     -1.66179449
C      -3.99388846     -2.19740169     -6.68796627
C       6.08979087     -1.31440105     -2.43746766
C      16.68501593     -7.98614254     -6.83673527
C      -4.30609958      8.81973457     -1.62192123
C       8.19875152    -11.39706982      6.30712993
H       9.39446935     10.12270424     -1.40674672
H      -3.33977378    -13.97315472    -10.85865929
H      16.04969684     -9.02544549     -6.68415182
H      -9.29849224     -2.27988252     24.37174755
H      -9.75820612    -12.15921841     17.65673801
H      17.02706929      5.24247524     14.96519913
H       8.05253754      0.96116853     -0.30993151
H       5.04358438     15.37153335     22.94036770
H       5.93773604     19.09123381     12.09427344
H      -3.23854430     -2.82687071     -7.29766129
H      -4.08938447      9.41631330      9.08816802
H      -7.60830748     21.24308950      9.77919500
H       4.67671650     -3.27349163     -2.61990310
H      -1.21334417      0.11508550      5.98619476
H       7.80705196    -10.08575616      8.28360911
H       6.61821831     -3.52207004     -2.61072788
H      -7.74148290     21.25166304     10.54769370
   94

C       6.11660105     -7.27693799    -14.01033719
C      -3.56767800    -13.20798683    -10.05806821
H       6.79659243     -6.54980877    -13.34188957
C      -1.08803251     -0.86233547      8.32111415
H      -6.45450383      7.61860211     -2.57911181
H       3.04474551     -3.25466363      9.11033639
C       0.19034964     -1.17716822      9.34194531
H       5.78201270     -8.34604970    -13.58257762
H      -9.00641583     -6.97095710    -19.18247144
H      -8.99870186     -7.74034931    -19.05450201
C       6.78104006      0.08442957     -2.56217087
H      17.20302243      4.48699737     15.06614144
C       8.64015161    -10.47421988      5.10283227
H       8.21604671     10.89485632     -2.78238243
H       8.92194133     -9.73006867      4.24899335
H       2.50428182    -10.90129596     17.33767997
C       7.25607764    -10.93738588      7.58312077
H       6.14138777    -10.54686756      7.23036988
C       7.46208682     11.12784433     -0.57159623
H       6.93027418    -11.75615654      8.44283561
H      16.72104403     13.69034268      6.43032504
H       6.89526348     11.73235047      0.25921796
C       8.23766182     10.29918620     -1.70915091
H      14.50701364     -4.41708721     -6.53765398
C      14.50284183     -5.60886840     -6.70667673
H      13.29846518     -5.55690203     -6.66657590
H       7.72427463      9.19724736     -1.88028366
H      -3.03330354     10.23530405     10.75697030
C      15.80558185     -6.57360401     -6.97644309
H      -2.19679517     -0.58777107      8.74623134
H      -6.52755387      7.65588870     -0.62771039
C       5.71291024     -2.84259050     -2.14036481
H      -0.14586829     -2.26204813      9.82535244
C       1.47822005    -10.71763237     17.93046213
H       5.56933178     -2.97978264     -0.93004567
H     -10.96216756    -12.27305240     15.66821571
H       1.07351419     -9.60119406     18.09690865
C      -5.25323083     -1.62817463     -6.15978733
H      -3.47301328      7.91735715     -1.36055290
C      -4.11582478     10.22726416     -1.62701375
H      -6.38274079     -1.42337734     -6.01685539
H      -4.22037583     11.07836020     -0.79934956
H      -0.99449861     15.90421428     -4.68760031
H      -2.13827476     16.09537495     -5.05159258
H      16.50120024     -5.81194275     -7.59001206
H      17.46003523     -8.46070482     -7.67818245
H      17.65845983     -8.06552635     -6.08174364
H       2.75968718      0.59488131      7.08185715
H       0.12128448     -0.39862787     10.29809945
H       0.85685981    -11.65040669     18.35680626
H       6.83043724      0.66631752     -3.59937660
H      -9.42679729     -2.95211541     23.99752708
H       4.34737095     15.16494165     22.65580472
H      16.39184186     13.03785479      6.70287877
H       3.24767150     -2.00366059     10.75743247
H      27.34954587      7.72512729     -1.91710823
H      -4.89079301      9.36144751     11.07119021
H      28.03971767      7.87350730     -1.58537698
H      -1.32626183     -1.81933872      5.98651224
H       8.69000256    -12.47871503      6.09443184
H       5.77118236     -6.93494980    -15.10653849
H       4.29312830     -1.93224432      9.32727104
C      -1.21478302     -0.85779671      6.70205269
C     -10.36018943    -12.21614334     16.66248377
C       2.32015158     -0.14017824      7.87797714
C       1.81701900     -1.19319568      8.95751307
C       7.49704424      0.64704194     -1.28973504
C       6.66423116     18.45799257     11.45847515
C       3.09256402     -2.09877422      9.53771709
C      -4.00228710      9.67346238     10.32882279
C       7.61243057     17.63176687     10.62908344
C      -5.86315850      7.94773976     -1.58663983
C      -3.99217662     -2.27914118     -6.73088735
C       6.08954403     -1.31650300     -2.44116000
C      16.69057546     -7.99088167     -6.84008115
C      -4.41179847      8.65119267     -1.54302758
C       8.19858287    -11.39678317      6.30720979
H       9.41339926     10.12106706     -1.40411637
H      -3.33961293    -13.97458214    -10.85915317
H      16.04315508     -9.02274090     -6.68259326
H      -9.29849915     -2.27989372     24.37176978
H      -9.75821109    -12.15923405     17.65675168
H      17.02719113      5.24045195     14.96719972
H       8.04912403      0.96307731     -0.31484255
H       5.04360008     15.37154452     22.94037485
H       5.93768764     19.09118571     12.09418692
H      -3.23132104     -2.90595913     -7.33648356
H      -4.08270851      9.42379518      9.15871942
H      -7.60824502     21.24293517      9.77901774
H       4.67255521     -3.26924036     -2.62694695
H      -1.21629156      0.11392348      5.99007791
H       7.80547197    -10.08479635      8.28391705
H       6.61431608     -3.52627028     -2.61343858
H      -7.74142847     21.25154899     10.54751466
   94

C       6.11664706     -7.27692575    -14.01035110
C      -3.56752402    -13.20945072    -10.05854016
H       6.79663211     -6.54979464    -13.34189889
C      -1.09006392     -0.86201665      8.32567133
H      -6.55944856      7.46147244     -2.50623710
H       3.04247077     -3.25610007      9.11699154
C       0.18812766     -1.17667412      9.34683017
H       5.78206865     -8.34604395    -13.58259960
H      -9.00642834     -6.97096432    -19.18251920
H      -8.99871541     -7.74035697    -19.05455228
C       6.77829967      0.08345672     -2.56636728
H      17.20314133      4.48497717     15.06813823
C       8.64021639    -10.47430280      5.10274637
H       8.23465132     10.89339196     -2.78017912
H       8.92264741     -9.73096987      4.24841956
H       2.50428664    -10.90131401     17.33769586
C       7.25594074    -10.93722336      7.58327108
H       6.14127709    -10.54555382      7.23172268
C       7.48038504     11.12652074     -0.56963422
H       6.93166049    -11.75807179      8.44160939
H      16.73300458     13.69638473      6.43958814
H       6.91297993     11.73117297      0.26067386
C       8.25634475     10.29781579     -1.70689502
H      14.51726826     -4.42416634     -6.53390436
C      14.51889004     -5.61510146     -6.70949794
H      13.31427748     -5.58713979     -6.67103988
H       7.74306881      9.19582306     -1.87802484
H      -3.02658298     10.24272730     10.82741266
C      15.82357896     -6.57281574     -6.98613982
H      -2.19869666     -0.58675946      8.75065368
H      -6.63384077      7.49810458     -0.55159647
C       5.70999951     -2.84413324     -2.14493324
H      -0.14843458     -2.26122651      9.83068597
C       1.47822523    -10.71765164     17.93047900
H       5.56636788     -2.98327277     -0.93484180
H     -10.96217425    -12.27307229     15.66823167
H       1.07352013     -9.60121383     18.09693059
C      -5.25445705     -1.71336024     -6.20506555
H      -3.56865207      7.76231140     -1.29049265
C      -4.23132800     10.05181609     -1.52142468
H      -6.38080364     -1.49832748     -6.05230215
H      -4.31725107     10.93617751     -0.73781770
H      -0.76419081     16.64057968     -5.04938690
H      -1.80569825     16.81480444     -5.38029715
H      16.51272853     -5.80802428     -7.60438885
H      17.45716308     -8.46130509     -7.69237109
H      17.65363474     -8.06137888     -6.07043857
H       2.75592370      0.59659116      7.08791435
H       0.11939561     -0.39764976     10.30261887
H       0.85686387    -11.65042650     18.35682029
H       6.82435082      0.66584713     -3.60343934
H      -9.42680415     -2.95212667     23.99754976
H       4.34738444     15.16495521     22.65580714
H      16.40379472     13.04389762      6.71213441
H       3.24572976     -2.00735229     10.76234520
H      27.34953185      7.72512734     -1.91710765
H      -4.88406839      9.36884833     11.14170379
H      28.03970414      7.87350692     -1.58537722
H      -1.32826330     -1.82042742      5.99159511
H       8.68985076    -12.47839177      6.09437106
H       5.77122169     -6.93493268    -15.10654890
H       4.28992040     -1.92999306      9.32947940
C      -1.21708616     -0.85846271      6.70661155
C     -10.36019531    -12.21616166     16.66249915
C       2.31746243     -0.13958984      7.88359479
C       1.81482283     -1.19335110      8.96264474
C       7.49429725      0.64721658     -1.29446735
C       6.66413880     18.45793327     11.45831493
C       3.09018514     -2.09949777      9.54244530
C      -3.99558358      9.68087516     10.39931417
C       7.61231333     17.63170013     10.62890270
C      -5.97050711      7.78721642     -1.51178661
C      -3.99045524     -2.36081852     -6.77375233
C       6.08927928     -1.31858232     -2.44485978
C      16.69620591     -7.99566454     -6.84336891
C      -4.51728018      8.48219970     -1.46568905
C       8.19841343    -11.39649392      6.30728802
H       9.43206406     10.11983165     -1.40171335
H      -3.33945076    -13.97601664    -10.85965031
H      16.03658196     -9.01984084     -6.68109958
H      -9.29850603     -2.27990504     24.37179259
H      -9.75821614    -12.15925084     17.65676648
H      17.02730893      5.23843135     14.96919545
H       8.04568192      0.96502130     -0.31976769
H       5.04361484     15.37155659     22.94037521
H       5.93760968     19.09113175     12.09403771
H      -3.22410488     -2.98495960     -7.37521053
H      -4.07603620      9.43123591      9.22920721
H      -7.60813770     21.24275244      9.77874637
H       4.66840086     -3.26496123     -2.63398850
H      -1.21924186      0.11276700      5.99395935
H       7.80389136    -10.08383795      8.28422435
H       6.61037537     -3.53044423     -2.61616644
H      -7.74133547     21.25141129     10.54724041
   94

C       6.11669046     -7.27690603    -14.01035991
C      -3.56736921    -13.21092375    -10.05901369
H       6.79666805     -6.54977264    -13.34190234
C      -1.09209907     -0.86168506      8.33022021
H      -6.66421459      7.30443481     -2.43351874
H       3.04019310     -3.25752231      9.12363574
C       0.18590110     -1.17616830      9.35170748
H       5.78212312     -8.34603144    -13.58261739
H      -9.00643959     -6.97096761    -19.18256413
H      -8.99872802     -7.74036084    -19.05460060
C       6.77553078      0.08250068     -2.57056615
H      17.20325745      4.48295928     15.07013177
C       8.64027922    -10.47438256      5.10265918
H       8.25324164     10.89219617     -2.77810708
H       8.92335069     -9.73186852      4.24784516
H       2.50429152    -10.90133163     17.33771133
C       7.25580254    -10.93705852      7.58342032
H       6.14116588    -10.54424156      7.23307520
C       7.49877437     11.12547695     -0.56779451
H       6.93304563    -11.75997748      8.44037928
H      16.74494332     13.70243593      6.44883422
H       6.93087765     11.73035381      0.26201063
C       8.27505966     10.29669606     -1.70478086
H      14.52762421     -4.43139955     -6.53015989
C      14.53484187     -5.62141681     -6.71245978
H      13.33046363     -5.61735813     -6.67551192
H       7.76190930      9.19463758     -1.87587425
H      -3.01987366     10.25011487     10.89778933
C      15.84154085     -6.57215145     -6.99568539
H      -2.20060093     -0.58573426      8.75506857
H      -6.73972985      7.34016736     -0.47565818
C       5.70706160     -2.84565631     -2.14951275
H      -0.15100471     -2.26039313      9.83601170
C       1.47823053    -10.71767055     17.93049555
H       5.56336993     -2.98674356     -0.93965257
H     -10.96218109    -12.27309339     15.66824860
H       1.07352615     -9.60123324     18.09695216
C      -5.25574345     -1.79854096     -6.25035968
H      -3.66416748      7.60786351     -1.22099155
C      -4.34723705      9.87636865     -1.41278570
H      -6.37870411     -1.57315670     -6.08765769
H      -4.41429991     10.79301570     -0.67645946
H      -0.53437535     17.37548573     -5.41051743
H      -1.47319025     17.53358655     -5.70911170
H      16.52410563     -5.80421555     -7.61863061
H      17.45414836     -8.46178076     -7.70657885
H      17.64863860     -8.05699617     -6.05922685
H       2.75214590      0.59831418      7.09396195
H       0.11750253     -0.39666032     10.30713062
H       0.85686815    -11.65044596     18.35683411
H       6.81823294      0.66538959     -3.60749611
H      -9.42681094     -2.95213796     23.99757277
H       4.34739738     15.16496996     22.65580380
H      16.41572669     13.04994938      6.72137366
H       3.24378555     -2.01102726     10.76724193
H      27.34951214      7.72512965     -1.91710785
H      -4.87735093      9.37621640     11.21214887
H      28.03968507      7.87350842     -1.58537838
H      -1.33026731     -1.82149976      5.99667055
H       8.68969803    -12.47806585      6.09430871
H       5.77125856     -6.93490799    -15.10655423
H       4.28669544     -1.92773985      9.33168847
C      -1.21939400     -0.85911211      6.71116246
C     -10.36020125    -12.21618100     16.66251543
C       2.31476732     -0.13898942      7.88920325
C       1.81262168     -1.19349414      8.96776764
C       7.49152400      0.64740849     -1.29920406
C       6.66402195     18.45787818     11.45809631
C       3.08779967     -2.10021150      9.54716568
C      -3.98888750      9.68824958     10.46973389
C       7.61216893     17.63163995     10.62865848
C      -6.07761976      7.62679679     -1.43714146
C      -3.98873210     -2.44242948     -6.81655554
C       6.08899429     -1.32064560     -2.44856497
C      16.70191486     -8.00049814     -6.84659747
C      -4.62252194      8.31341663     -1.38933161
C       8.19824286    -11.39620212      6.30736473
H       9.45076441     10.11883508     -1.39947203
H      -3.33928736    -13.97745850    -10.86015058
H      16.02999267     -9.01675257     -6.67967210
H      -9.29851285     -2.27991637     24.37181568
H      -9.75822119    -12.15926847     17.65678212
H      17.02742375      5.23641297     14.97118758
H       8.04221491      0.96698622     -0.32470293
H       5.04362902     15.37156973     22.94036998
H       5.93750987     19.09108026     12.09383477
H      -3.21690512     -3.06386826     -7.41383760
H      -4.06937086      9.43863162      9.29962432
H      -7.60799499     21.24256177      9.77840711
H       4.66425034     -3.26065925     -2.64102621
H      -1.22219981      0.11162639      5.99783317
H       7.80230978    -10.08288084      8.28453102
H       6.60639334     -3.53459834     -2.61890972
H      -7.74121205     21.25126500     10.54689744
   94

C       6.11624901     -7.27675128    -14.01010249
C      -3.56733802    -13.21076468    -10.05907527
H       6.79623691     -6.54961635    -13.34165852
C      -1.09438991     -0.86043958      8.33384214
H      -6.77206989      7.14043445     -2.36076969
H       3.03765978     -3.25985216      9.13287676
C       0.18316359     -1.17495067      9.35598181
H       5.78163978     -8.34584867    -13.58232507
H      -9.00629938     -6.97077983    -19.18209263
H      -8.99858819     -7.74017383    -19.05413396
C       6.77266103      0.08143652     -2.57466121
H      17.20340372      4.48094162     15.07218373
C       8.64057050    -10.47502454      5.10245936
H       8.27511207     10.89118242     -2.77603542
H       8.92438262     -9.73342438      4.24711845
H       2.50425844    -10.90118632     17.33758517
C       7.25552882    -10.93684827      7.58368497
H       6.14102547    -10.54165925      7.23559200
C       7.52118708     11.12461326     -0.56561957
H       6.93562090    -11.76366170      8.43801654
H      16.75729120     13.70873775      6.45819134
H       6.95363846     11.72989237      0.26413079
C       8.29728569     10.29574775     -1.70267796
H      14.54353454     -4.44093211     -6.52314930
C      14.55882118     -5.63006067     -6.71314051
H      13.35602716     -5.66946866     -6.68303673
H       7.78442012      9.19353482     -1.87363428
H      -3.01380475     10.25839066     10.97037863
C      15.86806999     -6.56971977     -7.00893622
H      -2.20273631     -0.58361272      8.75850635
H      -6.84922497      7.17547235     -0.39643161
C       5.70402183     -2.84749440     -2.15444725
H      -0.15440482     -2.25869331      9.84081687
C       1.47819573    -10.71751696     17.93036419
H       5.56104515     -2.99232519     -0.94492472
H     -10.96213609    -12.27297242     15.66815272
H       1.07348491     -9.60107587     18.09678088
C      -5.25863766     -1.88670076     -6.29898579
H      -3.75561698      7.45020822     -1.15002724
C      -4.47816131      9.67590674     -1.26553494
H      -6.37667914     -1.64681376     -6.12241600
H      -4.50847809     10.64696263     -0.62421275
H      -0.34949382     18.14944669     -5.80383429
H      -1.08322745     18.27349340     -6.03760207
H      16.53819565     -5.79499828     -7.63995342
H      17.44188571     -8.45702622     -7.73283785
H      17.63332382     -8.04380522     -6.03472999
H       2.74702551      0.60081937      7.10031222
H       0.11525789     -0.39476661     10.31090815
H       0.85684386    -11.65028868     18.35672652
H       6.81176205      0.66439896     -3.61170020
H      -9.42675544     -2.95204824     23.99740376
H       4.34725348     15.16486320     22.65560149
H      16.42810230     13.05625062      6.73076283
H       3.24146984     -2.01731607     10.77263578
H      27.34947999      7.72515486     -1.91711422
H      -4.87137946      9.38443106     11.28440244
H      28.03965355      7.87353058     -1.58538466
H      -1.33286574     -1.82127538      6.00083567
H       8.68940080    -12.47777418      6.09435579
H       5.77087033     -6.93478881    -15.10632387
H       4.28217399     -1.92272776      9.33205296
C      -1.22227660     -0.85844676      6.71477653
C     -10.36016020    -12.21606716     16.66242232
C       2.31130214     -0.13781007      7.89523739
C       1.81006443     -1.19351757      8.97304050
C       7.48909891      0.64783960     -1.30419914
C       6.66395184     18.45793497     11.45808112
C       3.08491060     -2.10099924      9.55221336
C      -3.98275424      9.69650652     10.54219495
C       7.61212910     17.63174200     10.62863440
C      -6.19096922      7.45874985     -1.36098576
C      -3.98729887     -2.52627676     -6.86173932
C       6.08880932     -1.32299129     -2.45237375
C      16.70773323     -8.00741204     -6.84938988
C      -4.73106986      8.12716043     -1.31322454
C       8.19791905    -11.39595422      6.30756720
H       9.47303038     10.11809314     -1.39740062
H      -3.33931452    -13.97750389    -10.86003736
H      16.01309467     -9.00863483     -6.67406051
H      -9.29845674     -2.27982476     24.37164303
H      -9.75818431    -12.15916191     17.65669192
H      17.02756931      5.23439473     14.97323631
H       8.03926416      0.96977833     -0.33018594
H       5.04347153     15.37147220     22.94019443
H       5.93740672     19.09110150     12.09381668
H      -3.20960028     -3.14495891     -7.45444136
H      -4.06306153      9.44675959      9.37210117
H      -7.60795419     21.24264930      9.77839801
H       4.65923632     -3.25274630     -2.65003896
H      -1.22657013      0.11170728      6.00062995
H       7.79923519    -10.08105590      8.28500114
H       6.60192303     -3.54072299     -2.62032372
H      -7.74116572     21.25126849     10.54689030
