   94
energy=      0.00000000
C      -8.28408938     -5.22315670     -5.52297546
C      -7.14830290     -5.74530964     -4.51322589
H      -9.11347720     -4.84186243     -6.26032909
C     -10.16967887     -0.97812292      5.78662710
H     -18.89185999     -7.18329685     -1.80818867
H      -6.60261620     -4.80783018     -3.93834421
C      10.08304673     -1.98248884      9.42897658
H      -7.62414104     -6.48456898     -3.65636863
H      -7.31887679     -5.77374915    -16.93688833
H      -7.31116560     -6.54314315    -16.80892966
C       5.80021714      0.07046733      9.44399455
H       5.15677228      0.96671609      9.98597247
C      10.15796558     -3.20321078      8.30869351
H       4.99265648     -0.86478504      9.38042393
H      10.46231110     -2.53162392      7.36229073
H       0.32152093     -6.93131892     11.13966354
C       9.92027893     -4.78392586      7.73113091
H       8.91832643     -4.72830068      7.01135603
C       5.58990214      3.23633947     -3.51655772
H       9.59165325     -5.45381453      8.70994368
H       6.69831011      3.56107820     -3.97355864
H       4.97121021      4.28774286     -3.75206771
C       5.02225915      2.15759907     -4.75470818
H       5.75801011      2.97101053     -7.18249531
C       4.95438757      2.89271519     -6.27139944
H       5.67520410      1.20927175     -5.21134896
H       4.17692415      3.63169511     -6.83617319
H      -1.67522236     13.86417483     12.14530767
C      19.59943638     -6.55467683     -9.22528930
H     -10.56103864      0.14113525      5.63681929
H     -19.27118577     -7.16726916     -1.12682601
C      -9.30897803      4.96232714    -10.51107341
H     -10.83134450     -1.85898534      5.32335213
C      -0.70364398     -6.68635242     11.73168295
H     -10.40895073      4.90076610    -10.25089213
H      -2.93886237     -7.63587261     11.98686629
H      -0.70050433     -5.47994335     11.64755506
C       3.86678950      1.08206632     -4.20209561
H       6.31086132      4.35262368     -1.55661368
C       4.38995522      3.35688313     -0.75366091
H       2.65859047      1.09715967     -4.16424098
H       4.22829855      4.34014038     -0.01287672
H       4.07056489      2.51948043      0.10008025
H       3.21585918      3.37074024     -1.13842996
H      18.42272042     -6.20848264     -9.38900932
H      19.39123560     -7.12198925    -10.29314824
H      20.05632379     -7.01715927     -6.82193838
H       8.79638123     -1.09650078     12.29366879
H      10.86018295     -0.36375559      9.58254673
H      -1.57130290     -8.91451244     12.38145952
H       7.48356689     -1.21651604      9.10107052
H      -8.70101793     -4.16259184     22.46177845
H       8.20272217     13.22076571     11.17383187
H      -2.34916350     13.47718722     24.28698232
H      10.33214843      1.82982298     11.57801511
H       7.96385441      1.68520744     -1.78065231
H      -3.43227189     12.93183102     11.85119647
H      17.91126875      4.34685223     -3.56110614
H       1.15332685      1.56248793    -14.18199017
H      10.58142544     -6.63163452      5.87972333
H      20.80728290     -6.72769645     -9.33552764
H      10.06239419      2.19151607     10.05932333
C      -8.83793492     -1.27961795      6.56198287
C      -1.79775552     -7.70454486     12.45118692
C       8.44010815     -0.64920889     11.19714098
C       9.86192914     -0.51974328     10.25428829
C       7.22256197     -0.53901703     10.05378932
C       9.13876565     13.77262874     11.59031084
C      10.12612191      1.11539597     10.61467231
C      -2.87735699     14.02780680     11.93502706
C      -1.82981241     14.44151727     23.89388281
C       7.01571769      2.16995112     -1.15111637
C      17.93713385      4.85501092     -4.63791506
C      18.59741432      4.07801776     -5.79146531
C      20.04266194     -6.16430403     -7.68929204
C       5.79296237      3.23169593     -1.77494175
C      10.79972986     -5.90892722      6.83527387
H       7.76598382      2.56121046     -0.24127213
H      -6.28027563     -6.37469735     -5.11116437
H      -7.84953155     -1.50338340      7.13744203
H      -8.57271924     -3.49036836     22.83601772
H      -1.92060137     -7.53969362     13.66783879
H       5.89420289      0.64829194      8.35215286
H       7.77973661     -0.36707579     12.20316872
H      10.07348609     14.32763066     12.00558846
H      -1.31046131     15.40584731     23.50078330
H       3.97646312     -0.00168712     -3.66413923
H       6.74210516      1.04134086     -0.72412313
H      -3.02922606     14.64641905     10.88128340
H      17.48143339      5.92985781     -4.87339957
H       1.09358092      2.33690965    -14.25341377
H      11.89345430     -6.42309231      6.88051714
H      20.40063906     -5.03258958     -7.41430834
H      -3.37270765     14.66880232     12.86232070
   94
energy=      0.00000000
C      -8.28408911     -5.22315674     -5.52297604
C      -7.14830264     -5.74530969     -4.51322645
H      -9.11347782     -4.84186310     -6.26032897
C     -10.16968115     -0.97812123      5.78662610
H     -18.89185999     -7.18329685     -1.80818867
H      -6.60261526     -4.80783069     -3.93834468
C      10.55036120     -1.91419756      9.22432445
H      -7.62414225     -6.48456886     -3.65636987
H      -7.33653238     -5.79074589    -16.94234694
H      -7.32882119     -6.56013989    -16.81438827
C       9.89151553      1.35181674      5.71117914
H       9.69237141      2.51165696      6.04139045
C      10.48839234     -3.20322704      8.24696449
H      10.46837494      1.03138496      3.33773113
H      11.06582022     -2.73445130      7.30495200
H       0.32152355     -6.93135943     11.13965061
C       9.92172541     -4.74178641      7.93938105
H       8.79733678     -4.65912662      7.43030303
C       5.58497567      3.34454241     -3.58570177
H       9.60297011     -5.29720134      8.99281184
H       6.63926383      3.80836004     -4.05792210
H       4.95893822      4.38743651     -3.83893051
C       5.05662265      2.20255781     -4.78173366
H       5.56683083      2.87998426     -7.30983635
C       4.84886314      2.81982030     -6.33365658
H       5.89995487      1.32780097     -5.04284906
H       3.96779629      3.44731712     -6.88083704
H      -1.67522236     13.86417483     12.14530767
C      19.67495958     -6.55100541     -9.25494990
H     -10.56103990      0.14113741      5.63681892
H     -19.27118577     -7.16726916     -1.12682601
C      -9.30897803      4.96232714    -10.51107341
H     -10.83134579     -1.85898470      5.32335163
C      -0.70363230     -6.68637287     11.73167886
H     -10.40895073      4.90076610    -10.25089213
H      -2.93894395     -7.63586990     11.98704533
H      -0.70042765     -5.47996817     11.64752665
C       3.82436210      1.15904957     -4.34890002
H       6.31819346      4.37324273     -1.57794285
C       4.35657153      3.38798934     -0.84945456
H       2.61843375      1.22759102     -4.40772712
H       4.19921605      4.34963840     -0.08030759
H       4.00561286      2.52492038     -0.03467598
H       3.19143717      3.43465586     -1.25800754
H      18.56604291     -6.05539227     -9.46470163
H      19.34499123     -7.38103379    -10.09330166
H      20.00542500     -6.91601699     -6.70560728
H       8.21844868     -0.47724353      9.44961039
H      11.70374837     -0.52194705      9.79081222
H      -1.57108579     -8.91445024     12.38133438
H       8.34226657     -0.06939677      6.77494296
H      -8.70101793     -4.16259184     22.46177845
H       8.20292755     13.22027483     11.17401892
H      -2.34916350     13.47718722     24.28698232
H      10.67323563      1.33903133     11.77021133
H       7.94203718      1.72584918     -1.87007748
H      -3.43227189     12.93183102     11.85119647
H      12.83607545      2.38828910      2.44015774
H       1.13493633      1.57363886    -14.27436771
H      10.58482791     -6.47290601      6.04471227
H      20.78540070     -6.61135122     -9.78509193
H      10.64535177      2.24839510     10.30487678
C      -8.83793723     -1.27961622      6.56198184
C      -1.79776792     -7.70453200     12.45119534
C       9.09430141      0.07216649      8.77297514
C      10.50598821     -0.31225840      9.63011730
C       9.32120352      0.53701662      7.12956551
C       9.13835244     13.77360906     11.58993564
C      10.64838789      1.06491650     10.58867779
C      -2.87735699     14.02780680     11.93502706
C      -1.82981241     14.44151727     23.89388281
C       6.97327008      2.17171718     -1.24300367
C      11.99810215      2.19255800      3.26059260
C      10.89800306      1.55607854      4.32873238
C      20.01008233     -6.18894027     -7.67201255
C       5.77720395      3.27471238     -1.84559012
C      10.82221651     -5.82260981      7.03997011
H       7.69813780      2.50264715     -0.29090307
H      -6.28027477     -6.37469725     -5.11116422
H      -7.84953392     -1.50338187      7.13744096
H      -8.57271924     -3.49036836     22.83601772
H      -1.92080649     -7.53969228     13.66782846
H       8.91518820      1.13856537      5.02379658
H       8.03451248      0.36648741      9.32596804
H      10.07369391     14.32714122     12.00577660
H      -1.31046131     15.40584731     23.50078330
H       3.82087762      0.05584575     -3.84888556
H       6.67569300      1.02683866     -0.87790308
H      -3.02922606     14.64641905     10.88128340
H      12.45795347      2.75035469      2.31545490
H       1.07519040      2.34806060    -14.34579134
H      11.95775635     -6.22059866      7.16216235
H      20.33339834     -5.12315810     -7.19284830
H      -3.37270765     14.66880232     12.86232070
