   47
energy=      0.00000000
C      -1.82455659      0.05563908      1.08885127
C      -0.29795799      0.03988770      1.07229269
H      -2.18338584      0.84577224      0.42479117
C      -2.38528711      0.28349607      2.49041561
H      -2.19899854     -0.89478195      0.70093523
H       0.07712662      0.99003514      1.46016018
C       0.25553088     -0.18535606     -0.33258204
H       0.06274259     -0.75110522      1.73416764
H      -0.11107624      0.60310622     -0.99436210
H      -0.11711800     -1.13744780     -0.71811055
C       1.78200613     -0.19448762     -0.35938292
H       2.15576360      0.75751470      0.02518204
C       2.32625646     -0.41865855     -1.76808296
H       2.15057258     -0.98347794      0.30054732
H       1.95371119      0.36919078     -2.42728453
H       1.95246257     -1.37138207     -2.15098137
C       3.85247501     -0.42550842     -1.80552507
H       4.22749883      0.52714115     -1.42373723
C       4.38780175     -0.64947672     -3.21776997
H       4.22659847     -1.21380450     -1.14784052
H       4.01176205      0.13885832     -3.87451659
H       4.01101894     -1.60186351     -3.59879150
C       5.91367530     -0.65730650     -3.26327583
H       6.29131316      0.29487574     -2.88274933
C       6.44481889     -0.88043454     -4.67724625
H       6.29056688     -1.44652927     -2.60819174
H       6.06864010     -0.09070261     -5.33183194
H       6.06653209     -1.83212398     -5.05784299
C       7.96790278     -0.88875205     -4.71832351
H      -2.00692901      1.23139540      2.88069138
H      -2.03264574     -0.50973423      3.15400844
C      -3.91187811      0.30796641      2.49927137
H      -4.26313145      1.10035924      1.83374205
C      -4.47674129      0.53855969      3.89864446
H      -4.28998202     -0.64022411      2.10924925
H      -4.09590375      1.48506537      4.29003384
H      -4.12981660     -0.25613507      4.56359423
C      -6.00320255      0.56960804      3.90513421
H      -6.34993717      1.36421121      3.24026685
C      -6.56103124      0.80119674      5.30399242
H      -6.38442385     -0.37684679      3.51457313
H      -6.20768421      1.74956755      5.70327920
H      -6.24334536      0.00800549      5.97748900
H      -7.64835368      0.82056013      5.28543266
H       8.36434629      0.05928949     -4.36094096
H       8.32359065     -1.04844091     -5.73370549
H       8.36219369     -1.68282149     -4.08772024
