   48
energy=      0.00000000
C       2.23136103      1.55098987     -9.78004866
C       3.82755405      1.53709493     -9.91910449
H       1.09130730      1.80117284     -9.64336802
H       4.17434035      2.04058135     -8.86323430
C     -11.22202996     -8.20794801     -0.15645415
C      -9.84843892     -7.59076042     -0.11236415
H      -8.79578791     -7.11777885     -0.07857580
C      11.37866629     -1.65960725      6.74633013
C      11.86786006     -2.92808590      7.37707640
H      10.03452463      7.70521832      2.14700283
H       9.53052391      7.29594472      1.71470849
C      12.35688061     -4.19644749      8.00819229
C      12.97214585     -6.43027014     -5.18307289
H      13.50757883     -7.10591781     -4.39887753
C      -2.22095545     11.14534049    -11.56457659
C      -2.87149223     10.94201029    -10.08856172
H      -1.18798649     11.68445007    -11.85886838
H      -2.65367788     10.79604245    -12.63261686
C      18.39711339      5.10064167     -5.30109869
H      -3.46653160      9.88563537    -10.06104757
C      -2.89422381     11.88881246     -8.73086632
H      19.47017977      4.74498896     -5.35662418
H      -3.71648907     11.55604760     -7.88286861
H      -6.54395776     -1.89991279    -15.12012282
H      16.56662635     21.11800327     -8.80178819
H      13.50007317     11.22390645    -14.09933188
C       6.12014385     -0.51954701     -9.75738811
C       4.90409711      0.36404693     -9.93924198
H      13.27024344     10.48907655    -14.22424512
C      12.23518139     -5.51413057     -6.22382058
H      12.52479597     -4.36157378     -6.35066255
H      19.92297574      0.26090608    -17.59980781
H      11.35974197     -5.94130285     -6.91626718
H       7.80888770     -0.48657907    -19.48362571
C       8.84051592      1.66051534    -20.55518752
C       8.31707169      0.53375783    -19.67409315
C       8.76340389      2.42223445    -21.87252144
H       8.47368472      2.93056589    -22.86884952
H       3.97003771      2.06417830    -11.01295945
C       0.27271447     15.42768239      2.02089682
C       0.76591631     14.54232706      0.87304549
C      -0.58339221     12.28150303     -6.71796160
H       7.77422359     23.93344634      4.80746062
C      -1.59438520     12.00664863     -7.80995832
H      -3.19257233     13.05590075     -8.96721006
H       1.13819215     13.88933808     -0.00708054
H      -0.10049625     16.11294003      2.87573112
H       4.77685422     17.67927355    -18.99362231
   48
energy=      0.00000000
C       0.97642522      1.36107684     -9.34017196
C       2.57060757      1.44110057     -9.47130669
H      -0.18719266      1.47070899     -9.23124667
H       2.93630131      2.04453430     -8.47401234
C     -11.22202996     -8.20794802     -0.15645415
C      -9.84843893     -7.59076040     -0.11236415
H      -8.79578790     -7.11777886     -0.07857580
C      11.38626251     -1.69804293      6.76641048
C      11.87541188     -2.96649156      7.39725147
H      10.08788455      7.71037380      2.12050457
H       9.58388383      7.30110020      1.68821023
C      12.36447681     -4.23488314      8.02827262
C      13.98771308     -0.52247678     -6.48408605
H      10.49689359     -0.66300375    -17.27229006
C      -2.42439020     11.55811953    -11.56959055
C      -3.07230932     11.32874552    -10.09671149
H      -1.36427672     12.05442750    -11.84395372
H      -2.88883002     11.27461510    -12.64343692
C      20.95959821      7.59286140     -4.71633821
H      -3.58758978     10.23179288    -10.04438833
C      -3.14783106     12.30684639     -8.76421035
H      22.03263910      7.23721310     -4.77187455
H      -4.00000402     12.01840725     -7.92941370
H      -7.29932296     -2.15679267    -15.56288637
H      14.22067703      0.62002182     -6.53594252
H      13.50007439     11.22390539    -14.09933150
C       4.72689341     -0.75681183     -9.38093561
C       3.54790038      0.18625509     -9.46953256
H      13.27024471     10.48907550    -14.22424455
C      13.67661306     -2.06084101     -6.41476149
H      14.06188908     -3.14152145     -6.15569379
H      21.49933979      0.30763831    -17.48028780
H      12.90023128     -2.92769637     -6.58595853
H       7.91498782     -1.18136848    -19.73084511
C      10.00318123     -0.30464015    -18.30037754
C       8.74429681     -0.98047836    -18.93556464
C      10.31172280      0.81334020    -19.35649818
H      10.14959779      1.43157176    -20.33647997
H       2.77425784      1.96430698    -10.55724154
C       0.25070005     15.46888107      2.07142639
C       0.74390591     14.58351597      0.92358079
C      -0.74018166     12.62245162     -6.84093036
H       7.79442791     23.95819935      4.81673721
C      -1.83513919     12.40374664     -7.86044716
H      -3.45369702     13.46995715     -9.01004344
H       1.11645443     13.92253606      0.04955464
H      -0.12232315     16.14629424      2.93257315
H       4.77685159     17.67927563    -18.99362379
