   48
energy=      0.00000000
C      -2.79242903      0.57206872     -3.06343313
C      -1.40693896      0.91216582     -3.61572055
H      -3.90535791      0.52969820     -2.75076870
H       1.05427320      6.58368108    -11.32928984
C      -0.27658432     -2.84810648    -16.03136756
C       0.09940970     -3.65922909    -14.82035688
H      -1.47561974     -3.04335362    -18.05252250
C       8.09279913     -3.84046962      3.44286767
C      14.90989746     -3.52387000     10.87924487
H      10.73595677      8.68209149      2.41007249
H      10.23195605      8.27281789      1.97777815
C      15.39270962     -4.78117011     11.50241807
C      14.51614395     -0.66347157     -7.16626359
H       3.65516247      4.02463790    -12.97387753
C      -1.10975658     11.45711666    -12.31053708
C      -0.68165156      9.91705290    -11.90785628
H      -0.60931517     12.54058658    -12.13791035
H      -2.10641565     11.91134642    -12.82039909
C      21.10630787      7.77326553     -4.67357986
H      -1.79574191      9.47336501    -11.72328462
C       0.63160661      8.92584723    -11.49653838
H      22.17934876      7.41761723     -4.72911620
H       0.10043899      8.59161473    -10.43511764
H     -12.50295077     -3.11062556    -15.51986444
H      14.74679351      0.47771313     -7.21787412
H      13.91402211     12.00390572    -13.64739801
C       6.30977377     -3.96494426      1.03719190
C       7.19022238     -3.87979480      2.24704467
H      13.68419243     11.26907583    -13.77231106
C      14.20538012     -2.20106958     -7.09672322
H      15.02600014     -2.98384111     -6.71963538
H      21.49933979      0.30763831    -17.48028780
H      13.13903800     -2.63409308     -7.41882406
H      -0.49094209     -1.24347751    -17.83753931
C       3.10076034      5.05348047    -12.82742704
C      -0.77967158     -2.31922159    -17.40880953
C       2.53447347      6.55003696    -12.78483346
H       3.11785519      6.88324073    -13.78263786
H      -0.64460981      1.57556605     -4.17831590
C       0.24997363     15.55570298      2.29823224
C       0.74318128     14.67033570      1.15038781
C       3.02511946      7.99276716    -11.10298598
H       7.87290899     24.05422568      4.85116451
C       1.66035280      7.55587201    -11.77256268
H       1.40967438      9.87674006    -11.46246610
H       1.11597890     14.00124449      0.28266174
H      -0.12283152     16.22505879      3.16575098
H       4.70276573     10.77052090    -23.21390994
   48
energy=      0.00000000
C      -4.51571372      0.36144962     -1.55676826
C      -3.15770448      0.76670825     -2.13555388
H      -5.60778519      0.22793988     -1.19790626
H       5.66778106     -0.38881437     -9.01372622
C      -1.13811104     -3.60201353    -17.35977890
C      -0.72950162     -4.33045386    -16.10774480
H      -2.34174997     -3.73666731    -19.39795749
C       8.09393262     -3.88110837      3.52304482
C      14.96176543     -3.52540846     10.93747111
H      10.73595772      8.68209086      2.41007253
H      10.23195700      8.27281726      1.97777819
C      15.44457759     -4.78270858     11.56064432
C      17.26632432     -1.69918686     -6.48830434
H       2.92292151      5.26565214    -13.24212659
C      -1.61897891     12.47777563    -12.70879926
C      -1.23077293     10.93127731    -12.32040419
H      -1.07553990     13.53208132    -12.49485832
H      -2.57575529     12.93824824    -13.27889816
C      21.42928365      8.33106807     -4.55975509
H      -2.29945772     10.35759515    -12.28574306
C       0.13931908     10.08113431    -11.85595941
H      22.50232454      7.97541977     -4.61529144
H      -0.27741317      9.57773814    -10.81152617
H     -13.11311000     -3.11032216    -15.41087512
H      17.49697154     -0.55800173     -6.53991560
H      13.91402211     12.00390572    -13.64739801
C       6.31071604     -4.00559636      1.11711105
C       7.19612762     -3.93051985      2.32400679
H      13.68419243     11.26907583    -13.77231106
C      16.95556019     -3.23678480     -6.41876402
H      17.77617942     -4.01955725     -6.04167632
H      21.49933979      0.30763831    -17.48028780
H      15.88921756     -3.66980677     -6.74086518
H      -1.32966405     -1.95936662    -19.11511123
C       2.39371518      6.31060372    -13.16269589
C      -1.63753145     -3.04527137    -18.72747924
C       1.89686243      7.81389924    -13.23483700
H       2.30301087      8.16352021    -14.30401455
H      -2.25508824      1.27524189     -2.65116973
C       0.24997237     15.55573106      2.29821046
C       0.74318001     14.67036379      1.15036603
C       2.52838059      8.97493185    -11.27991214
H       7.87290899     24.05422568      4.85116451
C       1.29800920      8.93906805    -12.23274176
H       0.91806222     11.02430027    -11.85356712
H       1.11597922     14.00121703      0.28268348
H      -0.12283121     16.22503134      3.16577273
H       4.84115696     10.82519868    -23.59113296
