   48
energy=      0.00000000
C      -0.57098805      2.74668492     -4.16164590
C      -1.12718314      1.42602707     -3.46140654
H      -1.67195482      3.00778193     -4.52005742
H       6.17628126     -4.59026082     -9.51671695
C      -1.48004820     -4.35947404    -17.74716747
C      -1.01220590     -4.94709965    -16.44309129
H      -2.68109414     -4.39195318    -19.81387742
C       8.06470961     -3.98713865      3.91241730
C       0.54936778      3.80801315     -4.65237139
H      11.96370767      8.67135178      2.92240545
H      11.45986288      8.26235642      2.49024174
C       1.41460768      4.82392886     -5.58702038
C      17.78269250     -1.78651576     -6.36998270
H      -0.85325044      7.89669763    -19.56198482
C       2.46477443      9.03762328    -10.59260989
C       2.89793788      8.55376383     -9.10670971
H       2.86877522      9.90764916    -11.32047542
H       1.61193876      8.53201310    -11.26514046
C      21.48643802      8.46615928     -4.53744620
H       1.14661168      4.12998056     -6.49214512
C      -4.46867881     18.68858339     -3.80723637
H      22.55947891      8.11051098     -4.59298254
H      -5.11956818     17.90338297     -3.24688954
H     -13.29859973     -3.10223629    -15.36355665
H      18.01333784     -0.64533028     -6.42159459
H      14.06178378     12.05123971    -13.72595613
C       6.28150353     -4.11131594      1.50627651
C       7.17304108     -4.04907875      2.70938777
H      13.83195410     11.31640981    -13.85086918
C      17.47192813     -3.32411366     -6.30044244
H      18.29254662     -4.10688695     -5.92335487
H      21.49933979      0.30763831    -17.48028780
H      16.40558512     -3.75713451     -6.62254383
H      -1.62807047     -2.65875101    -19.42227302
C       2.25268852      6.03396485     -6.29911950
C      -1.96743838     -3.75625210    -19.09939038
C       2.90470660      7.20252950     -7.23690727
H       3.38881541      9.87152403     -7.31875323
H      -1.80027816      0.55240274     -3.02882684
C       2.78357444      8.81193436     -7.51359292
C       0.08478959     10.54570844      3.95377552
C       5.22222523      7.43114005     -9.15336737
H       8.58633138     24.89849718      4.98160510
C       3.80939454      7.41459223     -8.52795677
H      -3.81778814     19.47378542     -4.36757941
H      -0.81719771      9.91461878      4.21396629
H       2.01516919      9.34705255     -6.73271597
H       7.04144548     12.13935570    -27.54156056
   48
energy=      0.00000000
C      -0.59951823      2.94748209     -4.19261989
C      -1.04071233      1.60706097     -3.47194979
H      -1.67809032      3.27491648     -4.56737343
H       4.06199340     -5.27175256     -8.74997687
C      -1.76370954     -4.33072656    -18.20319113
C      -1.29543280     -4.91749359    -16.89888435
H      -2.96466415     -4.36259188    -20.27010379
C       8.07541510     -3.98306012      3.95237287
C       0.53490833      3.96011272     -4.69114638
H      11.96370767      8.67135178      2.92240545
H      11.45986288      8.26235642      2.49024174
C       1.37589618      4.89210018     -5.69290966
C      20.28547016     -0.04234126     -5.94739733
H      -0.85541736      7.93219793    -19.55870592
C       2.42741711      9.08954582    -10.52438526
C       2.84732319      8.59798486     -9.04275378
H       2.87096859      9.97555529    -11.20575100
H       1.57187378      8.59031114    -11.19871373
C      22.35710626     11.67260864     -4.02344749
H       1.22391466      4.21383278     -6.64498077
C      -4.46867857     18.68858369     -3.80723566
H      23.43014715     11.31696034     -4.07898384
H      -5.11956830     17.90338282     -3.24688990
H     -13.43472378     -3.09140425    -15.32289494
H      20.25114361      1.11161344     -6.09298089
H      14.06178378     12.05123971    -13.72595613
C       6.29220901     -4.10723741      1.54623207
C       7.18376359     -4.04503884      2.74933272
H      13.83195410     11.31640981    -13.85086918
C      15.13054241    -10.33256940     -6.55860877
H      20.41520504     -1.18497818     -5.76981904
H      21.56341936      0.33519607    -17.86445110
H      14.11914917    -10.73857325     -6.86466200
H      -1.91139945     -2.62968700    -19.87783161
C       2.19539222      6.13268831     -6.30538820
C      -2.25098088     -3.72723504    -19.55533658
C       2.84091619      7.29299502     -7.21492421
H       3.36418596      9.90131893     -7.19653262
H      -1.64646503      0.70004088     -3.02601198
C       2.70241685      8.89437226     -7.46054805
C       0.07773391     10.55933675      3.99252709
C       5.17383732      7.30440564     -9.05902534
H       8.58633138     24.89849718      4.98160510
C       3.74323044      7.42902326     -8.50402460
H      -3.81778827     19.47378527     -4.36757977
H      -0.82425340      9.92824709      4.25271785
H       1.85804608      9.40813602     -6.74280596
H       7.04713793     12.14240014    -27.54731453
