   48
energy=      0.00000000
C      -0.59951823      2.94748209     -4.19261989
C      -1.04071233      1.60706097     -3.47194979
H      -1.67809032      3.27491648     -4.56737343
H       4.06199340     -5.27175256     -8.74997687
C      -1.76370954     -4.33072656    -18.20319113
C      -1.29543280     -4.91749359    -16.89888435
H      -2.96466415     -4.36259188    -20.27010379
C       8.07541510     -3.98306012      3.95237287
C       0.53490833      3.96011272     -4.69114638
H      11.96370767      8.67135178      2.92240545
H      11.45986288      8.26235642      2.49024174
C       1.37589618      4.89210018     -5.69290966
C      20.28547016     -0.04234126     -5.94739733
H      -0.85541736      7.93219793    -19.55870592
C       2.42741711      9.08954582    -10.52438526
C       2.84732319      8.59798486     -9.04275378
H       2.87096859      9.97555529    -11.20575100
H       1.57187378      8.59031114    -11.19871373
C      22.35710626     11.67260864     -4.02344749
H       1.22391466      4.21383278     -6.64498077
C      -4.46867857     18.68858369     -3.80723566
H      23.43014715     11.31696034     -4.07898384
H      -5.11956830     17.90338282     -3.24688990
H     -13.43472378     -3.09140425    -15.32289494
H      20.25114361      1.11161344     -6.09298089
H      14.06178378     12.05123971    -13.72595613
C       6.29220901     -4.10723741      1.54623207
C       7.18376359     -4.04503884      2.74933272
H      13.83195410     11.31640981    -13.85086918
C      15.13054241    -10.33256940     -6.55860877
H      20.41520504     -1.18497818     -5.76981904
H      21.56341936      0.33519607    -17.86445110
H      14.11914917    -10.73857325     -6.86466200
H      -1.91139945     -2.62968700    -19.87783161
C       2.19539222      6.13268831     -6.30538820
C      -2.25098088     -3.72723504    -19.55533658
C       2.84091619      7.29299502     -7.21492421
H       3.36418596      9.90131893     -7.19653262
H      -1.64646503      0.70004088     -3.02601198
C       2.70241685      8.89437226     -7.46054805
C       0.07773391     10.55933675      3.99252709
C       5.17383732      7.30440564     -9.05902534
H       8.58633138     24.89849718      4.98160510
C       3.74323044      7.42902326     -8.50402460
H      -3.81778827     19.47378527     -4.36757977
H      -0.82425340      9.92824709      4.25271785
H       1.85804608      9.40813602     -6.74280596
H       7.04713793     12.14240014    -27.54731453
   48
energy=      0.00000000
C      -0.59152588      3.09821550     -4.26962750
C      -0.91392116      1.74617019     -3.52649695
H      -1.66622792      3.47643527     -4.60631162
H       4.05701301     -5.28918627     -8.73684804
C      -1.77635729     -4.32907065    -18.22658888
C      -1.30758143     -4.91486539    -16.92202441
H      -2.97720324     -4.36024118    -20.29373431
C       8.08339667     -3.97988290      3.98173556
C       0.56218803      4.04729454     -4.79804244
H      11.96370767      8.67135178      2.92240545
H      11.45986288      8.26235642      2.49024174
C       1.42923313      4.86961110     -5.83924346
C      20.31420353     -0.04101615     -5.94069079
H      -0.85565790      7.93520960    -19.55829181
C       2.32043335      9.17452963    -10.55827087
C       2.78450506      8.65921458     -9.10945238
H       2.85978428     10.04917500    -11.18149465
H       1.46905452      8.63096143    -11.20969558
C      22.36413048     11.70409076     -4.01829967
H       1.33054122      4.20904997     -6.81533312
C      -4.46867843     18.68858386     -3.80723526
H      23.43717137     11.34844247     -4.07383602
H      -5.11956837     17.90338273     -3.24689010
H     -13.44119247     -3.09089256    -15.32082243
H      20.24545223      1.10994515     -6.09794476
H      14.06178378     12.05123971    -13.72595613
C       6.30019058     -4.10406019      1.57559476
C       7.19176303     -4.04190213      2.77868426
H      13.83195410     11.31640981    -13.85086918
C      15.14132874    -10.37535270     -6.55563504
H      20.40966811     -1.18880859     -5.77447867
H      21.56373714      0.33529179    -17.86749973
H      14.12993549    -10.78135656     -6.86168828
H      -1.92366505     -2.62767420    -19.90070397
C       2.31546708      6.10424331     -6.28026551
C      -2.26349061     -3.72527451    -19.57864806
C       3.13670113      7.26350945     -6.98266366
H       3.37928488      9.77997035     -7.09357494
H      -1.42029614      0.80096618     -3.05030042
C       2.75217617      8.78764441     -7.46994655
C       0.07726496     10.56023866      3.99511012
C       4.52365664      6.75671499     -7.47031188
H       8.58633138     24.89849718      4.98160510
C       3.69176238      7.51940046     -9.63132443
H      -3.81778834     19.47378518     -4.36757997
H      -0.82472234      9.92914900      4.25530089
H       1.79948523      9.25715979     -6.85169548
H       7.04770871     12.14270411    -27.54789153
