   48
energy=      0.00000000
C      -7.79053105      1.92304018     -0.26618523
C      -6.89233263      2.91605415     -0.95667757
H      15.69262499      1.60885948     -5.34775804
H       7.63298645     -9.06270252     -1.14289730
C       0.26101342     -5.29903974    -12.52564055
C       0.43213021     -6.82506184    -12.55627178
H      -1.21602236     -4.60304792    -14.39095009
C       2.49864538     -3.79535230     -8.96070890
C       5.90510049      4.65564058     -6.22563652
H      13.27540360      9.51997521      4.09908594
H      12.77155882      9.11097985      3.66692223
C       5.17810391      3.31254596     -6.16597495
C      16.81772922      1.18967385     -5.44357620
H      -1.76323596      7.66737057    -20.92450459
C       5.52355561     10.09033287     -8.35119270
C       5.97736963      9.09918703     -7.23470734
H       4.92506359     10.48743946     -9.27025057
H      12.10962698      1.79561597    -16.65920876
C      10.12396355      8.58392237     -5.57855214
H       4.79600065      2.22939179     -6.04725410
C      -4.46867838     18.68858393     -3.80723511
H      11.25544922      8.86217472     -5.32819093
H      -5.11956839     17.90338270     -3.24689018
H     -13.44119247     -3.09089256    -15.32082243
H      17.82623029      1.78605353     -5.67600220
H      15.59584980     14.49683442    -13.76427070
C       0.67288703     -4.76306653    -11.12856021
C       1.44381963     -4.23577660     -9.93122177
H      15.36602012     13.76200453    -13.88918375
C       7.70145311      6.86379797     -5.62992419
H      17.22129756      0.07087194     -5.33196191
H      12.79364360      1.50013285    -16.88988384
H       7.65642852      6.30524627     -4.57032138
H       0.44040745     -3.53010436    -14.25046121
C       5.43784483      6.06035301     -9.02997880
C      -0.19636300     -4.43284292    -13.78469529
C       5.57509726      6.61237179     -7.59413858
H      -6.20401088      3.67705991     -1.48583801
H      -5.94890436     -8.23419838      3.62522520
C       4.82260632      7.97696818     -7.28350929
C       8.51974237      8.30795985     -5.61719440
C       6.56177192      6.05440551     -6.47003059
H       8.58633138     24.89849718      4.98160510
C       7.41016258      9.03361457     -6.53872405
H      -3.81778836     19.47378515     -4.36758004
H       8.57377947      8.88908526     -4.54714566
H       3.61036272      7.99016857     -7.26573173
H       7.11956648     12.18006490    -27.61292548
   48
energy=      0.00000000
C      -7.79052995      1.92303931     -0.26618506
C      -6.89233516      2.91605616     -0.95667795
H      15.75005810      1.58655954     -5.35247354
H       7.63298645     -9.06270252     -1.14289730
C       0.26759090     -5.30108179    -12.53115267
C       0.42843419     -6.82817140    -12.56336280
H      -1.23272659     -4.58839956    -14.37115698
C       2.47899665     -3.78613585     -8.93746855
C       5.96614994      4.54280195     -6.20615444
H      13.27540360      9.51997521      4.09908594
H      12.77155882      9.11097985      3.66692223
C       5.21745341      3.22076821     -6.10416043
C      16.87215046      1.17007943     -5.44827383
H      -1.76323596      7.66737057    -20.92450459
C       5.59476552     10.23142510     -8.40113215
C       5.83515208      9.27081115     -7.20265000
H       5.06771706     10.69792548     -9.32225965
H      12.10962698      1.79561597    -16.65920876
C      10.31522089      8.28422375     -5.60559341
H       4.74607994      2.17100319     -6.04200517
C      -4.46867838     18.68858393     -3.80723511
H      11.30266032      8.85441916     -5.38221236
H      -5.11956839     17.90338270     -3.24689018
H     -13.44119247     -3.09089256    -15.32082243
H      17.80046973      1.88881660     -5.68781235
H      15.59584980     14.49683442    -13.76427070
C       0.69379764     -4.76639001    -11.13789825
C       1.45390891     -4.23741485     -9.93445336
H      15.36602012     13.76200453    -13.88918375
C       7.81192531      6.44111698     -5.56512773
H      17.13618041      0.00941833     -5.31062930
H      12.79364360      1.50013285    -16.88988384
H       7.77270054      6.15956526     -4.40567249
H       0.44512850     -3.54367593    -14.26734635
C       5.51705298      6.05765976     -9.02499012
C      -0.19861405     -4.43302709    -13.78567288
C       5.67982409      6.62464229     -7.59715244
H      -6.20400945      3.67705876     -1.48583780
H      -5.94890436     -8.23419838      3.62522520
C       4.90428293      7.97444114     -7.25713902
C       9.08857304      7.35256338     -5.72266626
C       6.59918229      5.93502662     -6.49037729
H       8.58633138     24.89849718      4.98160510
C       6.90340614      9.69564448     -6.14310762
H      -3.81778836     19.47378515     -4.36758004
H       7.52088913      9.89947451     -5.17580077
H       3.70984518      8.00168246     -7.10036383
H       7.11956648     12.18006490    -27.61292548
