   48
energy=      0.00000000
C      -3.82392665      2.31462455      0.73164608
C      -2.31387292      2.56833299      0.73833730
H      -4.96486474      2.12002332      0.73147553
H      -1.17203737      2.75733388      0.74831789
C     -11.08858477     -8.01310215     -0.13765610
C      -9.71478680     -7.39637468     -0.09357467
H      -8.66236201     -6.92289063     -0.05977697
C       9.85037564      3.65143460     -1.36738094
C      10.38991713      2.32674914     -0.74786750
H      10.30728602      4.69858566     -1.02295232
H       8.96931329      3.62080915     -2.17158910
C      10.82128878      1.06968048     -0.04189784
C      12.37426506     -6.92801665      4.11529269
H      12.43413009     -7.67605570      4.85973831
C       1.72306735      8.96409853    -11.80102104
C       1.54674119      9.01304188    -10.15512162
H       2.46267876      9.37497691    -12.65777495
H       1.13515137      8.41262098    -12.70707585
C       2.13099981      9.37130612     -8.62657669
H       0.57500941      8.31112620    -10.07347982
C       1.97938880      9.88375561     -7.02400558
H       3.15478628      8.75096379     -8.70180376
H       1.24906904      9.07124908     -6.53077795
H      -0.52000668      1.35770361    -14.12119766
H      13.19761633     13.76079182    -10.13153209
H      13.44152631     13.46118180     -9.46510210
C      11.81973792     -1.51898417    -10.72920411
C      11.45660690     -0.80285981    -12.03551338
H      12.08323706     -2.04341498     -9.73287326
C      11.06398700     -0.03552193    -13.37702559
H      11.99799468      0.66518868    -13.75071100
H      10.08655041      0.67793228    -13.18043352
H      10.79530411     -0.84011811    -14.26213179
H       7.80899554      4.89577405    -23.29738882
C      10.14505321      5.09017153    -22.81571166
C       8.64810884      5.51911579    -22.72179093
C      11.62530805      4.76492720    -23.01124640
H      12.74706403      4.56755888    -23.20898973
H       8.34192222      6.48159423    -22.08624152
C       2.70560935     12.22565481     -1.06891278
C       2.50996359     11.67046829     -2.56937876
C       2.71796581     11.17225122     -4.10152256
H       5.15976255     18.22527679      1.92815471
C       2.30008505     10.87374371     -5.69692271
H       2.18009902     11.99435982     -6.10076999
H       3.88969985     11.15532939     -3.88675624
H       2.63744397     13.32207343     -0.58697869
H       3.05033248     11.72688901     -0.03182511
   48
energy=      0.00000000
C      -3.85210092      2.26702888      0.80273731
C      -2.34205041      2.52075741      0.80943961
H      -4.99328328      2.07388343      0.80004586
H      -1.20043324      2.71118958      0.81688390
C     -11.11449123     -8.05118064     -0.14102512
C      -9.74084713     -7.43411099     -0.09693733
H      -8.68825408     -6.96100060     -0.06314657
C       9.54760697      4.75042977     -0.05843439
C      10.07055544      3.42832675      0.58066719
H      10.01270239      5.79808043      0.27327125
H       8.67653924      4.71774702     -0.87336417
C      10.53494608      2.16209197      1.24832343
C      12.51705736     -5.31070870     -5.55092834
H      12.65848600     -5.78832686     -4.48474862
C       1.47465780      9.26989296    -11.31247989
C       1.22442337      9.24778664     -9.69541849
H       2.29658767      9.80615489    -12.00658792
H       0.89020808      8.72370604    -12.21776107
C       1.96195177      9.59045675     -8.26462828
H       0.16066473      8.70842952     -9.53612442
C       1.64749589     10.07700786     -6.71748185
H       3.10527297      9.22670980     -8.35505260
H       0.88062692      9.30822800     -6.19864922
H      -2.76723650      1.07078700    -14.14600050
H      13.74113928     14.91381193     -9.63895580
H      13.98504926     14.61420192     -8.97252581
C      13.34571459     -4.40341312     -9.76820647
C      12.62591672     -4.38949422     -8.42421566
H      14.31992864     -4.96549731    -10.01450178
C      12.15733203     -4.55970485     -6.92446027
H      12.43586961     -3.39505592     -6.69699493
H       9.19455606      4.69845762    -13.84633412
H      11.14060663     -5.11296167     -7.30572065
H       8.00144594      5.40070028    -26.13278815
C      10.34140202      5.61936045    -25.67974990
C       8.84112402      6.03185461    -25.56660354
C      11.82074702      5.28256134    -25.86250232
H      12.94224336      5.06339437    -26.03763607
H       8.53095204      6.98684280    -24.92177124
C       2.37100683     12.40634444     -1.07247059
C       2.25844102     11.87898964     -2.56752904
C       2.57379579     11.37338441     -4.04745372
H       5.22727577     18.39503399      2.11170899
C       1.99996671     11.20971575     -5.57388955
H       1.78989376     12.31572362     -5.99527452
H       3.73313298     11.12447427     -3.90043408
H       2.23604128     13.53818665     -0.70800274
H       2.67833316     11.77108246     -0.10381836
