   48
energy=      0.00000000
C      -4.55704712      0.39806581     -1.55344870
C      -3.20438322      0.81524539     -2.13698918
H      -5.62496222      0.18926056     -1.15919881
H       5.66623840     -0.71095706     -8.97187127
C      -1.20181657     -3.65779982    -17.45300072
C      -0.77138818     -4.33182410    -16.17810445
H      -2.40621990     -3.75269712    -19.50193644
C       8.07447441     -3.93419689      3.66425037
C      15.02750720     -3.52692958     11.01010684
H      10.73595772      8.68209086      2.41007253
H      10.23195700      8.27281726      1.97777819
C      15.51031935     -4.78422969     11.63328005
C      17.40785391     -1.73856816     -6.45765031
H       2.92831769      4.17645472    -15.75637886
C      -0.78854533     10.42001180    -15.40575612
C      -0.23686239      8.89513352    -15.19652176
H      -0.41866352     11.51409802    -15.07639022
H      -1.80392269     10.87256732    -15.87669949
C      21.44325685      8.36242475     -4.55440973
H      -1.21818924      8.28275646    -14.88545113
C      -2.19101840     14.82771938     -6.14363348
H      22.51629774      8.00677645     -4.60994608
H      -2.80505703     14.08779032     -5.48896851
H     -13.15083341     -3.10955520    -15.40190076
H      17.63850007     -0.59738283     -6.50926192
H      13.91402211     12.00390572    -13.64739801
C       6.29119682     -4.05868914      1.25823427
C       7.17942697     -3.98938419      2.46340348
H      13.68419243     11.26907583    -13.77231106
C      17.09708965     -3.27616608     -6.38811002
H      17.91770847     -4.05893899     -6.01102238
H      21.49933979      0.30763831    -17.48028780
H      16.03074680     -3.70918741     -6.71021131
H      -1.37772852     -1.99156902    -19.17657898
C       2.38667604      5.22000568    -15.73598185
C      -1.69757785     -3.08274541    -18.81442679
C       1.82832225      6.69250057    -15.93582827
H       2.31914199      6.94734337    -16.99170546
H      -2.24343358      1.24024378     -2.62219338
C       0.66350421     16.13182307      6.00460145
C       1.15671186     15.24645580      4.85675702
C       1.99673219      8.04885307    -13.96501703
H       8.58633138     24.89849718      4.98160510
C       1.05054607      7.89152696    -15.17284890
H      -1.50971317     15.65045042     -6.60413483
H       1.52951201     14.57727607      3.98910030
H       0.29070157     16.80109038      6.87218955
H       5.85777975     11.29228224    -25.81333570
   48
energy=      0.00000000
C      -4.57390076      0.43188920     -1.56768768
C      -3.22225023      0.85144122     -2.15218764
H      -5.61349377      0.15295260     -1.14220805
H       5.73200841     -1.43134299     -9.02193730
C      -1.29003713     -3.70963666    -17.57764934
C      -0.83744133     -4.33057242    -16.28365753
H      -2.49330163     -3.76604899    -19.63719589
C       8.05443097     -3.97683900      3.80638965
C      15.09170565     -3.52800861     11.07972004
H      10.73595772      8.68209086      2.41007253
H      10.23195700      8.27281726      1.97777819
C      15.57451781     -4.78530873     11.70289325
C      17.55749625     -1.77076674     -6.42468951
H       2.50446443      6.95759669    -10.01383218
C      -0.06627565      9.91920335    -14.14609414
C       0.27957258      9.26425862    -12.68163808
H       0.41053169     10.80665090    -14.80201269
H      -0.83110612      9.63569890    -15.03760796
C      21.45687468      8.39413007     -4.54912459
H      -0.03838920      8.11447612    -12.86209309
C      -4.09663136     17.95036943     -3.58636880
H      22.52991557      8.03848177     -4.60466094
H      -4.74597568     17.16707078     -3.02158731
H     -13.19852271     -3.10845451    -15.39005504
H      17.78814176     -0.62958129     -6.47630133
H      13.91402211     12.00390572    -13.64739801
C       6.27112975     -4.10133291      1.40034166
C       7.16166287     -4.03677178      2.60407417
H      13.68419243     11.26907583    -13.77231106
C      17.24673191     -3.30836463     -6.35514924
H      18.06735047     -4.09113785     -5.97806165
H      21.49933979      0.30763831    -17.48028780
H      16.18038893     -3.74138559     -6.67725061
H      -1.44959753     -2.02170306    -19.27114678
C       2.00168307      7.97973664     -9.72783397
C      -1.78119833     -3.11708346    -18.93322167
C       1.37187512      9.43006774     -9.63605512
H       1.54543216     11.90033235     -6.15232983
H      -2.22018138      1.20653253     -2.60974671
C       1.42746594     10.81083053     -6.64471665
C       1.49404183      9.93370764     -8.04755296
C       2.44946759      9.55048693    -12.00694577
H       8.58633138     24.89849718      4.98160510
C       1.08889372      9.53310227    -11.26868577
H      -3.44420909     18.73745702     -4.14226561
H       2.00724744      9.07153845     -7.40489048
H       1.35290150     10.60138041     -5.45263070
H       5.85777975     11.29228224    -25.81333570
