   48
energy=      0.00000000
C       0.74936955      0.45968785     -2.58939635
C       2.24497514      0.54211338     -3.03523082
H      -0.37011836      0.40844737     -2.27580357
H       1.02226322      6.19299847    -10.86944948
C      -0.26567405     -2.79751807    -16.00789170
C       0.07105781     -3.70873200    -14.85738542
H      -1.45228682     -3.06520444    -18.00563409
C      11.38628743     -1.69810937      6.76641102
C      11.87539542     -2.96653005      7.39734029
H      10.31503270      7.88604676      2.29929827
H       9.81103198      7.47677316      1.86700393
C      12.36450173     -4.23494959      8.02827316
C      13.95922611     -0.66974074     -6.47758152
H       3.75434071      3.57748481    -12.68995140
C      -1.26849894     11.16992006    -11.88297316
C      -0.75277053      9.64323259    -11.49200545
H      -0.86446834     12.29693612    -11.73489616
H      -2.30371759     11.63683106    -12.30569234
C      20.96073597      7.59418997     -4.71608918
H      -1.86270549      9.32999948    -11.12210550
C       0.50688754      8.53232712    -11.15468578
H      22.03377687      7.23854168     -4.77162553
H      -0.11214749      8.10821996    -10.18509647
H     -12.50295077     -3.11062556    -15.51986444
H      14.18987968      0.47144323     -6.52919086
H      13.91402211     12.00390572    -13.64739801
C       4.22636728     -1.71000436     -2.44794104
C       3.23598796     -0.60603135     -2.69837819
H      13.68419243     11.26907583    -13.77231106
C      13.64846279     -2.20733888     -6.40804107
H      14.46908375     -2.99010931     -6.03095314
H      21.49933979      0.30763831    -17.48028780
H      12.58212178     -2.64036560     -6.73014126
H      -0.50733337     -1.24169931    -17.88257054
C       3.08681788      4.52347190    -12.42942555
C      -0.76917158     -2.30023443    -17.39711402
C       2.45441516      5.99485695    -12.26573152
H       3.24823530      6.14955346    -13.14468259
H       2.65738438      1.47341120     -3.64916421
C       0.29573085     15.52471808      2.30038265
C       0.78893849     14.63935081      1.15253821
C       2.93240799      7.68630012    -10.85075954
H       7.87290899     24.05422568      4.85116451
C       1.55979284      7.14999737    -11.41277997
H       1.25220905      9.48158992    -10.93040062
H       1.16173397     13.97033484      0.28475321
H      -0.07707645     16.19414912      3.16784242
H       4.54700551     10.67078109    -22.75190888
   48
energy=      0.00000000
C      -2.79242903      0.57206872     -3.06343313
C      -1.40693896      0.91216582     -3.61572055
H      -3.90535791      0.52969820     -2.75076870
H       1.05427320      6.58368108    -11.32928984
C      -0.27658432     -2.84810648    -16.03136756
C       0.09940970     -3.65922909    -14.82035688
H      -1.47561974     -3.04335362    -18.05252250
C       8.09279913     -3.84046962      3.44286767
C      14.90989746     -3.52387000     10.87924487
H      10.73595677      8.68209149      2.41007249
H      10.23195605      8.27281789      1.97777815
C      15.39270962     -4.78117011     11.50241807
C      14.51614395     -0.66347157     -7.16626359
H       3.65516247      4.02463790    -12.97387753
C      -1.10975658     11.45711666    -12.31053708
C      -0.68165156      9.91705290    -11.90785628
H      -0.60931517     12.54058658    -12.13791035
H      -2.10641565     11.91134642    -12.82039909
C      21.10630787      7.77326553     -4.67357986
H      -1.79574191      9.47336501    -11.72328462
C       0.63160661      8.92584723    -11.49653838
H      22.17934876      7.41761723     -4.72911620
H       0.10043899      8.59161473    -10.43511764
H     -12.50295077     -3.11062556    -15.51986444
H      14.74679351      0.47771313     -7.21787412
H      13.91402211     12.00390572    -13.64739801
C       6.30977377     -3.96494426      1.03719190
C       7.19022238     -3.87979480      2.24704467
H      13.68419243     11.26907583    -13.77231106
C      14.20538012     -2.20106958     -7.09672322
H      15.02600014     -2.98384111     -6.71963538
H      21.49933979      0.30763831    -17.48028780
H      13.13903800     -2.63409308     -7.41882406
H      -0.49094209     -1.24347751    -17.83753931
C       3.10076034      5.05348047    -12.82742704
C      -0.77967158     -2.31922159    -17.40880953
C       2.53447347      6.55003696    -12.78483346
H       3.11785519      6.88324073    -13.78263786
H      -0.64460981      1.57556605     -4.17831590
C       0.24997363     15.55570298      2.29823224
C       0.74318128     14.67033570      1.15038781
C       3.02511946      7.99276716    -11.10298598
H       7.87290899     24.05422568      4.85116451
C       1.66035280      7.55587201    -11.77256268
H       1.40967438      9.87674006    -11.46246610
H       1.11597890     14.00124449      0.28266174
H      -0.12283152     16.22505879      3.16575098
H       4.70276573     10.77052090    -23.21390994
