   48
energy=      0.00000000
C      -3.85420964      2.26304752      0.80990347
C      -2.34415930      2.51677723      0.81660641
H      -4.99543831      2.07018333      0.80672085
H      -1.20258577      2.70748942      0.82355864
C     -11.11782253     -8.05607443     -0.14147579
C      -9.74419716     -7.43896314     -0.09738722
H      -8.69158365     -6.96589823     -0.06359732
C       9.54694662      4.75063617     -0.05756403
C      10.06677546      3.42907632      0.58521084
H      10.01361493      5.79833279      0.27177960
H       8.67776780      4.71739946     -0.87448375
C      10.53724530      2.16123120      1.24552066
C      12.52797677     -5.33176569     -5.55632313
H      12.70072708     -5.82757924     -4.50527905
C       1.47314566      9.29899618    -11.22835051
C       1.21067826      9.29243406     -9.61585554
H       2.29959854      9.85031269    -11.90336942
H       0.90188503      8.74792308    -12.13820605
C       1.95251298      9.71778282     -8.20819746
H       0.14696935      8.74906596     -9.45771427
C       1.59532568     10.42443923     -6.73112969
H       3.08110821      9.29061383     -8.29807722
H       0.90579583      9.53729432     -6.23588265
H      -2.76723650      1.07078699    -14.14600050
H      13.75248544     14.93836119     -9.62786572
H      13.99639542     14.63875117     -8.96143573
C      13.43183548     -4.50190925     -9.70549949
C      12.67361041     -4.45309728     -8.38049464
H      14.38381085     -4.97818206    -10.14754348
C      12.12185159     -4.55648178     -6.89911691
H      12.36518318     -3.39615821     -6.60766024
H       9.23269834      4.71015979    -13.85398179
H      11.07828065     -5.10635708     -7.21317662
H       8.00549942      5.40405200    -26.18796676
C      10.34623971      5.62892113    -25.74203403
C       8.84518562      6.03724216    -25.62407026
C      11.82532071      5.28933613    -25.92179010
H      12.94661381      5.06448565    -26.09094595
H       8.53410071      6.99036183    -24.97691912
C       2.34618186     12.42782907     -1.04312696
C       2.23983173     11.91513424     -2.52358503
C       2.69456100     11.38287723     -3.92153656
H       5.23026133     18.40216012      2.11941421
C       2.08502310     11.05445779     -5.33296587
H       1.50559857     11.63820268     -6.73829887
H       3.84422914     11.09742873     -3.89629543
H       2.19679338     13.57226483     -0.74421752
H       2.65056832     11.73797844     -0.11682458
   48
energy=      0.00000000
C      -3.93632397      2.09046904      0.86611384
C      -2.42627375      2.34419956      0.87281722
H      -5.07761380      1.89797897      0.86227683
H      -1.28475884      2.53528514      0.87911446
C     -11.22198622     -8.20786724     -0.15644691
C      -9.84837978     -7.59071387     -0.11235756
H      -8.79574559     -7.11769492     -0.07856851
C       9.90797123      4.41171139      0.08068673
C      10.42374251      3.09089533      0.72825551
H      10.37669283      5.45945537      0.40695175
H       9.04125855      4.37765532     -0.73881277
C      10.90204674      1.82097991      1.37889329
C      12.60898617     -5.61930345     -5.46760443
H      12.83424740     -6.14567607     -4.44287843
C       1.16669779      9.05365003    -12.59894459
C       0.87297054      9.00721396    -10.99993501
H       2.00748631      9.64680100    -13.21813553
H       0.60625847      8.48317025    -13.50020701
C       1.67640555      9.42113904     -9.63307882
H      -0.20254637      8.49285914    -10.81515079
C       1.24052706     10.15566181     -8.20540966
H       2.82347137      9.03796083     -9.69503634
H       0.49049834      9.35903471     -7.64643372
H      -3.36004378     -0.14255891    -14.86766027
H      13.79713075     15.09806051     -9.55053675
H      14.04104074     14.79845050     -8.88410676
C      13.60755004     -4.89077999     -9.51713144
C      12.81799056     -4.81081287     -8.20848977
H      14.47694280     -5.22643410    -10.19849961
C      12.14384642     -4.81308097     -6.77113712
H      12.29683357     -3.64169086     -6.45926805
H      11.12810516      4.47036555    -14.31779118
H      11.05598988     -5.29682567     -7.04534543
H       7.98992001      5.44922692    -26.58834297
C      10.33176900      5.68394252    -26.15353776
C       8.82954054      6.08566152    -26.02800955
C      11.81040679      5.34000616    -26.32866682
H      12.93125449      5.10613389    -26.48830996
H       8.51705099      7.03583768    -25.37721902
C       2.16916135     13.23623938      2.12776038
C       2.52171488     12.65472424      0.71229169
C       2.38835580     11.08718994     -5.46467205
H       7.46262121     23.43294133      4.63215634
C       1.90155563     10.61195448     -6.82005985
H       0.98350638     11.32954548     -8.45181906
H       3.07163945     12.19394752     -0.20629173
H       1.85751097     14.36675510      2.35646050
H       2.29597422     12.54769578      3.09458610
