   48
energy=      0.00000000
C       0.97642522      1.36107684     -9.34017196
C       2.57060757      1.44110057     -9.47130669
H      -0.18719266      1.47070899     -9.23124667
H       2.93630131      2.04453430     -8.47401234
C     -11.22202996     -8.20794802     -0.15645415
C      -9.84843893     -7.59076040     -0.11236415
H      -8.79578790     -7.11777886     -0.07857580
C      11.38626251     -1.69804293      6.76641048
C      11.87541188     -2.96649156      7.39725147
H      10.08788455      7.71037380      2.12050457
H       9.58388383      7.30110020      1.68821023
C      12.36447681     -4.23488314      8.02827262
C      13.98771308     -0.52247678     -6.48408605
H      10.49689359     -0.66300375    -17.27229006
C      -2.42439020     11.55811953    -11.56959055
C      -3.07230932     11.32874552    -10.09671149
H      -1.36427672     12.05442750    -11.84395372
H      -2.88883002     11.27461510    -12.64343692
C      20.95959821      7.59286140     -4.71633821
H      -3.58758978     10.23179288    -10.04438833
C      -3.14783106     12.30684639     -8.76421035
H      22.03263910      7.23721310     -4.77187455
H      -4.00000402     12.01840725     -7.92941370
H      -7.29932296     -2.15679267    -15.56288637
H      14.22067703      0.62002182     -6.53594252
H      13.50007439     11.22390539    -14.09933150
C       4.72689341     -0.75681183     -9.38093561
C       3.54790038      0.18625509     -9.46953256
H      13.27024471     10.48907550    -14.22424455
C      13.67661306     -2.06084101     -6.41476149
H      14.06188908     -3.14152145     -6.15569379
H      21.49933979      0.30763831    -17.48028780
H      12.90023128     -2.92769637     -6.58595853
H       7.91498782     -1.18136848    -19.73084511
C      10.00318123     -0.30464015    -18.30037754
C       8.74429681     -0.98047836    -18.93556464
C      10.31172280      0.81334020    -19.35649818
H      10.14959779      1.43157176    -20.33647997
H       2.77425784      1.96430698    -10.55724154
C       0.25070005     15.46888107      2.07142639
C       0.74390591     14.58351597      0.92358079
C      -0.74018166     12.62245162     -6.84093036
H       7.79442791     23.95819935      4.81673721
C      -1.83513919     12.40374664     -7.86044716
H      -3.45369702     13.46995715     -9.01004344
H       1.11645443     13.92253606      0.04955464
H      -0.12232315     16.14629424      2.93257315
H       4.77685159     17.67927563    -18.99362379
   48
energy=      0.00000000
C       0.89981416      1.30709225     -9.18301510
C       2.49095402      1.43094018     -9.31303204
H      -0.26793131      1.35960963     -9.08120766
H       2.86265389      2.06870279     -8.33925142
C     -11.22202996     -8.20794802     -0.15645415
C      -9.84843893     -7.59076040     -0.11236415
H      -8.79578790     -7.11777886     -0.07857580
C      11.38627666     -1.69809519      6.76642651
C      11.87541230     -2.96653455      7.39729679
H      10.08799884      7.71034389      2.12047152
H       9.58399812      7.30107029      1.68817718
C      12.36449097     -4.23493540      8.02828865
C      13.97030479     -0.61258819     -6.48008724
H       9.27666659      1.01315993    -17.93898975
C      -2.42754204     11.57622957    -11.56078618
C      -3.07138111     11.33547561    -10.08818960
H      -1.35377252     12.04665330    -11.82861118
H      -2.91148642     11.32889842    -12.63483539
C      20.96073587      7.59418986     -4.71608920
H      -3.54844647     10.22180233    -10.02375761
C      -3.17128553     12.32731626     -8.76786316
H      22.03377677      7.23854156     -4.77162555
H      -4.03686966     12.05560676     -7.94124569
H      -7.30387761     -2.15831081    -15.56578933
H      14.20266362      0.53113191     -6.53181647
H      13.90946637     12.00305367    -13.65003106
C       4.57901730     -0.83506438     -9.23886116
C       3.43551899      0.15183875     -9.30006162
H      13.67963669     11.26822378    -13.77494411
C      13.65870283     -2.15464524     -6.41046248
H      14.35469476     -3.05627579     -6.06330869
H      21.49933979      0.30763831    -17.48028780
H      12.66240831     -2.74373375     -6.69023293
H       7.25543664      2.65556203    -19.55375403
C       9.13017860      1.90422940    -18.72317336
C       8.17940794      3.17421256    -19.01611835
C      10.03812495      1.19969619    -19.78186864
H      10.45743671      1.05707712    -20.85248126
H       2.70745831      1.96214583    -10.39251404
C       0.25094737     15.47050589      2.07216426
C       0.74415394     14.58513962      0.92431922
C      -0.72590503     12.60899088     -6.88231137
H       7.79507763     23.95899425      4.81703295
C      -1.85581846     12.41805386     -7.86798471
H      -3.47945522     13.48861140     -9.01921963
H       1.11678412     13.92160800      0.05226326
H      -0.12201022     16.14539522      2.93531904
H       7.94550091      4.36028965    -19.02808803
