   48
energy=      0.00000000
C      -0.67666781      3.54427270     -4.23868768
C      -0.76462549      2.16768067     -3.49537916
H      -1.73679027      4.03351877     -4.46700413
H       6.81839612     -6.31103832     -1.76515882
C       0.60440464     -4.48079001    -11.66908419
C       0.62653441     -6.01512466    -11.93021593
H      -0.59562085     -4.36820364    -13.98613694
C       2.36913682     -3.86452513     -9.29505430
C       0.54497292      4.32764169     -4.83178144
H      11.96370767      8.67135178      2.92240545
H      11.45986288      8.26235642      2.49024174
C       1.44457431      4.99483751     -5.92671292
C      20.32316200     -0.03960495     -5.93776884
H      -0.85565904      7.93520900    -19.55829066
C       2.38782671      9.55950724    -10.34628019
C       2.91680909      8.75560193     -9.10878601
H       2.62803099     10.46287439    -11.04027387
H      10.32440520      2.73600697    -14.53429270
C      22.36422602     11.70451952     -4.01822955
H       1.49149716      4.32852024     -6.90938270
C      -4.46867838     18.68858392     -3.80723511
H      23.43726691     11.34887123     -4.07376589
H      -5.11956839     17.90338270     -3.24689017
H     -13.44119247     -3.09089256    -15.32082243
H      20.24138161      1.10990434     -6.09940287
H      14.82805117     14.17574843    -13.52509055
C      -0.29909111     -4.60818307    -10.40962693
C       1.71924543     -3.95583276    -10.66698852
H      14.59822149     13.44091854    -13.65000360
C      16.80168383    -11.23843549     -6.88984693
H      20.40561075     -1.18903496     -5.77591067
H      11.00899148      2.44027776    -14.76515988
H      15.79029059    -11.64443934     -7.19590016
H       0.25046165     -3.07975998    -13.97230966
C       2.23260834      6.33783301     -6.09415274
C       0.13607178     -3.93387284    -13.14116610
C       3.12140711      7.48040463     -6.70604571
H       3.47437618      9.83129983     -7.06442206
H      -1.02014235      1.15649629     -2.97252502
C       2.79987368      8.88912289     -7.47924459
C       0.02084519     10.66314702      4.29592870
C       4.55115563      6.91083783     -6.56664001
H       8.58633138     24.89849718      4.98160510
C       3.87175270      7.76426470     -9.80751110
H      -3.81778836     19.47378515     -4.36758004
H      -0.88114211     10.03205736      4.55611947
H       1.73908333      9.35906172     -7.07917756
H       7.04770985     12.14270472    -27.54789268
   48
energy=      0.00000000
C      -2.79532438      1.11525881     -1.67815760
C      -2.90627945     -0.21657222     -0.98304895
H      -0.58104722      4.79326017     -5.05404272
H       7.08896229     -6.68306802     -1.49013820
C       0.59790401     -4.65038748    -11.85466501
C       0.78865409     -6.18220537    -12.06845291
H      -0.59959744     -4.52416349    -14.12813702
C       2.48145466     -3.92888103     -9.58952108
C       0.47155363      5.09778515     -5.45852144
H      11.96370767      8.67135178      2.92240545
H      11.45986288      8.26235642      2.49024174
C       1.64777831      5.58623641     -6.37428168
C      20.32328721     -0.03959010     -5.93772685
H      -0.85565904      7.93520900    -19.55829066
C       2.84771106     10.21338569    -10.74347481
C       3.31350838      9.32087307     -9.54009313
H       2.87948249     11.05387750    -11.54963601
H      10.42997470      2.65555154    -14.62766806
C      22.36422602     11.70451952     -4.01822955
H       1.84875815      4.85750169     -7.28981755
C      -4.46867838     18.68858393     -3.80723511
H      23.43726691     11.34887123     -4.07376589
H      -5.11956839     17.90338270     -3.24689017
H     -13.44119247     -3.09089256    -15.32082243
H      20.24131900      1.10989696     -6.09942388
H      14.83160586     14.18560679    -13.52415689
C      -0.43824850     -4.68251978    -10.69170222
C       1.74222148     -4.11340449    -10.89952792
H      14.60177618     13.45077690    -13.64906994
C      16.99129835    -11.33776746     -7.00104298
H      20.40554814     -1.18904244     -5.77593166
H      11.11399132      2.36006841    -14.85834314
H      15.97990511    -11.74377131     -7.30709622
H       0.41726832     -3.11567884    -14.00792017
C       2.52724378      6.87335199     -6.54372821
C       0.15942502     -4.06340441    -13.31676555
C       3.43914255      8.01729380     -7.12457324
H       3.83238385     10.37172455     -7.50212117
H      -3.11556731     -1.22498370     -0.46151501
C       3.15549793      9.42851425     -7.91179277
C       0.05222319     10.94717851      4.53415550
C       4.87902464      7.49085816     -6.93055718
H       8.58633138     24.89849718      4.98160510
C       4.21014932      8.31671851    -10.29533177
H      -3.81778836     19.47378515     -4.36758004
H      -0.84976411     10.31608885      4.79434627
H       2.08355770      9.90662375     -7.55159517
H       7.04770985     12.14270472    -27.54789268
