   48
energy=      0.00000000
C      -3.93625110      2.09029363      0.86651858
C      -2.42620091      2.34402442      0.87322212
H      -5.07761483      1.89825979      0.86188261
H      -1.28475832      2.53556611      0.87872018
C     -11.22203061     -8.20794658     -0.15645412
C      -9.84843743     -7.59076373     -0.11236422
H      -8.79578875     -7.11777698     -0.07857577
C      10.42924880      3.90322829      1.88043686
C      10.94032193      2.58335278      2.53363228
H      10.90033633      4.95103681      2.20307191
H       9.56541785      3.86802104      1.05795170
C      11.42755979      1.31099498      3.17277156
C      12.75318086     -6.02919829     -5.40270485
H      13.08067763     -6.61237585     -4.43965773
C      -1.27129827     10.51709930    -12.35290852
C      -1.76565329     10.51022776    -10.79939855
H      -0.37985649     11.08358644    -12.92304744
H      -1.74586559      9.93805330    -13.29877136
C       8.87928715      5.95089934     -9.52388225
H      -2.67750729      9.71513682    -10.81619446
C      -1.53204422     11.24888965     -9.32837232
H       9.95235354      5.59524663     -9.57940773
H      -2.10861191     10.51327358     -8.53879400
H      -3.37306219     -0.17671330    -14.88444509
H      14.88464578     16.53667392     -9.62519316
H      15.12855577     16.23706391     -8.95876317
C      13.87410410     -5.43961392     -9.29585179
C      13.06103450     -5.33097422     -8.00058472
H      14.56691714     -5.58045343    -10.21112726
C      12.22164456     -5.18878092     -6.65729151
H      12.24367234     -4.00258124     -6.36287999
H      17.85494914      0.95201676    -17.27262890
H      11.08681950     -5.56076222     -6.91813721
H       7.53164570      6.21338862    -23.60378862
C       8.60217630      7.06961658    -21.36158957
C       7.88904542      7.02361203    -22.80624645
C      10.06053244      6.65370616    -21.77614041
H      10.86109988      6.34025281    -22.57205520
H       7.86415176      7.66837593    -23.80770445
C       2.16865506     13.41731948      1.95988506
C       2.64585121     12.58648441      0.76676166
C      -0.09428091     12.01094834     -6.70933294
H       7.47570504     23.45972914      4.64026364
C      -0.57233693     11.57701263     -8.08715200
H      -1.68554081     12.44199409     -9.56650499
H       3.01194634     12.14610702     -0.23851721
H       1.79715009     14.33608789      2.55665583
H       8.29145426      7.32172067    -20.22283660
   48
energy=      0.00000000
C      -3.93624710      2.09026866      0.86656231
C      -2.42619691      2.34399946      0.87326585
H      -5.07761887      1.89828475      0.86183888
H      -1.28476228      2.53559108      0.87867645
C     -11.22203038     -8.20794708     -0.15645413
C      -9.84843795     -7.59076257     -0.11236420
H      -8.79578846     -7.11777763     -0.07857578
C      10.47019954      3.80188239      2.37044385
C      10.98078912      2.48211242      3.02423078
H      10.94152661      4.84970217      2.69269295
H       9.60666875      3.76653479      1.54764989
C      11.46893281      1.20948869      3.66214842
C      12.79989965     -6.19031406     -5.38529747
H      13.14254312     -6.78154677     -4.43267685
C      -1.64964881     10.46524856    -11.99998763
C      -2.17705182     10.43228580    -10.45912878
H      -0.73870949     11.04834835    -12.52085062
H      -2.10731822      9.90136596    -12.96271790
C       9.20671854      5.97060881     -8.98611502
H      -3.07381954      9.61859243    -10.47717654
C      -1.94939750     11.19499992     -9.00117833
H      10.27978492      5.61495610     -9.04164050
H      -2.54521499     10.49240525     -8.19577455
H      -3.37306219     -0.17671330    -14.88444509
H      15.18042120     16.61312841     -9.35364896
H      15.42433119     16.31351840     -8.68721897
C      13.93365312     -5.61630527     -9.25864346
C      13.11694007     -5.50274873     -7.96605083
H      14.60522534     -5.73823597    -10.19236813
C      12.26148965     -5.34640559     -6.63441925
H      12.27087355     -4.15919579     -6.34331807
H      17.86141545      0.94769594    -17.27080722
H      11.12331997     -5.70759902     -6.89597751
H       7.99573253      5.15738319    -25.27193795
C       9.27204343      6.08670647    -23.36275455
C       8.42183091      6.09618047    -24.67821220
C      10.75675155      5.71297839    -23.46211205
H      11.61367746      5.39744626    -24.18243618
H       8.40377250      6.93419560    -25.52217950
C       2.16520826     13.45295795      1.92643483
C       2.65062219     12.59418229      0.75604530
C      -0.42294651     11.93431697     -6.43144000
H       7.47570512     23.45972930      4.64026370
C      -0.94043383     11.51054941     -7.79744646
H      -2.11832459     12.38534690     -9.24508027
H       3.01542617     12.11928217     -0.23413160
H       1.79234699     14.31957628      2.59643861
H       6.70216011     15.09506216    -17.24965586
