   48
energy=      0.00000000
C       3.90447683      2.22628385    -13.26564112
C       5.47476350      1.98523401    -13.60364029
H       2.83770232      2.63794453    -12.94071880
H       5.61094560      2.28827568    -12.42826706
C     -11.22202998     -8.20794797     -0.15645415
C      -9.84843888     -7.59076052     -0.11236416
H      -8.79578793     -7.11777880     -0.07857580
C      10.29543443      3.46696493      3.49757465
C      10.80462308      2.14752693      4.15312244
H      10.76743694      4.51484005      3.81865566
H       9.43278573      3.43114546      2.67387739
C      11.29535363      0.87406531      4.78737292
C      12.79710162     -6.26400912     -5.33517709
H      13.27459585     -6.91650335     -4.49611997
C      -2.17759130     11.12567441    -11.47341046
C      -2.81268601     10.97442966     -9.98380439
H      -1.18742436     11.71064018    -11.81970836
H      -2.58536294     10.68514693    -12.51801966
C      13.85438240      6.92516859     -6.86808824
H      -3.54058168     10.00482055     -9.99214236
C      -2.73735813     11.86006275     -8.58542673
H      14.92744879      6.56951589     -6.92361372
H      -3.49569369     11.41717021     -7.72926428
H      -6.18082367     -1.79741153    -15.00117075
H      15.73213028     18.56295469     -9.63044680
H      15.97604026     18.26334467     -8.96401681
C       8.96800011     -0.88716154    -12.78944565
C       7.94080852      0.15143487    -13.37563190
H       9.72869017     -1.67600386    -12.35593270
C      12.03864280     -5.34017210     -6.35299116
H      12.31081564     -4.18083371     -6.45454811
H      18.07314435      0.92798688    -17.34681077
H      11.14314424     -5.76413204     -7.02141692
H       6.49041325      0.08490078    -14.81269515
C       7.34901697      1.85679441    -15.43222563
C       6.80435656      1.05110214    -14.14798405
C       7.13282050      2.61685480    -16.76986842
H       6.79822228      3.20857320    -17.71602214
H       5.10701513      2.76759841    -14.47079175
C       2.20694455     13.54915936      1.97154860
C       2.70008225     12.66401093      0.82353912
C      -0.65429479     12.39560305     -6.38627902
H       7.50046474     23.51045263      4.65652913
C      -1.49174491     12.04027902     -7.59933304
H      -3.00912933     13.03481690     -8.81625496
H       3.07123989     12.03876516     -0.07695723
H       1.83327390     14.26111147      2.80406181
H       6.80963089     15.62342162    -17.39255267
   48
energy=      0.00000000
C       3.59741717      1.78210747    -13.30112557
C       5.17427963      1.63961555    -13.63847805
H       2.50614829      2.14867267    -13.02254140
H       5.46983433      1.91530740    -12.47794796
C     -11.22202997     -8.20794799     -0.15645415
C      -9.84843890     -7.59076047     -0.11236416
H      -8.79578792     -7.11777882     -0.07857580
C       9.76679038      3.21685225      4.27543927
C      10.27590201      1.89743520      4.93108907
H      10.23882789      4.26473305      4.59645048
H       8.90419152      3.18100010      3.45169132
C      10.76677102      0.62391976      5.56512430
C      12.78209136     -6.26034429     -5.31945720
H      13.28648269     -6.92389364     -4.50503826
C      -2.16946820     11.13135903    -11.45896583
C      -2.81135529     10.96522003     -9.97403863
H      -1.16816615     11.70700778    -11.78907629
H      -2.58022386     10.71325252    -12.51138450
C      17.00045176      5.42076268     -4.31180172
H      -3.50466926      9.97050300     -9.97420114
C      -2.76330641     11.86807592     -8.58605699
H      18.07351814      5.06510997     -4.36732721
H      -3.54106701     11.45924445     -7.72999017
H      -6.18082367     -1.79741153    -15.00117075
H      16.52112107     20.97094328     -8.87738403
H      13.40290218     11.05743465    -14.05501488
C       8.54978240     -1.09937284    -12.90510683
C       7.54735833     -0.11912683    -13.49473389
H      13.17307240     10.32260456    -14.17992815
C      12.03295532     -5.33980346     -6.34737199
H      12.31337477     -4.18362359     -6.46150673
H      18.42778053      0.39517267    -17.70310256
H      11.14709415     -5.76501853     -7.02770598
H       6.08264674     -0.37060995    -14.85563795
C       7.06089144      1.45278387    -15.53778694
C       6.40087420      0.67101404    -14.30067989
C       6.93751106      2.23530400    -16.86435493
H       6.56551844      2.82084839    -17.79649363
H       4.85722407      2.48606073    -14.46242859
C       2.20678724     13.55404999      1.96771161
C       2.69996068     12.66878416      0.81979467
C      -0.61103844     12.36492301     -6.44076005
H       7.50046479     23.51045273      4.65652916
C      -1.49810576     12.02842391     -7.62244081
H      -3.04446729     13.04063398     -8.81672983
H       3.07154398     12.03364898     -0.07358273
H       1.83324918     14.25656367      2.80826968
H       4.81712935     17.64722684    -18.97088396
