   48
energy=      0.00000000
C       2.92928832      3.31681511    -13.02263485
C       3.83363166      3.64192776    -14.33541506
H       2.34547606      3.11724487    -12.00398069
H       4.45602414      2.89871301    -13.60622461
C     -11.22203004     -8.20794783     -0.15645414
C      -9.84843873     -7.59076084     -0.11236416
H      -8.79578801     -7.11777862     -0.07857580
C      10.35453782      3.53070137      3.31539512
C      10.86408438      2.21117227      3.97048120
H      10.82637259      4.57855643      3.63678722
H       9.49166069      3.49501807      2.49193094
C      11.35416285      0.93794218      4.60569993
C      12.80721482     -6.25045910     -5.39545843
H      13.18889840     -6.86197648     -4.47130280
C      -2.20541422     11.10987712    -11.51726182
C      -2.80932510     11.00441543    -10.01023478
H      -1.24637992     11.70941741    -11.92038413
H      -2.61990011     10.61171660    -12.53347552
C      12.65937257      6.47131637     -7.59189392
H      -3.62540697     10.10811562    -10.03214582
C      -2.65611337     11.83923445     -8.58550549
H      13.73243895      6.11566366     -7.64741939
H      -3.34792792     11.28483029     -7.73968746
H      -6.18082367     -1.79741153    -15.00117075
H      15.65105399     18.05620417     -9.53339163
H      15.89496397     17.75659415     -8.86696164
C      13.96652444     -5.70972845     -9.22126740
C      13.13826579     -5.58050690     -7.93776835
H      14.59617515     -5.79884908    -10.18730973
C      12.25130577     -5.39772097     -6.63043461
H      12.23494489     -4.20903415     -6.34556353
H      17.86972878      0.93820686    -17.28794952
H      11.10737508     -5.73849689     -6.89443181
H       4.09995906      3.72689159    -16.82139039
C       5.82452923      3.83019654    -16.89814994
C       4.67565935      3.69892360    -15.78750801
C       6.56396437      4.00923471    -18.26497845
H       7.06916904      4.15477631    -19.31202968
H       3.08352962      4.59036736    -14.52832116
C       2.20752211     13.52708250      1.98832704
C       2.70018027     12.64354947      0.83896592
C      -0.79920031     12.47764381     -6.22312329
H       7.50028839     23.51008991      4.65641467
C      -1.49095113     12.08309393     -7.51619181
H      -2.89004159     13.02069949     -8.82291419
H       3.06921203     12.06197509     -0.09114078
H       1.83359604     14.28040206      2.78343561
H       6.80963089     15.62342162    -17.39255267
   48
energy=      0.00000000
C       3.90447683      2.22628385    -13.26564112
C       5.47476350      1.98523401    -13.60364029
H       2.83770232      2.63794453    -12.94071880
H       5.61094560      2.28827568    -12.42826706
C     -11.22202998     -8.20794797     -0.15645415
C      -9.84843888     -7.59076052     -0.11236416
H      -8.79578793     -7.11777880     -0.07857580
C      10.29543443      3.46696493      3.49757465
C      10.80462308      2.14752693      4.15312244
H      10.76743694      4.51484005      3.81865566
H       9.43278573      3.43114546      2.67387739
C      11.29535363      0.87406531      4.78737292
C      12.79710162     -6.26400912     -5.33517709
H      13.27459585     -6.91650335     -4.49611997
C      -2.17759130     11.12567441    -11.47341046
C      -2.81268601     10.97442966     -9.98380439
H      -1.18742436     11.71064018    -11.81970836
H      -2.58536294     10.68514693    -12.51801966
C      13.85438240      6.92516859     -6.86808824
H      -3.54058168     10.00482055     -9.99214236
C      -2.73735813     11.86006275     -8.58542673
H      14.92744879      6.56951589     -6.92361372
H      -3.49569369     11.41717021     -7.72926428
H      -6.18082367     -1.79741153    -15.00117075
H      15.73213028     18.56295469     -9.63044680
H      15.97604026     18.26334467     -8.96401681
C       8.96800011     -0.88716154    -12.78944565
C       7.94080852      0.15143487    -13.37563190
H       9.72869017     -1.67600386    -12.35593270
C      12.03864280     -5.34017210     -6.35299116
H      12.31081564     -4.18083371     -6.45454811
H      18.07314435      0.92798688    -17.34681077
H      11.14314424     -5.76413204     -7.02141692
H       6.49041325      0.08490078    -14.81269515
C       7.34901697      1.85679441    -15.43222563
C       6.80435656      1.05110214    -14.14798405
C       7.13282050      2.61685480    -16.76986842
H       6.79822228      3.20857320    -17.71602214
H       5.10701513      2.76759841    -14.47079175
C       2.20694455     13.54915936      1.97154860
C       2.70008225     12.66401093      0.82353912
C      -0.65429479     12.39560305     -6.38627902
H       7.50046474     23.51045263      4.65652913
C      -1.49174491     12.04027902     -7.59933304
H      -3.00912933     13.03481690     -8.81625496
H       3.07123989     12.03876516     -0.07695723
H       1.83327390     14.26111147      2.80406181
H       6.80963089     15.62342162    -17.39255267
