   48
energy=      0.00000000
C      -7.79057760      1.92307741     -0.26619229
C      -6.89222530      2.91596837     -0.95666131
H       4.43831809      3.97207067     -2.53193940
H       7.63298645     -9.06270252     -1.14289730
C       0.23167466     -5.28853085    -12.49686986
C       0.46470945     -6.80656131    -12.52100397
H      -1.13532568     -4.66071344    -14.46711973
C       2.58309680     -3.84950664     -9.09059324
C       4.75566483      4.63065040     -6.35423666
H      13.27540360      9.51997521      4.09908593
H      12.77155882      9.11097985      3.66692222
C       4.92452039      3.10447987     -6.20015992
C      20.32338478     -0.03957852     -5.93769413
H      -1.76323596      7.66737057    -20.92450459
C       4.11402819     10.52365719    -10.59448871
C       4.57999519      9.24596947     -9.76556726
H       3.82790642     11.39852955    -11.33361490
H      12.15461631      1.79419429    -16.52714740
C      22.36422602     11.70451952     -4.01822955
H       5.00360143      2.01397605     -5.80571848
C      -4.46867838     18.68858393     -3.80723511
H      23.43726691     11.34887123     -4.07376589
H      -5.11956839     17.90338270     -3.24689018
H     -13.44119247     -3.09089256    -15.32082243
H      20.24127021      1.10989119     -6.09944024
H      15.59584980     14.49683442    -13.76427070
C       0.56518945     -4.74509030    -11.08181582
C       1.38903722     -4.22520267     -9.91659796
H      15.36602012     13.76200453    -13.88918375
C       5.07287771      5.80936780     -4.38014658
H      20.40549936     -1.18904823     -5.77594802
H      12.83863292      1.49871116    -16.75782247
H       6.24908161      5.87825723     -4.13864178
H       0.42169766     -3.47744896    -14.17813590
C       5.49408452      6.39891252     -8.43461259
C      -0.18355030     -4.43121086    -13.77635831
C       4.76427253      7.16969440     -7.32267030
H      -6.20407166      3.67710845     -1.48584721
H      -5.94890436     -8.23419838      3.62522520
C       4.38249405      8.43734796     -8.33879491
C       4.58741963      5.09134870     -2.96892631
C       4.80404315      6.16370880     -5.98431122
H       8.58633138     24.89849718      4.98160510
C       5.39790191      8.81373166    -11.00108643
H      -3.81778836     19.47378515     -4.36758004
H       4.39328299      5.41928244     -1.82668823
H       3.46060781      9.06724085     -7.92521249
H       7.11956648     12.18006490    -27.61292548
   48
energy=      0.00000000
C      -7.79053680      1.92304478     -0.26618610
C      -6.89231937      2.91604355     -0.95667556
H       3.63429739      6.52734016     -4.59144058
H       7.63298645     -9.06270252     -1.14289730
C       0.24913433     -5.29506903    -12.51489172
C       0.44200688     -6.81858187    -12.54286944
H      -1.18451431     -4.62784356    -14.42423314
C       2.53373737     -3.81447738     -9.00780432
C       5.08057129      4.06465513     -6.80493330
H      13.27540360      9.51997521      4.09908593
H      12.77155882      9.11097985      3.66692222
C       4.90364394      2.62832819     -6.33662606
C      20.32338478     -0.03957852     -5.93769413
H      -1.76323596      7.66737057    -20.92450459
C       4.71873708      9.80325267     -8.84081052
C       4.53218404      8.91871361     -7.53530891
H       4.56301054     10.23344192     -9.92755597
H      12.15461631      1.79419429    -16.52714740
C      22.36422602     11.70451952     -4.01822955
H       4.97007755      1.60719615     -5.80607712
C      -4.46867838     18.68858393     -3.80723511
H      23.43726691     11.34887123     -4.07376589
H      -5.11956839     17.90338270     -3.24689018
H     -13.44119247     -3.09089256    -15.32082243
H      20.24127021      1.10989119     -6.09944024
H      15.59584980     14.49683442    -13.76427070
C       0.63218959     -4.75644008    -11.11062974
C       1.42349711     -4.23221456     -9.92518990
H      15.36602012     13.76200453    -13.88918375
C       5.78501616      6.27205121     -5.39887655
H      20.40549936     -1.18904823     -5.77594802
H      12.83863292      1.49871116    -16.75782247
H       6.80563240      6.07624308     -4.76516679
H       0.43222271     -3.50730549    -14.22070490
C       5.60393189      6.13016627     -9.27919649
C      -0.19175200     -4.43235051    -13.78218153
C       4.73156547      6.40128526     -8.04411533
H      -6.20401839      3.67706591     -1.48583915
H      -5.94890436     -8.23419838      3.62522520
C       3.70129615      7.64466872     -7.99648273
C       4.56273647      7.26149407     -4.92689024
C       5.34688556      5.59581607     -6.80027981
H       8.58633138     24.89849718      4.98160510
C       4.70922815      8.48474845     -6.00579807
H      -3.81778836     19.47378515     -4.36758004
H       4.08389614      7.57720194     -3.85709815
H       2.51739778      7.91164012     -7.99014965
H       7.11956648     12.18006490    -27.61292548
