   48
energy=      0.00000000
C      -7.79096923      1.92339200     -0.26625240
C      -6.89132056      2.91524558     -0.95652437
H       4.12185156      2.46669679      0.57253210
H       7.63298645     -9.06270252     -1.14289730
C       0.20780214     -5.27882422    -12.46749958
C       0.51299670     -6.78428509    -12.48505754
H      -1.06461199     -4.69865454    -14.51209144
C       2.64008855     -3.91273406     -9.22995866
C       5.28470547      2.70583848     -3.10813076
H      13.27540360      9.51997521      4.09908593
H      12.77155882      9.11097985      3.66692222
C       5.18433953      2.26013627     -4.57206984
C      20.32338470     -0.03957853     -5.93769416
H      -1.76323596      7.66737057    -20.92450459
C       3.80881659     12.09522970    -12.53774426
C       4.34000387     10.76796182    -11.90154837
H       3.45030746     13.04017411    -13.11770142
H      12.15461631      1.79419429    -16.52714740
C      22.36422602     11.70451952     -4.01822955
H       4.85845851      1.59590077     -5.46332873
C      -4.46867838     18.68858393     -3.80723511
H      23.43726691     11.34887123     -4.07376589
H      -5.11956839     17.90338270     -3.24689018
H     -13.44119247     -3.09089256    -15.32082243
H      20.24127026      1.10989119     -6.09944022
H      15.59584980     14.49683442    -13.76427070
C       0.46031557     -4.72679538    -11.03893812
C       1.33695716     -4.21101612     -9.91055035
H      15.36602012     13.76200453    -13.88918375
C       5.35110148      2.58064496     -1.54954792
H      20.40549940     -1.18904823     -5.77594801
H      12.83863292      1.49871116    -16.75782247
H       6.16749272      1.71889905     -1.41497987
H       0.41239100     -3.44327386    -14.12118824
C       5.01415221      7.46658722     -9.69548557
C      -0.16940750     -4.42867597    -13.76320724
C       5.04553067      9.00011565     -9.75775934
H      -6.20458477      3.67751665     -1.48592404
H      -5.94890436     -8.23419838      3.62522520
C       4.10239362     10.05684478    -10.48982228
C       4.57107371      3.18383960     -0.27671973
C       6.24381430      9.41686446     -8.89804481
H       8.58633138     24.89849718      4.98160510
C       5.25206750     10.13982181    -12.96596963
H      -3.81778836     19.47378515     -4.36758004
H       4.32530950      4.28813311      0.12685735
H       3.12867936     10.35453118     -9.85735670
H       7.11956648     12.18006490    -27.61292548
   48
energy=      0.00000000
C      -7.79057760      1.92307741     -0.26619229
C      -6.89222530      2.91596837     -0.95666131
H       4.43831809      3.97207067     -2.53193940
H       7.63298645     -9.06270252     -1.14289730
C       0.23167466     -5.28853085    -12.49686986
C       0.46470945     -6.80656131    -12.52100397
H      -1.13532568     -4.66071344    -14.46711973
C       2.58309680     -3.84950664     -9.09059324
C       4.75566483      4.63065040     -6.35423666
H      13.27540360      9.51997521      4.09908593
H      12.77155882      9.11097985      3.66692222
C       4.92452039      3.10447987     -6.20015992
C      20.32338478     -0.03957852     -5.93769413
H      -1.76323596      7.66737057    -20.92450459
C       4.11402819     10.52365719    -10.59448871
C       4.57999519      9.24596947     -9.76556726
H       3.82790642     11.39852955    -11.33361490
H      12.15461631      1.79419429    -16.52714740
C      22.36422602     11.70451952     -4.01822955
H       5.00360143      2.01397605     -5.80571848
C      -4.46867838     18.68858393     -3.80723511
H      23.43726691     11.34887123     -4.07376589
H      -5.11956839     17.90338270     -3.24689018
H     -13.44119247     -3.09089256    -15.32082243
H      20.24127021      1.10989119     -6.09944024
H      15.59584980     14.49683442    -13.76427070
C       0.56518945     -4.74509030    -11.08181582
C       1.38903722     -4.22520267     -9.91659796
H      15.36602012     13.76200453    -13.88918375
C       5.07287771      5.80936780     -4.38014658
H      20.40549936     -1.18904823     -5.77594802
H      12.83863292      1.49871116    -16.75782247
H       6.24908161      5.87825723     -4.13864178
H       0.42169766     -3.47744896    -14.17813590
C       5.49408452      6.39891252     -8.43461259
C      -0.18355030     -4.43121086    -13.77635831
C       4.76427253      7.16969440     -7.32267030
H      -6.20407166      3.67710845     -1.48584721
H      -5.94890436     -8.23419838      3.62522520
C       4.38249405      8.43734796     -8.33879491
C       4.58741963      5.09134870     -2.96892631
C       4.80404315      6.16370880     -5.98431122
H       8.58633138     24.89849718      4.98160510
C       5.39790191      8.81373166    -11.00108643
H      -3.81778836     19.47378515     -4.36758004
H       4.39328299      5.41928244     -1.82668823
H       3.46060781      9.06724085     -7.92521249
H       7.11956648     12.18006490    -27.61292548
