   48
energy=      0.00000000
C       3.59741717      1.78210747    -13.30112557
C       5.17427963      1.63961555    -13.63847805
H       2.50614829      2.14867267    -13.02254140
H       5.46983433      1.91530740    -12.47794796
C     -11.22202997     -8.20794799     -0.15645415
C      -9.84843890     -7.59076047     -0.11236416
H      -8.79578792     -7.11777882     -0.07857580
C       9.76679038      3.21685225      4.27543927
C      10.27590201      1.89743520      4.93108907
H      10.23882789      4.26473305      4.59645048
H       8.90419152      3.18100010      3.45169132
C      10.76677102      0.62391976      5.56512430
C      12.78209136     -6.26034429     -5.31945720
H      13.28648269     -6.92389364     -4.50503826
C      -2.16946820     11.13135903    -11.45896583
C      -2.81135529     10.96522003     -9.97403863
H      -1.16816615     11.70700778    -11.78907629
H      -2.58022386     10.71325252    -12.51138450
C      17.00045176      5.42076268     -4.31180172
H      -3.50466926      9.97050300     -9.97420114
C      -2.76330641     11.86807592     -8.58605699
H      18.07351814      5.06510997     -4.36732721
H      -3.54106701     11.45924445     -7.72999017
H      -6.18082367     -1.79741153    -15.00117075
H      16.52112107     20.97094328     -8.87738403
H      13.40290218     11.05743465    -14.05501488
C       8.54978240     -1.09937284    -12.90510683
C       7.54735833     -0.11912683    -13.49473389
H      13.17307240     10.32260456    -14.17992815
C      12.03295532     -5.33980346     -6.34737199
H      12.31337477     -4.18362359     -6.46150673
H      18.42778053      0.39517267    -17.70310256
H      11.14709415     -5.76501853     -7.02770598
H       6.08264674     -0.37060995    -14.85563795
C       7.06089144      1.45278387    -15.53778694
C       6.40087420      0.67101404    -14.30067989
C       6.93751106      2.23530400    -16.86435493
H       6.56551844      2.82084839    -17.79649363
H       4.85722407      2.48606073    -14.46242859
C       2.20678724     13.55404999      1.96771161
C       2.69996068     12.66878416      0.81979467
C      -0.61103844     12.36492301     -6.44076005
H       7.50046479     23.51045273      4.65652916
C      -1.49810576     12.02842391     -7.62244081
H      -3.04446729     13.04063398     -8.81672983
H       3.07154398     12.03364898     -0.07358273
H       1.83324918     14.25656367      2.80826968
H       4.81712935     17.64722684    -18.97088396
   48
energy=      0.00000000
C       2.23615826      1.58826282     -9.82950173
C       3.82950625      1.49038050     -9.97636803
H       1.12531128      1.93734734     -9.65785115
H       4.14363045      1.94815738     -8.89527052
C     -11.22202996     -8.20794801     -0.15645415
C      -9.84843891     -7.59076043     -0.11236416
H      -8.79578791     -7.11777884     -0.07857580
C       9.75709594      3.21352761      4.28686890
C      10.26612510      1.89413401      4.94262991
H      10.22917008      4.26141554      4.60780321
H       8.89455096      3.17763798      3.46306626
C      10.75714099      0.62055790      5.57642951
C      12.95506976     -6.41388882     -5.19910418
H      13.48110800     -7.08595290     -4.40554930
C      -2.16796039     11.15370124    -11.43869038
C      -2.81618950     10.96709014     -9.95921545
H      -1.15004677     11.71197545    -11.74822074
H      -2.58793771     10.77072860    -12.50049951
C      17.03363331      5.41716763     -4.31934596
H      -3.45753544      9.93806453     -9.94535085
C      -2.80659294     11.89399857     -8.58711992
H      18.10669969      5.06151492     -4.37487145
H      -3.60938813     11.52876941     -7.73406124
H      -6.54126799     -1.89908496    -15.11874790
H      16.56662635     21.11800327     -8.80178819
H      13.51417358     11.20000109    -14.04777700
C       6.20832559     -0.48678273     -9.73007460
C       5.00132710      0.40074836     -9.98043647
H      13.28434385     10.46517119    -14.17269024
C      12.21433097     -5.49637228     -6.23591383
H      12.50106669     -4.34268764     -6.35905469
H      19.91575375      0.26162927    -17.60185988
H      11.33572166     -5.92281007     -6.92480104
H       7.80216196     -0.45222242    -19.56646996
C       8.85605399      1.64239622    -20.48641183
C       8.28281905      0.59754431    -19.54023577
C       8.74844734      2.36676909    -21.82158492
H       8.41594533      2.90221734    -22.78897435
H       3.85557259      2.09367006    -11.03767260
C       2.20662162     13.55943121      1.96349369
C       2.69981652     12.67409653      0.81562818
C      -0.56434688     12.33463942     -6.51518665
H       7.50046483     23.51045282      4.65652919
C      -1.51987352     12.02941669     -7.64952635
H      -3.09825300     13.06355451     -8.81978662
H       3.07183456     12.02806553     -0.06972419
H       1.83326891     14.25145340      2.81279658
H       4.80877309     17.65395761    -18.97564440
