   48
energy=      0.00000000
C      -0.67052638      3.52857816     -4.22214045
C      -0.77577545      2.15353027     -3.47747301
H      -1.73082195      4.01029446     -4.46505899
H       6.81839612     -6.31103832     -1.76515883
C       0.64024187     -4.43194003    -11.66428353
C       0.54556067     -5.95735354    -11.95150375
H      -0.55689177     -4.30725069    -14.01822574
C       2.32277020     -3.88856745     -9.21630176
C       0.54992247      4.32376143     -4.80401031
H      11.96370767      8.67135178      2.92240545
H      11.45986288      8.26235642      2.49024174
C       1.44312528      5.00472543     -5.89717453
C      20.32304482     -0.03961885     -5.93780813
H      -0.85565904      7.93520900    -19.55829066
C       2.27065732      9.49554150    -10.41588245
C       2.91150919      8.78712573     -9.11597169
H       2.71458183     10.46342744    -10.97542318
H       1.30484317      9.10029431    -11.01267013
C      22.36422602     11.70451952     -4.01822955
H       1.47698566      4.34425234     -6.88434487
C      -4.46867838     18.68858392     -3.80723512
H      23.43726691     11.34887123     -4.07376589
H      -5.11956839     17.90338270     -3.24689017
H     -13.44119247     -3.09089256    -15.32082243
H      20.24144020      1.10991121     -6.09938322
H      14.06178378     12.05123971    -13.72595613
C      -0.15722767     -4.62341923    -10.34667889
C       1.72293533     -3.92013998    -10.61766572
H      13.83195410     11.31640981    -13.85086918
C      16.80168383    -11.23843549     -6.88984693
H      20.40566933     -1.18902794     -5.77589104
H      21.56374031      0.33529275    -17.86753026
H      15.79029059    -11.64443934     -7.19590016
H       0.15422104     -3.15209344    -14.06085255
C       2.23665806      6.34451827     -6.07598320
C       0.15125712     -3.91129089    -13.14009842
C       3.11876112      7.48634651     -6.70342928
H       3.46846413      9.84331519     -7.04798154
H      -1.05515746      1.14695317     -2.95729071
C       2.79954736      8.90100305     -7.47311163
C       0.04767048     10.61432669      4.15599417
C       4.54747010      6.90426598     -6.60215074
H       8.58633138     24.89849718      4.98160510
C       3.88431243      7.76866707     -9.76574128
H      -3.81778836     19.47378515     -4.36758004
H      -0.85431682      9.98323703      4.41618493
H       1.74800189      9.37058898     -7.04346320
H       7.04770985     12.14270472    -27.54789268
   48
energy=      0.00000000
C      -0.67666781      3.54427270     -4.23868768
C      -0.76462549      2.16768067     -3.49537916
H      -1.73679027      4.03351877     -4.46700413
H       6.81839612     -6.31103832     -1.76515882
C       0.60440464     -4.48079001    -11.66908419
C       0.62653441     -6.01512466    -11.93021593
H      -0.59562085     -4.36820364    -13.98613694
C       2.36913682     -3.86452513     -9.29505430
C       0.54497292      4.32764169     -4.83178144
H      11.96370767      8.67135178      2.92240545
H      11.45986288      8.26235642      2.49024174
C       1.44457431      4.99483751     -5.92671292
C      20.32316200     -0.03960495     -5.93776884
H      -0.85565904      7.93520900    -19.55829066
C       2.38782671      9.55950724    -10.34628019
C       2.91680909      8.75560193     -9.10878601
H       2.62803099     10.46287439    -11.04027387
H      10.32440520      2.73600697    -14.53429270
C      22.36422602     11.70451952     -4.01822955
H       1.49149716      4.32852024     -6.90938270
C      -4.46867838     18.68858392     -3.80723511
H      23.43726691     11.34887123     -4.07376589
H      -5.11956839     17.90338270     -3.24689017
H     -13.44119247     -3.09089256    -15.32082243
H      20.24138161      1.10990434     -6.09940287
H      14.82805117     14.17574843    -13.52509055
C      -0.29909111     -4.60818307    -10.40962693
C       1.71924543     -3.95583276    -10.66698852
H      14.59822149     13.44091854    -13.65000360
C      16.80168383    -11.23843549     -6.88984693
H      20.40561075     -1.18903496     -5.77591067
H      11.00899148      2.44027776    -14.76515988
H      15.79029059    -11.64443934     -7.19590016
H       0.25046165     -3.07975998    -13.97230966
C       2.23260834      6.33783301     -6.09415274
C       0.13607178     -3.93387284    -13.14116610
C       3.12140711      7.48040463     -6.70604571
H       3.47437618      9.83129983     -7.06442206
H      -1.02014235      1.15649629     -2.97252502
C       2.79987368      8.88912289     -7.47924459
C       0.02084519     10.66314702      4.29592870
C       4.55115563      6.91083783     -6.56664001
H       8.58633138     24.89849718      4.98160510
C       3.87175270      7.76426470     -9.80751110
H      -3.81778836     19.47378515     -4.36758004
H      -0.88114211     10.03205736      4.55611947
H       1.73908333      9.35906172     -7.07917756
H       7.04770985     12.14270472    -27.54789268
