   48
energy=      0.00000000
C      -7.79052909      1.92303862     -0.26618493
C      -6.89233713      2.91605774     -0.95667825
H      18.98546799      0.50054097     -5.65563518
H       7.61094968     -9.33333971     -1.08569009
C       0.28903987     -5.30710010    -12.54739940
C       0.42431712     -6.83647917    -12.58573523
H      -1.28313592     -4.53556651    -14.30011592
C       2.41487791     -3.76155359     -8.87351325
C       7.56589184      1.19550937     -4.06294474
H      13.68323545      9.93760533      4.86306741
H      13.17939066      9.52860998      4.43090370
C       6.42307175      0.21507185     -4.11239034
C      20.10621603      0.08496809     -5.75138369
H      -1.76323596      7.66737057    -20.92450459
C       3.67169459     13.39387494    -10.27440978
C       3.74746896     12.49069104     -9.00157339
H       3.47406746     13.97501128    -11.26083473
H      12.10962698      1.79561597    -16.65920876
C      10.02910192      2.65281098     -3.86107240
H      10.80013705      1.76502994     -4.07919571
C      -4.46867838     18.68858393     -3.80723511
H      10.65131838      3.67724406     -3.78070063
H      -5.11956839     17.90338270     -3.24689018
H     -13.44119247     -3.09089256    -15.32082243
H      21.00692553      0.83900906     -5.99234267
H      15.59584980     14.49683442    -13.76427070
C       0.75457470     -4.77577170    -11.16554114
C       1.48106411     -4.24143071     -9.94399588
H      15.36602012     13.76200453    -13.88918375
C       7.60838779      3.29060923     -2.68921834
H      20.32658423     -1.08476559     -5.60620174
H      12.79364360      1.50013285    -16.88988384
H       7.15320654      3.75132278     -1.72477999
H       0.46045038     -3.59313562    -14.32500615
C       3.73744698      9.02395559    -10.63162916
C      -0.20467273     -4.43325994    -13.78720567
C       3.57685809      9.74982819     -9.28969242
H      -6.20400834      3.67705787     -1.48583763
H      -5.94890436     -8.23419838      3.62522520
C       2.88344421     11.14677532     -8.98722643
C       8.46477827      2.39568491     -3.64035228
C       4.22913098      9.02927250     -8.10486556
H       8.58633138     24.89849718      4.98160510
C       4.71696524     12.97005087     -7.86834749
H      -3.81778836     19.47378515     -4.36758004
H       5.45061987     13.30055087     -7.02705373
H       1.70932953     11.14240036     -8.73107317
H       7.11956648     12.18006490    -27.61292548
   48
energy=      0.00000000
C      -7.79052907      1.92303860     -0.26618493
C      -6.89233718      2.91605778     -0.95667826
H      19.18163530      0.46588627     -5.69768185
H       7.56774540     -9.78525327     -0.99727499
C       0.29310164     -5.30814871    -12.55023240
C       0.42478980     -6.83779832    -12.58993974
H      -1.29190086     -4.52462776    -14.28559326
C       2.40282554     -3.75768367     -8.86315801
C       7.75104605      0.78696872     -3.76648317
H      13.68545401      9.94114560      4.86681129
H      13.18160922      9.53215024      4.43464759
C       6.65409699     -0.24047084     -3.85997513
C      20.30237878      0.05031619     -5.79343014
H      -1.76323596      7.66737057    -20.92450459
C       3.50432592     13.20028854     -9.90149526
C       3.54745321     12.28758981     -8.66666007
H       2.90191103     19.89308494    -16.70935397
H      12.10962698      1.79561597    -16.65920876
C      10.21981970      2.19216156     -3.56189273
H      11.00644601      1.31864729     -3.78884433
C      -4.47284184     18.69173067     -3.80400808
H      10.81749331      3.23205092     -3.52118266
H      -5.12373185     17.90652944     -3.24366315
H     -13.44119247     -3.09089256    -15.32082243
H      21.20299925      0.80446648     -6.03439302
H      15.59584980     14.49683442    -13.76427070
C       0.76490458     -4.77733462    -11.17031557
C       1.48524240     -4.24199969     -9.94559551
H      15.36602012     13.76200453    -13.88918375
C       7.82611820      2.85137412     -2.31613914
H      20.52260919     -1.11944321     -5.64822484
H      12.79364360      1.50013285    -16.88988384
H       7.30179888      3.38143023     -1.42439464
H       0.46317868     -3.60345445    -14.33642243
C       3.54334025      8.81985896    -10.26687078
C      -0.20562677     -4.43325051    -13.78725624
C       3.39017902      9.53474414     -8.91922862
H      -6.20400830      3.67705785     -1.48583762
H      -5.94890436     -8.23419838      3.62522520
C       2.69785597     10.93947115     -8.64686175
C       8.65931147      1.95984103     -3.29308727
C       4.05396115      8.74048847     -7.78848665
H       8.58633138     24.89849718      4.98160510
C       4.51386901     12.78534685     -7.54474036
H      -3.82195182     19.47693189     -4.36435302
H       5.24596189     13.10002243     -6.69732721
H       1.52476063     10.95671574     -8.39175339
H       7.11956648     12.18006490    -27.61292548
