   48
energy=      0.00000000
C       0.32303182      2.39652326     -5.09610471
C       1.90672576      2.58978721     -5.22693080
H      -0.84505609      2.35648482     -5.00025869
H       2.28383283      3.26996781     -4.28410685
C       2.48297606     -1.47634686    -15.66916271
C       3.16068599     -2.78629597    -15.13612339
H       2.54264635     -3.33786925    -14.26170401
C      11.38628345     -1.69810669      6.76641949
C      11.87540337     -2.96653542      7.39732333
H      10.10273562      7.72008493      2.13345427
H       9.59873490      7.31081134      1.70115993
C      12.36449776     -4.23494690      8.02828164
C      13.95994232     -0.66544213     -6.47777780
H       5.60770561     -3.12346320    -15.26228978
C      -2.57385430     11.91158796    -11.64638750
C      -3.20630830     11.65271031    -10.17243135
H      -1.47571446     12.32682153    -11.90843427
H      -3.09768415     11.73624586    -12.71573607
C      20.96073597      7.59418997     -4.71608918
H      -3.61739833     10.51402252    -10.08718289
C      -3.34730262     12.66637928     -8.87313967
H      22.03377687      7.23854168     -4.77162553
H      -4.23541497     12.41744354     -8.06337081
H      -8.28571592     -2.27195735    -15.71677049
H      14.19101299      0.47592473     -6.52935059
H      13.90946637     12.00305367    -13.65003106
C       3.87563399      0.21174523     -5.16392429
C       2.81046869      1.28245787     -5.19945576
H      13.67963669     11.26822378    -13.77494411
C      13.64913814     -2.20348087     -6.40823604
H      14.46169456     -2.99510403     -6.03296969
H      21.49933979      0.30763831    -17.48028780
H      12.58698610     -2.64800900     -6.72757373
H       2.84629343     -0.35816075    -17.90453756
C       4.59815969     -2.94973644    -15.85655805
C       2.82048043     -0.35209176    -16.71711372
C       5.39595142     -2.60556684    -17.18143100
H       6.12644742     -2.16798180    -17.99236523
H       2.13535161      3.13663044     -6.29599169
C       0.25094677     15.47206383      2.07125230
C       0.74415403     14.58669680      0.92340767
C      -0.84946490     12.89556476     -7.04400231
H       7.79517918     23.95911849      4.81707916
C      -2.03108963     12.75187549     -7.97454258
H      -3.65795361     13.82471503     -9.13472870
H       1.11687712     13.92014775      0.05369545
H      -0.12192962     16.14395602      2.93677735
H       3.51495418      0.61104143    -16.71271076
   48
energy=      0.00000000
C       0.52043551      1.91421623     -4.73261354
C       2.02654543      1.94539748     -5.14733673
H      -0.63637204      1.86393758     -4.61484199
H      -1.23123344      9.96235906     -7.27087948
C       2.59804785     -1.44801076    -15.85228053
C       3.25467829     -2.75199201    -15.28025443
H       2.60910720     -3.34354997    -14.45902888
C      11.38628486     -1.69810764      6.76641649
C      11.87540055     -2.96653352      7.39732935
H      10.10281866      7.72001762      2.13345648
H       9.59881794      7.31074402      1.70116213
C      12.36449917     -4.23494785      8.02827863
C      13.95936697     -0.66862117     -6.47763828
H       5.63919902     -3.30191505    -15.11488207
C      -2.63966846     12.08613074    -11.66224878
C      -3.02430423     11.51605578    -10.18350992
H      -1.61683939     12.60019767    -12.02273948
H      -3.24041875     12.05564627    -12.70799580
C      20.96073597      7.59418997     -4.71608918
H      -3.79522024     10.60175977    -10.33480350
C      -2.78697348     11.86735838     -8.58035565
H      22.03377687      7.23854168     -4.77162553
H      -3.78066387     12.14835236     -7.91916259
H      -8.28571592     -2.27195735    -15.71677049
H      14.19023842      0.47258941     -6.52921512
H      13.90946637     12.00305367    -13.65003106
C       4.06589623     -0.28396684     -4.79714974
C       3.03828823      0.81507927     -4.81200902
H      13.67963669     11.26822378    -13.77494411
C      13.64860817     -2.20633755     -6.40809909
H      14.46720420     -2.99134844     -6.03147282
H      21.49933979      0.30763831    -17.48028780
H      12.58335634     -2.64239354     -6.72948254
H       2.58763709     -0.35919641    -18.02552535
C       4.74139854     -3.00584431    -15.83990764
C       2.80402377     -0.25727665    -16.85580691
C       5.45987915     -2.71536054    -17.21476847
H       6.10874149     -2.31128090    -18.10148777
H       2.40252882      2.77391220     -5.91185484
C       0.28452908     15.51242818      2.24592207
C       0.77773649     14.62706104      1.09807751
C      -0.68217461     11.95917566     -6.99244309
H       7.85463952     24.03186752      4.84332602
C      -1.67721773     11.00993478     -7.69007846
H      -2.86326473     13.08588851     -8.57955759
H       1.15048458     13.95967006      0.22902185
H      -0.08832398     16.18348148      3.11210777
H       3.41804401      0.73509241    -16.60345060
