   48
energy=      0.00000000
C       0.51967220      1.93703735     -4.27612591
C       2.02086965      1.97711571     -4.70863179
H      -0.62886635      1.90023831     -4.09146907
H      -1.36016143     10.03410187     -7.39999727
C       0.09105163      0.58946583    -16.11326636
C       0.37105419     -0.69141194    -15.33818064
H       0.04681443     -1.47996878    -14.56416574
C      11.38628571     -1.69810821      6.76641469
C      11.87539886     -2.96653238      7.39733294
H      10.20126749      7.79394082      2.21436936
H       9.69726677      7.38466722      1.78207502
C      12.36450001     -4.23494842      8.02827683
C      13.95924544     -0.66939418     -6.47760292
H      10.12843818     -6.33192746    -15.43999881
C      -2.62134385     12.05632308    -11.63343388
C      -3.06935463     11.46817520    -10.18058020
H      -1.59058987     12.57734332    -11.96894820
H      -3.24585660     12.08595656    -12.66340798
C      20.96073597      7.59418997     -4.71608918
H      -3.77663076     10.49985552    -10.35732577
C      -2.83360254     11.93571945     -8.60218652
H      22.03377687      7.23854168     -4.77162553
H      -3.83914940     12.02092168     -7.89552509
H     -11.16787996     -2.86975031    -15.58358744
H      14.19002470      0.47178663     -6.52918848
H      13.90946637     12.00305367    -13.65003106
C       4.05560090     -0.24684288     -4.28127652
C       3.03074875      0.85268967     -4.34791873
H      13.67963669     11.26822378    -13.77494411
C      13.64849152     -2.20703016     -6.40806318
H      14.46851876     -2.99045864     -6.03111347
H      21.49933979      0.30763831    -17.48028780
H      12.58249369     -2.64101495     -6.72993980
H      -0.11650439      1.66045115    -18.22441413
C       9.64047428     -6.01127134    -16.43757755
C       0.22123675      1.79255507    -17.08939205
C      10.06650270     -5.61774867    -17.85160066
H      10.71504356     -5.27574874    -18.74590952
H       2.41674019      2.85062506     -5.41137722
C       0.28451603     15.51268207      2.24571880
C       0.77772352     14.62731488      1.09787428
C      -0.57109420     11.91748033     -6.95523094
H       7.85465514     24.03188662      4.84333279
C      -1.67080742     11.15176269     -7.72747406
H      -2.76658222     13.16195609     -8.56702035
H       1.15048679     13.95940880      0.22922095
H      -0.08832262     16.18322158      3.11230850
H       0.75166912      2.79718744    -16.72954681
   48
energy=      0.00000000
C       0.52414308      1.92790411     -4.23506154
C       2.02369839      1.98908254     -4.67094702
H      -0.61001766      1.89425961     -3.97629157
H      -1.46469365     10.11738427     -7.41784792
C      -0.19567100     -1.02985037    -15.04179696
C       0.07391856     -2.34464409    -14.32940038
H      -0.91503345     -1.45320185    -16.52416042
C      11.38628666     -1.69810886      6.76641265
C      11.87539695     -2.96653108      7.39733703
H      10.23809616      7.82159052      2.24401158
H       9.73409544      7.41231692      1.81171724
C      12.36450096     -4.23494907      8.02827479
C      13.95921609     -0.66970021     -6.47758644
H      10.27640246     -6.51511033    -15.36452135
C      -2.67087668     12.08915274    -11.54019230
C      -3.14078664     11.48863385    -10.10262600
H      -1.60590323     12.55460032    -11.84991724
H      -3.31082252     12.18344913    -12.55557999
C      20.96073597      7.59418997     -4.71608918
H      -3.78119166     10.47410568    -10.29143143
C      -2.91229394     12.01395259     -8.54188782
H      22.03377687      7.23854168     -4.77162553
H      -3.93868599     12.02769454     -7.85806170
H     -12.20666481     -3.07960105    -15.54233651
H      14.18991396      0.47147761     -6.52918519
H      13.91402210     12.00390572    -13.64739801
C       4.04052488     -0.24395115     -4.16351335
C       3.02430335      0.85468356     -4.31600605
H      13.68419242     11.26907583    -13.77231106
C      13.64845785     -2.20730334     -6.40804593
H      14.46902565     -2.99013255     -6.03097170
H      21.49933979      0.30763831    -17.48028780
H      12.58216056     -2.64045280     -6.73011859
H      -0.48908460      0.31444677    -17.41327122
C      10.14048950     -6.18077316    -16.46387706
C      -0.46959139     -0.37844842    -16.43521335
C      10.43994124     -5.73915857    -17.89827479
H      10.94635721     -5.40919287    -18.88498370
H       2.43163253      2.89518376     -5.32410280
C       0.29573998     15.52446653      2.30058234
C       0.78894757     14.63909929      1.15273788
C      -0.55833879     11.92991554     -6.91005134
H       7.87290151     24.05421652      4.85116132
C      -1.71899650     11.26158590     -7.68574836
H      -2.80625755     13.24000446     -8.49521171
H       1.16172851     13.97059115      0.28455538
H      -0.07708170     16.19440503      3.16764406
H       3.54504596      9.73491571    -19.64603150
