   48
energy=      0.00000000
C      -7.79052920      1.92303871     -0.26618495
C      -6.89233689      2.91605755     -0.95667821
H      15.76828702      1.57954891     -5.35399086
H       7.63298645     -9.06270252     -1.14289730
C       0.28126554     -5.30501912    -12.54177952
C       0.42447989     -6.83374973    -12.57769088
H      -1.26563001     -4.55565510    -14.32698626
C       2.43805647     -3.76960121     -8.89479039
C       7.02094262      4.26145728     -6.03536790
H      13.27540360      9.51997521      4.09908594
H      12.77155882      9.11097985      3.66692223
C       5.76021610      3.41291214     -6.06437064
C      16.88907994      1.16394783     -5.44974146
H      -1.76323596      7.66737057    -20.92450459
C       5.50979096     10.44222042     -8.55723871
C       5.61507864      9.55852222     -7.28115564
H       5.21130842     11.00097588     -9.52721283
H      12.10962698      1.79561597    -16.65920876
C       9.48029982      5.93380908     -5.88396061
H      10.07245933      4.92407177     -6.06638387
C      -4.46867838     18.68858393     -3.80723511
H      10.26497792      6.84155418     -5.74768264
H      -5.11956839     17.90338270     -3.24689018
H     -13.44119247     -3.09089256    -15.32082243
H      17.79068190      1.91689116     -5.69066078
H      15.59584980     14.49683442    -13.76427070
C       0.73379496     -4.77260471    -11.15600395
C       1.47222464     -4.24018477     -9.94073987
H      15.36602012     13.76200453    -13.88918375
C       6.84750841      6.40372777     -5.03001990
H      17.11083055     -0.00552655     -5.30479364
H      12.79364360      1.50013285    -16.88988384
H       6.82701767      6.63369573     -3.85239171
H       0.45500958     -3.57424784    -14.30360922
C       5.54550212      6.14841883     -9.07072927
C      -0.20268500     -4.43323414    -13.78691182
C       5.38199578      6.86657047     -7.71781021
H      -6.20400847      3.67705798     -1.48583765
H      -5.94890436     -8.23419838      3.62522520
C       4.70529065      8.24538792     -7.34621740
C       7.93633135      5.51533910     -5.74710522
C       5.94588772      6.54504286     -6.30268258
H       8.58633138     24.89849718      4.98160510
C       6.58384644     10.08310555     -6.16395465
H      -3.81778836     19.47378515     -4.36758004
H       7.29865586     10.42986102     -5.31052155
H       3.54575030      8.16853537     -7.04376208
H       7.11956648     12.18006490    -27.61292548
   48
energy=      0.00000000
C      -7.79052909      1.92303862     -0.26618493
C      -6.89233713      2.91605774     -0.95667825
H      18.98546799      0.50054097     -5.65563518
H       7.61094968     -9.33333971     -1.08569009
C       0.28903987     -5.30710010    -12.54739940
C       0.42431712     -6.83647917    -12.58573523
H      -1.28313592     -4.53556651    -14.30011592
C       2.41487791     -3.76155359     -8.87351325
C       7.56589184      1.19550937     -4.06294474
H      13.68323545      9.93760533      4.86306741
H      13.17939066      9.52860998      4.43090370
C       6.42307175      0.21507185     -4.11239034
C      20.10621603      0.08496809     -5.75138369
H      -1.76323596      7.66737057    -20.92450459
C       3.67169459     13.39387494    -10.27440978
C       3.74746896     12.49069104     -9.00157339
H       3.47406746     13.97501128    -11.26083473
H      12.10962698      1.79561597    -16.65920876
C      10.02910192      2.65281098     -3.86107240
H      10.80013705      1.76502994     -4.07919571
C      -4.46867838     18.68858393     -3.80723511
H      10.65131838      3.67724406     -3.78070063
H      -5.11956839     17.90338270     -3.24689018
H     -13.44119247     -3.09089256    -15.32082243
H      21.00692553      0.83900906     -5.99234267
H      15.59584980     14.49683442    -13.76427070
C       0.75457470     -4.77577170    -11.16554114
C       1.48106411     -4.24143071     -9.94399588
H      15.36602012     13.76200453    -13.88918375
C       7.60838779      3.29060923     -2.68921834
H      20.32658423     -1.08476559     -5.60620174
H      12.79364360      1.50013285    -16.88988384
H       7.15320654      3.75132278     -1.72477999
H       0.46045038     -3.59313562    -14.32500615
C       3.73744698      9.02395559    -10.63162916
C      -0.20467273     -4.43325994    -13.78720567
C       3.57685809      9.74982819     -9.28969242
H      -6.20400834      3.67705787     -1.48583763
H      -5.94890436     -8.23419838      3.62522520
C       2.88344421     11.14677532     -8.98722643
C       8.46477827      2.39568491     -3.64035228
C       4.22913098      9.02927250     -8.10486556
H       8.58633138     24.89849718      4.98160510
C       4.71696524     12.97005087     -7.86834749
H      -3.81778836     19.47378515     -4.36758004
H       5.45061987     13.30055087     -7.02705373
H       1.70932953     11.14240036     -8.73107317
H       7.11956648     12.18006490    -27.61292548
