   48
energy=      0.00000000
C      -5.27202078      2.21043843     -1.01194679
C      -4.36584811      3.19705030     -1.70121695
H       6.39947171      0.19062639     -6.32398555
H       7.10633052     -6.69101533     -1.49225555
C       0.18411930     -5.27105423    -12.43594190
C       0.57676673     -6.75657645    -12.44122464
H      -0.99790315     -4.72840183    -14.53284319
C       2.67365730     -3.98638320     -9.37532434
C       6.21580870      2.59923811     -7.14058823
H      11.96370767      8.67135178      2.92240545
H      11.45986288      8.26235642      2.49024174
C       5.32130225      3.90318716     -7.32326643
C      20.32338352     -0.03957867     -5.93769455
H      -0.85565904      7.93520899    -19.55829066
C       3.76407074     10.38965731    -10.53817279
C       4.26024346      9.11000427     -9.76355305
H       3.48438868     11.25894770    -11.27263210
H      12.15461631      1.79419429    -16.52714740
C      22.36422602     11.70451952     -4.01822955
H       4.22466464      3.50909091     -7.11489833
C      -4.46867838     18.68858393     -3.80723511
H      23.43726691     11.34887123     -4.07376589
H      -5.11956839     17.90338270     -3.24689018
H     -13.44119247     -3.09089256    -15.32082243
H      20.24127084      1.10989126     -6.09944003
H      14.83160586     14.18560679    -13.52415689
C       0.34400319     -4.71076439    -10.99732005
C       1.29545030     -4.19403659     -9.93115906
H      14.60177618     13.45077690    -13.64906994
C       6.81627137      1.14023835     -6.92389087
H      20.40549999     -1.18904816     -5.77594781
H      12.83863292      1.49871116    -16.75782247
H       7.82484825      0.65218418     -7.33761188
H       0.41122437     -3.41457417    -14.07087361
C       5.14699359      5.45707449     -7.63491537
C      -0.15078499     -4.42246470    -13.74380213
C       4.93264051      7.02950419     -7.75617460
H      -3.68628023      3.96500011     -2.23167848
H      -5.91281459     -7.65848888      3.37197153
C       4.10175901      8.26763829     -8.39842906
C       0.26111450     11.94066807      5.55128116
C       6.07262758      7.49288487     -6.83641943
H       8.58633138     24.89849718      4.98160510
C       5.14406319      8.47815893    -10.84593037
H      -3.81778836     19.47378515     -4.36758004
H      -0.64087280     11.30957841      5.81147192
H       3.16470139      8.69502703     -7.77846710
H       7.04770985     12.14270472    -27.54789268
   48
energy=      0.00000000
C      -6.18913544      1.99937768     -0.56441404
C      -5.28729828      2.98947496     -1.25435094
H       3.95623687      4.39452223     -1.54133566
H       7.10633052     -6.69101533     -1.49225555
C       0.19602004     -5.27451684    -12.45171153
C       0.54343395     -6.77100196    -12.46438441
H      -1.03045617     -4.71413558    -14.52634012
C       2.66017147     -3.94905286     -9.30416904
C       5.11710502      4.37212591     -5.16390577
H      12.03656798      8.69058124      3.01754088
H      11.53272319      8.28158588      2.58537716
C       5.05138253      4.29911768     -6.72603901
C      20.32338442     -0.03957857     -5.93769425
H      -0.85565904      7.93520899    -19.55829066
C       3.93997729     10.37511295    -10.58217692
C       4.45568987      9.05978644     -9.90039823
H       3.62022518     11.28381018    -11.24223028
H      12.15461631      1.79419429    -16.52714740
C      22.36422602     11.70451952     -4.01822955
H       4.50158284      3.42911487     -7.31553030
C      -4.46867838     18.68858393     -3.80723511
H      23.43726691     11.34887123     -4.07376589
H      -5.11956839     17.90338270     -3.24689018
H     -13.44119247     -3.09089256    -15.32082243
H      20.24127040      1.10989121     -6.09944018
H      14.83160586     14.18560679    -13.52415689
C       0.40404945     -4.71781630    -11.01776023
C       1.31352225     -4.20232203     -9.91523886
H      14.60177618     13.45077690    -13.64906994
C       4.97314479      4.56860163     -3.61480721
H      20.40549954     -1.18904821     -5.77594796
H      12.83863292      1.49871116    -16.75782247
H       5.67865057      3.61346143     -3.62057456
H       0.41081620     -3.42889804    -14.09455006
C       5.24460439      5.58899248     -7.58081453
C      -0.16102428     -4.42651221    -13.75433481
C       5.15915832      7.12647012     -7.83893909
H      -4.60296300      3.75365318     -1.78410882
H      -5.95012592     -8.08342989      3.56170026
C       4.26290881      8.26277271     -8.52510305
C       4.28574568      5.23484882     -2.31085101
C       6.31030406      7.63879575     -6.96389449
H       8.58633138     24.89849718      4.98160510
C       5.36588669      8.45107694    -10.97465899
H      -3.81778836     19.47378515     -4.36758004
H       3.88845498      6.10303119     -1.57321954
H       3.32987738      8.63853273     -7.87367133
H       7.04770985     12.14270472    -27.54789268
