   48
energy=      0.00000000
C      -7.79052937      1.92303885     -0.26618497
C      -6.89233649      2.91605723     -0.95667815
H      15.76612188      1.58038191     -5.35381197
H       7.63298645     -9.06270252     -1.14289730
C       0.27560560     -5.30343588    -12.53750561
C       0.42552827     -6.83157225    -12.57180574
H      -1.25232271     -4.56959744    -14.34575601
C       2.45499253     -3.77604802     -8.91159082
C       5.72672431      4.41008736     -6.24465276
H      13.27540360      9.51997521      4.09908594
H      12.77155882      9.11097985      3.66692223
C       5.12538390      3.04796317     -6.07783751
C      16.88707641      1.16467475     -5.44956816
H      -1.76323596      7.66737057    -20.92450459
C       5.53509212     10.34684650     -8.49608151
C       5.68577183      9.43452329     -7.24226884
H       5.15918488     10.89287158     -9.44762928
H      12.10962698      1.79561597    -16.65920876
C       9.73641144      6.21404098     -5.85136072
H       9.59278220      5.02927622     -5.97403926
C      -4.46867838     18.68858393     -3.80723511
H      10.64183478      6.95095049     -5.63971371
H      -5.11956839     17.90338270     -3.24689018
H     -13.44119247     -3.09089256    -15.32082243
H      17.79187516      1.91366443     -5.69034294
H      15.59584980     14.49683442    -13.76427070
C       0.71779119     -4.77013892    -11.14872015
C       1.46507692     -4.23913440     -9.93821817
H      15.36602012     13.76200453    -13.88918375
C       7.07940535      6.48523628     -5.22752539
H      17.11379595     -0.00385372     -5.30546480
H      12.79364360      1.50013285    -16.88988384
H       7.06651913      6.40586705     -4.03193807
H       0.45093824     -3.56119443    -14.28839646
C       5.57861300      6.11241231     -9.05794155
C      -0.20109396     -4.43317528    -13.78651893
C       5.54090901      6.67784243     -7.62244385
H      -6.20400870      3.67705816     -1.48583768
H      -5.94890436     -8.23419838      3.62522520
C       4.84408653      8.07364977     -7.29190220
C       8.43869212      7.05122154     -5.73235607
C       6.15816800      5.89235474     -6.38686218
H       8.58633138     24.89849718      4.98160510
C       6.63913385     10.00567291     -6.13393654
H      -3.81778836     19.47378515     -4.36758004
H       7.33409219     10.33819993     -5.25626892
H       3.67006549      8.04618501     -7.03380791
H       7.11956648     12.18006490    -27.61292548
   48
energy=      0.00000000
C      -7.79052920      1.92303871     -0.26618495
C      -6.89233689      2.91605755     -0.95667821
H      15.76828702      1.57954891     -5.35399086
H       7.63298645     -9.06270252     -1.14289730
C       0.28126554     -5.30501912    -12.54177952
C       0.42447989     -6.83374973    -12.57769088
H      -1.26563001     -4.55565510    -14.32698626
C       2.43805647     -3.76960121     -8.89479039
C       7.02094262      4.26145728     -6.03536790
H      13.27540360      9.51997521      4.09908594
H      12.77155882      9.11097985      3.66692223
C       5.76021610      3.41291214     -6.06437064
C      16.88907994      1.16394783     -5.44974146
H      -1.76323596      7.66737057    -20.92450459
C       5.50979096     10.44222042     -8.55723871
C       5.61507864      9.55852222     -7.28115564
H       5.21130842     11.00097588     -9.52721283
H      12.10962698      1.79561597    -16.65920876
C       9.48029982      5.93380908     -5.88396061
H      10.07245933      4.92407177     -6.06638387
C      -4.46867838     18.68858393     -3.80723511
H      10.26497792      6.84155418     -5.74768264
H      -5.11956839     17.90338270     -3.24689018
H     -13.44119247     -3.09089256    -15.32082243
H      17.79068190      1.91689116     -5.69066078
H      15.59584980     14.49683442    -13.76427070
C       0.73379496     -4.77260471    -11.15600395
C       1.47222464     -4.24018477     -9.94073987
H      15.36602012     13.76200453    -13.88918375
C       6.84750841      6.40372777     -5.03001990
H      17.11083055     -0.00552655     -5.30479364
H      12.79364360      1.50013285    -16.88988384
H       6.82701767      6.63369573     -3.85239171
H       0.45500958     -3.57424784    -14.30360922
C       5.54550212      6.14841883     -9.07072927
C      -0.20268500     -4.43323414    -13.78691182
C       5.38199578      6.86657047     -7.71781021
H      -6.20400847      3.67705798     -1.48583765
H      -5.94890436     -8.23419838      3.62522520
C       4.70529065      8.24538792     -7.34621740
C       7.93633135      5.51533910     -5.74710522
C       5.94588772      6.54504286     -6.30268258
H       8.58633138     24.89849718      4.98160510
C       6.58384644     10.08310555     -6.16395465
H      -3.81778836     19.47378515     -4.36758004
H       7.29865586     10.42986102     -5.31052155
H       3.54575030      8.16853537     -7.04376208
H       7.11956648     12.18006490    -27.61292548
