   48
energy=      0.00000000
C      -7.79052905      1.92303859     -0.26618492
C      -6.89233723      2.91605782     -0.95667827
H       7.19251704      9.57665390     -8.34532956
H       7.48068694    -10.49092986     -0.87712143
C       0.30161395     -5.31027058    -12.55596821
C       0.42693814     -6.84035519    -12.59879242
H      -1.30934361     -4.50070038    -14.25414020
C       2.37773082     -3.75023078     -8.84298839
C       8.09248018      0.12432894     -3.27602686
H      13.68545401      9.94114560      4.86681129
H      13.18160922      9.53215024      4.43464759
C       7.06454117     -0.95601626     -3.47814979
C      20.61022418     -0.05552383     -5.82524195
H      -1.76323596      7.66737057    -20.92450459
C       6.84622117     11.23739790     -9.72510946
C       6.28956724     10.33966655     -8.60878271
H       2.89858117     19.93810912    -16.75147551
H      12.10962698      1.79561597    -16.65920876
C      10.55985744      1.47776486     -3.08685535
H      11.35024560      0.60586270     -3.31184922
C      -4.49455873     18.71209067     -3.79114699
H      11.13689186      2.52831512     -3.12642903
H      -5.14544875     17.92688945     -3.23080205
H     -13.44119247     -3.09089256    -15.32082243
H      21.15050348      0.94839799     -6.05297253
H      15.59584980     14.49683442    -13.76427070
C       0.78545630     -4.78043087    -11.17987831
C       1.49305516     -4.24303173     -9.94871323
H      15.36602012     13.76200453    -13.88918375
C       8.19670425      2.15585519     -1.75309550
H      20.39704812     -1.18082977     -5.62558108
H      12.79364360      1.50013285    -16.88988384
H       7.61529585      2.76702188     -0.95257816
H       0.46851742     -3.62609301    -14.36087623
C       3.18273939      9.51146145    -10.54135090
C      -0.20745385     -4.43318567    -13.78715696
C       3.80678737      9.73083644     -9.14145469
H      -6.20400828      3.67705782     -1.48583762
H      -5.94890436     -8.23419838      3.62522520
C       4.74128592     10.87372023     -8.46787451
C       9.00931106      1.26728674     -2.75138269
C       3.41715041      8.65644574     -8.11441491
H       8.58633138     24.89849718      4.98160510
C       4.69883359     12.27839475     -7.68180751
H      -3.84366871     19.49729190     -4.35149192
H       4.59072118     13.35474007     -7.20910855
H       3.67407339     11.40554716     -8.57037261
H       7.11956648     12.18006490    -27.61292548
   48
energy=      0.00000000
C      -7.79052904      1.92303858     -0.26618492
C      -6.89233724      2.91605783     -0.95667827
H       6.96759978      9.74471021     -8.27840832
H       7.47702692    -10.51689354     -0.87306378
C       0.06174294     -2.63275921    -13.63721112
C       0.65235709     -3.97719262    -13.14441134
H      -1.53846529     -4.36501797    -14.65172092
C       1.85925687     -3.79026715     -9.68324412
C       8.10056915      0.11204870     -3.24491310
H      13.68545401      9.94114560      4.86681129
H      13.18160922      9.53215024      4.43464759
C       7.11141151     -0.98678433     -3.52306673
C      20.69941055     -0.08861983     -5.83289530
H      -0.07781931     -1.49912748    -14.10888366
C       7.05419938     11.22506213     -9.84227129
C       6.19838337     10.53945588     -8.75444824
H       2.89858117     19.93810912    -16.75147551
H      12.10962698      1.79561597    -16.65920876
C      10.56321850      1.44803381     -3.07146157
H      11.35377521      0.57129113     -3.27764812
C      -4.49455873     18.71209067     -3.79114699
H      11.12965936      2.50050009     -3.16726828
H      -5.14544875     17.92688945     -3.23080205
H     -13.44119247     -3.09089256    -15.32082243
H      21.11045840      0.97779872     -6.05172573
H      15.59584980     14.49683442    -13.76427070
C       0.59705046     -2.51774130    -12.14254042
C       1.19880987     -3.17004108    -10.88229530
H      15.36602012     13.76200453    -13.88918375
C       8.21583450      2.13635787     -1.69967348
H      20.34790683     -1.17713450     -5.61917453
H      12.79364360      1.50013285    -16.88988384
H       7.62239443      2.77776713     -0.93207504
H       0.32137139     -4.13038069    -15.50145532
C       3.25611844      9.37511354    -10.46534807
C      -0.50102567     -3.73440018    -14.70125637
C       3.79585687      9.66280297     -9.04504772
H      -6.20400827      3.67705782     -1.48583762
H      -5.94890436     -8.23419838      3.62522520
C       4.62947761     10.96664445     -8.53477911
C       9.01875961      1.24610932     -2.70454380
C       3.32444164      8.48642232     -8.17253951
H       8.58633138     24.89849718      4.98160510
C       4.75293675     12.26208947     -7.58658701
H      -3.84366871     19.49729190     -4.35149192
H       4.75979918     13.31648264     -7.05703967
H       3.61444886     11.57713970     -8.78891056
H       7.11956648     12.18006490    -27.61292548
