   48
energy=      0.00000000
C       2.23615826      1.58826282     -9.82950173
C       3.82950625      1.49038050     -9.97636803
H       1.12531128      1.93734734     -9.65785115
H       4.14363045      1.94815738     -8.89527052
C     -11.22202996     -8.20794801     -0.15645415
C      -9.84843891     -7.59076043     -0.11236416
H      -8.79578791     -7.11777884     -0.07857580
C       9.75709594      3.21352761      4.28686890
C      10.26612510      1.89413401      4.94262991
H      10.22917008      4.26141554      4.60780321
H       8.89455096      3.17763798      3.46306626
C      10.75714099      0.62055790      5.57642951
C      12.95506976     -6.41388882     -5.19910418
H      13.48110800     -7.08595290     -4.40554930
C      -2.16796039     11.15370124    -11.43869038
C      -2.81618950     10.96709014     -9.95921545
H      -1.15004677     11.71197545    -11.74822074
H      -2.58793771     10.77072860    -12.50049951
C      17.03363331      5.41716763     -4.31934596
H      -3.45753544      9.93806453     -9.94535085
C      -2.80659294     11.89399857     -8.58711992
H      18.10669969      5.06151492     -4.37487145
H      -3.60938813     11.52876941     -7.73406124
H      -6.54126799     -1.89908496    -15.11874790
H      16.56662635     21.11800327     -8.80178819
H      13.51417358     11.20000109    -14.04777700
C       6.20832559     -0.48678273     -9.73007460
C       5.00132710      0.40074836     -9.98043647
H      13.28434385     10.46517119    -14.17269024
C      12.21433097     -5.49637228     -6.23591383
H      12.50106669     -4.34268764     -6.35905469
H      19.91575375      0.26162927    -17.60185988
H      11.33572166     -5.92281007     -6.92480104
H       7.80216196     -0.45222242    -19.56646996
C       8.85605399      1.64239622    -20.48641183
C       8.28281905      0.59754431    -19.54023577
C       8.74844734      2.36676909    -21.82158492
H       8.41594533      2.90221734    -22.78897435
H       3.85557259      2.09367006    -11.03767260
C       2.20662162     13.55943121      1.96349369
C       2.69981652     12.67409653      0.81562818
C      -0.56434688     12.33463942     -6.51518665
H       7.50046483     23.51045282      4.65652919
C      -1.51987352     12.02941669     -7.64952635
H      -3.09825300     13.06355451     -8.81978662
H       3.07183456     12.02806553     -0.06972419
H       1.83326891     14.25145340      2.81279658
H       4.80877309     17.65395761    -18.97564440
   48
energy=      0.00000000
C       2.23136103      1.55098987     -9.78004866
C       3.82755405      1.53709493     -9.91910449
H       1.09130730      1.80117284     -9.64336802
H       4.17434035      2.04058135     -8.86323430
C     -11.22202996     -8.20794801     -0.15645415
C      -9.84843892     -7.59076042     -0.11236415
H      -8.79578791     -7.11777885     -0.07857580
C      11.37866629     -1.65960725      6.74633013
C      11.86786006     -2.92808590      7.37707640
H      10.03452463      7.70521832      2.14700283
H       9.53052391      7.29594472      1.71470849
C      12.35688061     -4.19644749      8.00819229
C      12.97214585     -6.43027014     -5.18307289
H      13.50757883     -7.10591781     -4.39887753
C      -2.22095545     11.14534049    -11.56457659
C      -2.87149223     10.94201029    -10.08856172
H      -1.18798649     11.68445007    -11.85886838
H      -2.65367788     10.79604245    -12.63261686
C      18.39711339      5.10064167     -5.30109869
H      -3.46653160      9.88563537    -10.06104757
C      -2.89422381     11.88881246     -8.73086632
H      19.47017977      4.74498896     -5.35662418
H      -3.71648907     11.55604760     -7.88286861
H      -6.54395776     -1.89991279    -15.12012282
H      16.56662635     21.11800327     -8.80178819
H      13.50007317     11.22390645    -14.09933188
C       6.12014385     -0.51954701     -9.75738811
C       4.90409711      0.36404693     -9.93924198
H      13.27024344     10.48907655    -14.22424512
C      12.23518139     -5.51413057     -6.22382058
H      12.52479597     -4.36157378     -6.35066255
H      19.92297574      0.26090608    -17.59980781
H      11.35974197     -5.94130285     -6.91626718
H       7.80888770     -0.48657907    -19.48362571
C       8.84051592      1.66051534    -20.55518752
C       8.31707169      0.53375783    -19.67409315
C       8.76340389      2.42223445    -21.87252144
H       8.47368472      2.93056589    -22.86884952
H       3.97003771      2.06417830    -11.01295945
C       0.27271447     15.42768239      2.02089682
C       0.76591631     14.54232706      0.87304549
C      -0.58339221     12.28150303     -6.71796160
H       7.77422359     23.93344634      4.80746062
C      -1.59438520     12.00664863     -7.80995832
H      -3.19257233     13.05590075     -8.96721006
H       1.13819215     13.88933808     -0.00708054
H      -0.10049625     16.11294003      2.87573112
H       4.77685422     17.67927355    -18.99362231
