   48
energy=      0.00000000
C      -3.93626552      2.09038362      0.86636100
C      -2.42621533      2.34411436      0.87306451
H      -5.07760020      1.89816985      0.86204020
H      -1.28474412      2.53547611      0.87887778
C     -11.22203178     -8.20794397     -0.15645407
C      -9.84843473     -7.59076974     -0.11236433
H      -8.79579028     -7.11777357     -0.07857570
C      10.42961197      3.90309763      1.87990124
C      10.94249017      2.58284652      2.53091691
H      10.89979543      4.95087583      2.20394816
H       9.56466841      3.86836852      1.05856470
C      11.42631873      1.31144540      3.17453331
C      12.73215446     -5.97781684     -5.39762837
H      13.01247620     -6.53528928     -4.40426304
C      -1.27020755     10.47088733    -12.41436953
C      -1.63222045     10.56044172    -10.81718939
H      -0.46364395     10.95212565    -13.15864299
H      -1.76143871      9.88141489    -13.34955171
C       8.81368095      5.91130912     -9.48823569
H      -2.57169356      9.80915116    -10.86599376
C      -1.42574546     11.21639476     -9.28966645
H       9.88687589      5.55549652     -9.54367954
H      -1.99196192     10.44221974     -8.52932877
H      -3.37306219     -0.17671330    -14.88444509
H      14.83754040     16.44756895     -9.62721759
H      15.08145038     16.14795893     -8.96078760
C      13.80446436     -5.33155634     -9.35779827
C      13.00137813     -5.23596949     -8.05611312
H      14.57428718     -5.54849156    -10.19232787
C      12.22552705     -5.15012632     -6.67138781
H      12.29783291     -3.96874579     -6.36648127
H      16.97453606      1.52569373    -17.75813199
H      11.10637464     -5.56567046     -6.93337937
H       7.87343627      5.52798319    -26.89240236
C      10.21619646      5.77203953    -26.46799761
C       8.71291437      6.16751008    -26.33538339
C      11.69438575      5.42402222    -26.63884174
H      12.81466903      5.18161420    -26.78948749
H       8.39912480      7.11491024    -25.68118191
C       2.19262644     13.23729003      2.17163623
C       2.59769983     12.66426899      0.76693325
C      -0.19134805     12.05219780     -6.56378079
H       7.47067673     23.44947468      4.63691177
C      -0.60626543     11.57745670     -7.95263707
H      -1.55962742     12.42052807     -9.45567423
H       3.00919970     12.21245921     -0.22541957
H       1.83530196     14.36643786      2.33308826
H       2.26360242     12.54459390      3.14251160
   48
energy=      0.00000000
C      -3.93625110      2.09029363      0.86651858
C      -2.42620091      2.34402442      0.87322212
H      -5.07761483      1.89825979      0.86188261
H      -1.28475832      2.53556611      0.87872018
C     -11.22203061     -8.20794658     -0.15645412
C      -9.84843743     -7.59076373     -0.11236422
H      -8.79578875     -7.11777698     -0.07857577
C      10.42924880      3.90322829      1.88043686
C      10.94032193      2.58335278      2.53363228
H      10.90033633      4.95103681      2.20307191
H       9.56541785      3.86802104      1.05795170
C      11.42755979      1.31099498      3.17277156
C      12.75318086     -6.02919829     -5.40270485
H      13.08067763     -6.61237585     -4.43965773
C      -1.27129827     10.51709930    -12.35290852
C      -1.76565329     10.51022776    -10.79939855
H      -0.37985649     11.08358644    -12.92304744
H      -1.74586559      9.93805330    -13.29877136
C       8.87928715      5.95089934     -9.52388225
H      -2.67750729      9.71513682    -10.81619446
C      -1.53204422     11.24888965     -9.32837232
H       9.95235354      5.59524663     -9.57940773
H      -2.10861191     10.51327358     -8.53879400
H      -3.37306219     -0.17671330    -14.88444509
H      14.88464578     16.53667392     -9.62519316
H      15.12855577     16.23706391     -8.95876317
C      13.87410410     -5.43961392     -9.29585179
C      13.06103450     -5.33097422     -8.00058472
H      14.56691714     -5.58045343    -10.21112726
C      12.22164456     -5.18878092     -6.65729151
H      12.24367234     -4.00258124     -6.36287999
H      17.85494914      0.95201676    -17.27262890
H      11.08681950     -5.56076222     -6.91813721
H       7.53164570      6.21338862    -23.60378862
C       8.60217630      7.06961658    -21.36158957
C       7.88904542      7.02361203    -22.80624645
C      10.06053244      6.65370616    -21.77614041
H      10.86109988      6.34025281    -22.57205520
H       7.86415176      7.66837593    -23.80770445
C       2.16865506     13.41731948      1.95988506
C       2.64585121     12.58648441      0.76676166
C      -0.09428091     12.01094834     -6.70933294
H       7.47570504     23.45972914      4.64026364
C      -0.57233693     11.57701263     -8.08715200
H      -1.68554081     12.44199409     -9.56650499
H       3.01194634     12.14610702     -0.23851721
H       1.79715009     14.33608789      2.55665583
H       8.29145426      7.32172067    -20.22283660
