   48
energy=      0.00000000
C      -4.51571372      0.36144962     -1.55676826
C      -3.15770448      0.76670825     -2.13555388
H      -5.60778519      0.22793988     -1.19790626
H       5.66778106     -0.38881437     -9.01372622
C      -1.13811104     -3.60201353    -17.35977890
C      -0.72950162     -4.33045386    -16.10774480
H      -2.34174997     -3.73666731    -19.39795749
C       8.09393262     -3.88110837      3.52304482
C      14.96176543     -3.52540846     10.93747111
H      10.73595772      8.68209086      2.41007253
H      10.23195700      8.27281726      1.97777819
C      15.44457759     -4.78270858     11.56064432
C      17.26632432     -1.69918686     -6.48830434
H       2.92292151      5.26565214    -13.24212659
C      -1.61897891     12.47777563    -12.70879926
C      -1.23077293     10.93127731    -12.32040419
H      -1.07553990     13.53208132    -12.49485832
H      -2.57575529     12.93824824    -13.27889816
C      21.42928365      8.33106807     -4.55975509
H      -2.29945772     10.35759515    -12.28574306
C       0.13931908     10.08113431    -11.85595941
H      22.50232454      7.97541977     -4.61529144
H      -0.27741317      9.57773814    -10.81152617
H     -13.11311000     -3.11032216    -15.41087512
H      17.49697154     -0.55800173     -6.53991560
H      13.91402211     12.00390572    -13.64739801
C       6.31071604     -4.00559636      1.11711105
C       7.19612762     -3.93051985      2.32400679
H      13.68419243     11.26907583    -13.77231106
C      16.95556019     -3.23678480     -6.41876402
H      17.77617942     -4.01955725     -6.04167632
H      21.49933979      0.30763831    -17.48028780
H      15.88921756     -3.66980677     -6.74086518
H      -1.32966405     -1.95936662    -19.11511123
C       2.39371518      6.31060372    -13.16269589
C      -1.63753145     -3.04527137    -18.72747924
C       1.89686243      7.81389924    -13.23483700
H       2.30301087      8.16352021    -14.30401455
H      -2.25508824      1.27524189     -2.65116973
C       0.24997237     15.55573106      2.29821046
C       0.74318001     14.67036379      1.15036603
C       2.52838059      8.97493185    -11.27991214
H       7.87290899     24.05422568      4.85116451
C       1.29800920      8.93906805    -12.23274176
H       0.91806222     11.02430027    -11.85356712
H       1.11597922     14.00121703      0.28268348
H      -0.12283121     16.22503134      3.16577273
H       4.84115696     10.82519868    -23.59113296
   48
energy=      0.00000000
C      -4.55704712      0.39806581     -1.55344870
C      -3.20438322      0.81524539     -2.13698918
H      -5.62496222      0.18926056     -1.15919881
H       5.66623840     -0.71095706     -8.97187127
C      -1.20181657     -3.65779982    -17.45300072
C      -0.77138818     -4.33182410    -16.17810445
H      -2.40621990     -3.75269712    -19.50193644
C       8.07447441     -3.93419689      3.66425037
C      15.02750720     -3.52692958     11.01010684
H      10.73595772      8.68209086      2.41007253
H      10.23195700      8.27281726      1.97777819
C      15.51031935     -4.78422969     11.63328005
C      17.40785391     -1.73856816     -6.45765031
H       2.92831769      4.17645472    -15.75637886
C      -0.78854533     10.42001180    -15.40575612
C      -0.23686239      8.89513352    -15.19652176
H      -0.41866352     11.51409802    -15.07639022
H      -1.80392269     10.87256732    -15.87669949
C      21.44325685      8.36242475     -4.55440973
H      -1.21818924      8.28275646    -14.88545113
C      -2.19101840     14.82771938     -6.14363348
H      22.51629774      8.00677645     -4.60994608
H      -2.80505703     14.08779032     -5.48896851
H     -13.15083341     -3.10955520    -15.40190076
H      17.63850007     -0.59738283     -6.50926192
H      13.91402211     12.00390572    -13.64739801
C       6.29119682     -4.05868914      1.25823427
C       7.17942697     -3.98938419      2.46340348
H      13.68419243     11.26907583    -13.77231106
C      17.09708965     -3.27616608     -6.38811002
H      17.91770847     -4.05893899     -6.01102238
H      21.49933979      0.30763831    -17.48028780
H      16.03074680     -3.70918741     -6.71021131
H      -1.37772852     -1.99156902    -19.17657898
C       2.38667604      5.22000568    -15.73598185
C      -1.69757785     -3.08274541    -18.81442679
C       1.82832225      6.69250057    -15.93582827
H       2.31914199      6.94734337    -16.99170546
H      -2.24343358      1.24024378     -2.62219338
C       0.66350421     16.13182307      6.00460145
C       1.15671186     15.24645580      4.85675702
C       1.99673219      8.04885307    -13.96501703
H       8.58633138     24.89849718      4.98160510
C       1.05054607      7.89152696    -15.17284890
H      -1.50971317     15.65045042     -6.60413483
H       1.52951201     14.57727607      3.98910030
H       0.29070157     16.80109038      6.87218955
H       5.85777975     11.29228224    -25.81333570
