   48
energy=      0.00000000
C      -3.50921520      2.77931700     -0.00797282
C      -1.99875836      3.02928873     -0.00332474
H      -4.64740015      2.57089422      0.01025994
H      -0.85604414      3.20947227      0.02790996
C     -10.79231398     -7.57481349     -0.11372464
C      -9.41443351     -6.96725950     -0.06981493
H      -8.36656472     -6.48379925     -0.03583278
C       9.77956600      3.70974726     -1.49535316
C      10.43497354      2.37365062     -1.04166582
H      10.19711409      4.71709098     -1.00793138
H       8.81683986      3.61807527     -2.19538551
C      10.58096742      1.24740734     -0.05570938
C      12.35088681     -6.82543481      4.06013493
H      12.41075185     -7.57347387      4.80458054
C       1.63328604      7.70254545    -15.51085619
C       1.00840011      6.44346021    -14.72937136
H       2.36757591      8.53924915    -15.05697444
H       1.41637941      7.93342820    -16.66532097
C       1.32657662      6.16726515    -13.16959444
H       0.29015638      5.72610428    -15.38889571
C       0.70349785      4.90877128    -12.38585536
H       2.04460148      6.88480541    -12.51007597
H      -0.03068919      4.07070161    -12.83732878
H       0.92286250      4.68083247    -11.23124917
H       9.72128676     12.79507454     -8.94024219
H       9.96519675     12.49546452     -8.27381220
C      11.75832191     -1.47510028    -10.76864654
C      11.40208657     -0.77006772    -12.07493603
H      12.00068668     -1.96703089     -9.75551019
C      10.99916482      0.01183022    -13.39559194
H      11.95392874      0.70455418    -13.73138820
H      10.02228826      0.71026726    -13.14542157
H      10.73285450     -0.81948330    -14.25691844
H       7.86730266      4.87128804    -23.32944200
C      10.11573490      4.99180257    -22.67888497
C       8.63924290      5.47773280    -22.65123723
C      11.58836753      4.76811107    -22.99870834
H      12.70987920      4.59557640    -23.20141652
H       8.42337495      6.50407609    -22.08192107
C       3.68642167     13.90507325      3.85565181
C       4.01676751     13.90741639      2.33359371
C       4.33841215     13.98546216      0.81020107
H       4.54619359     15.55156889     -1.03203696
C       4.30507921     15.43946455      0.13506003
H       4.05866813     16.49022603      0.66801490
H       4.57553213     12.90903256      0.33856521
H       3.34185600     14.91331488      4.39646088
H       3.81533621     12.82838018      4.35038840
   48
energy=      0.00000000
C      -3.82392665      2.31462455      0.73164608
C      -2.31387292      2.56833299      0.73833730
H      -4.96486474      2.12002332      0.73147553
H      -1.17203737      2.75733388      0.74831789
C     -11.08858477     -8.01310215     -0.13765610
C      -9.71478680     -7.39637468     -0.09357467
H      -8.66236201     -6.92289063     -0.05977697
C       9.85037564      3.65143460     -1.36738094
C      10.38991713      2.32674914     -0.74786750
H      10.30728602      4.69858566     -1.02295232
H       8.96931329      3.62080915     -2.17158910
C      10.82128878      1.06968048     -0.04189784
C      12.37426506     -6.92801665      4.11529269
H      12.43413009     -7.67605570      4.85973831
C       1.72306735      8.96409853    -11.80102104
C       1.54674119      9.01304188    -10.15512162
H       2.46267876      9.37497691    -12.65777495
H       1.13515137      8.41262098    -12.70707585
C       2.13099981      9.37130612     -8.62657669
H       0.57500941      8.31112620    -10.07347982
C       1.97938880      9.88375561     -7.02400558
H       3.15478628      8.75096379     -8.70180376
H       1.24906904      9.07124908     -6.53077795
H      -0.52000668      1.35770361    -14.12119766
H      13.19761633     13.76079182    -10.13153209
H      13.44152631     13.46118180     -9.46510210
C      11.81973792     -1.51898417    -10.72920411
C      11.45660690     -0.80285981    -12.03551338
H      12.08323706     -2.04341498     -9.73287326
C      11.06398700     -0.03552193    -13.37702559
H      11.99799468      0.66518868    -13.75071100
H      10.08655041      0.67793228    -13.18043352
H      10.79530411     -0.84011811    -14.26213179
H       7.80899554      4.89577405    -23.29738882
C      10.14505321      5.09017153    -22.81571166
C       8.64810884      5.51911579    -22.72179093
C      11.62530805      4.76492720    -23.01124640
H      12.74706403      4.56755888    -23.20898973
H       8.34192222      6.48159423    -22.08624152
C       2.70560935     12.22565481     -1.06891278
C       2.50996359     11.67046829     -2.56937876
C       2.71796581     11.17225122     -4.10152256
H       5.15976255     18.22527679      1.92815471
C       2.30008505     10.87374371     -5.69692271
H       2.18009902     11.99435982     -6.10076999
H       3.88969985     11.15532939     -3.88675624
H       2.63744397     13.32207343     -0.58697869
H       3.05033248     11.72688901     -0.03182511
