   48
energy=      0.00000000
C      -0.59152588      3.09821550     -4.26962750
C      -0.91392116      1.74617019     -3.52649695
H      -1.66622792      3.47643527     -4.60631162
H       4.05701301     -5.28918627     -8.73684804
C      -1.77635729     -4.32907065    -18.22658888
C      -1.30758143     -4.91486539    -16.92202441
H      -2.97720324     -4.36024118    -20.29373431
C       8.08339667     -3.97988290      3.98173556
C       0.56218803      4.04729454     -4.79804244
H      11.96370767      8.67135178      2.92240545
H      11.45986288      8.26235642      2.49024174
C       1.42923313      4.86961110     -5.83924346
C      20.31420353     -0.04101615     -5.94069079
H      -0.85565790      7.93520960    -19.55829181
C       2.32043335      9.17452963    -10.55827087
C       2.78450506      8.65921458     -9.10945238
H       2.85978428     10.04917500    -11.18149465
H       1.46905452      8.63096143    -11.20969558
C      22.36413048     11.70409076     -4.01829967
H       1.33054122      4.20904997     -6.81533312
C      -4.46867843     18.68858386     -3.80723526
H      23.43717137     11.34844247     -4.07383602
H      -5.11956837     17.90338273     -3.24689010
H     -13.44119247     -3.09089256    -15.32082243
H      20.24545223      1.10994515     -6.09794476
H      14.06178378     12.05123971    -13.72595613
C       6.30019058     -4.10406019      1.57559476
C       7.19176303     -4.04190213      2.77868426
H      13.83195410     11.31640981    -13.85086918
C      15.14132874    -10.37535270     -6.55563504
H      20.40966811     -1.18880859     -5.77447867
H      21.56373714      0.33529179    -17.86749973
H      14.12993549    -10.78135656     -6.86168828
H      -1.92366505     -2.62767420    -19.90070397
C       2.31546708      6.10424331     -6.28026551
C      -2.26349061     -3.72527451    -19.57864806
C       3.13670113      7.26350945     -6.98266366
H       3.37928488      9.77997035     -7.09357494
H      -1.42029614      0.80096618     -3.05030042
C       2.75217617      8.78764441     -7.46994655
C       0.07726496     10.56023866      3.99511012
C       4.52365664      6.75671499     -7.47031188
H       8.58633138     24.89849718      4.98160510
C       3.69176238      7.51940046     -9.63132443
H      -3.81778834     19.47378518     -4.36757997
H      -0.82472234      9.92914900      4.25530089
H       1.79948523      9.25715979     -6.85169548
H       7.04770871     12.14270411    -27.54789153
   48
energy=      0.00000000
C      -0.67052638      3.52857816     -4.22214045
C      -0.77577545      2.15353027     -3.47747301
H      -1.73082195      4.01029446     -4.46505899
H       6.81839612     -6.31103832     -1.76515883
C       0.64024187     -4.43194003    -11.66428353
C       0.54556067     -5.95735354    -11.95150375
H      -0.55689177     -4.30725069    -14.01822574
C       2.32277020     -3.88856745     -9.21630176
C       0.54992247      4.32376143     -4.80401031
H      11.96370767      8.67135178      2.92240545
H      11.45986288      8.26235642      2.49024174
C       1.44312528      5.00472543     -5.89717453
C      20.32304482     -0.03961885     -5.93780813
H      -0.85565904      7.93520900    -19.55829066
C       2.27065732      9.49554150    -10.41588245
C       2.91150919      8.78712573     -9.11597169
H       2.71458183     10.46342744    -10.97542318
H       1.30484317      9.10029431    -11.01267013
C      22.36422602     11.70451952     -4.01822955
H       1.47698566      4.34425234     -6.88434487
C      -4.46867838     18.68858392     -3.80723512
H      23.43726691     11.34887123     -4.07376589
H      -5.11956839     17.90338270     -3.24689017
H     -13.44119247     -3.09089256    -15.32082243
H      20.24144020      1.10991121     -6.09938322
H      14.06178378     12.05123971    -13.72595613
C      -0.15722767     -4.62341923    -10.34667889
C       1.72293533     -3.92013998    -10.61766572
H      13.83195410     11.31640981    -13.85086918
C      16.80168383    -11.23843549     -6.88984693
H      20.40566933     -1.18902794     -5.77589104
H      21.56374031      0.33529275    -17.86753026
H      15.79029059    -11.64443934     -7.19590016
H       0.15422104     -3.15209344    -14.06085255
C       2.23665806      6.34451827     -6.07598320
C       0.15125712     -3.91129089    -13.14009842
C       3.11876112      7.48634651     -6.70342928
H       3.46846413      9.84331519     -7.04798154
H      -1.05515746      1.14695317     -2.95729071
C       2.79954736      8.90100305     -7.47311163
C       0.04767048     10.61432669      4.15599417
C       4.54747010      6.90426598     -6.60215074
H       8.58633138     24.89849718      4.98160510
C       3.88431243      7.76866707     -9.76574128
H      -3.81778836     19.47378515     -4.36758004
H      -0.85431682      9.98323703      4.41618493
H       1.74800189      9.37058898     -7.04346320
H       7.04770985     12.14270472    -27.54789268
