   48
energy=      0.00000000
C      -7.79052906      1.92303860     -0.26618492
C      -6.89233721      2.91605780     -0.95667826
H      19.22224790      0.45931728     -5.70691963
H       7.56137573     -9.84641253     -0.98589731
C       0.29627209     -5.30895047    -12.55239908
C       0.42541171     -6.83878193    -12.59322879
H      -1.29854869     -4.51587498    -14.27403554
C       2.39345140     -3.75480850     -8.85541218
C       7.76038712      0.75354349     -3.72642525
H      13.68545401      9.94114560      4.86681129
H      13.18160922      9.53215024      4.43464759
C       6.69262888     -0.29924978     -3.86014731
C      20.34299007      0.04374801     -5.80266786
H      -1.76323596      7.66737057    -20.92450459
C       3.48840644     13.51177814    -10.25740719
C       3.35792236     12.49410271     -9.17769084
H       2.89858117     19.93810912    -16.75147551
H      12.10962698      1.79561597    -16.65920876
C      10.22999061      2.13315296     -3.52560536
H      11.01997132      1.26267082     -3.75517773
C      -4.49455873     18.71209067     -3.79114699
H      10.81758607      3.17898390     -3.51603312
H      -5.14544875     17.92688945     -3.23080205
H     -13.44119247     -3.09089256    -15.32082243
H      21.24358497      0.79792969     -6.04363186
H      15.59584980     14.49683442    -13.76427070
C       0.77272820     -4.77851478    -11.17394610
C       1.48829929     -4.24240820     -9.94679413
H      15.36602012     13.76200453    -13.88918375
C       7.85003506      2.80106403     -2.23937879
H      20.56318091     -1.12601877     -5.65745585
H      12.79364360      1.50013285    -16.88988384
H       7.29546112      3.36947142     -1.39020051
H       0.46523435     -3.61172596    -14.34544726
C       3.48985179      8.98050417    -10.16430381
C      -0.20633369     -4.43323317    -13.78725046
C       3.46770726      9.74095007     -8.82217839
H      -6.20400829      3.67705784     -1.48583762
H      -5.94890436     -8.23419838      3.62522520
C       3.10226625     11.23085581     -8.30024431
C       8.67331767      1.91157619     -3.22739798
C       4.03173019      8.71138317     -7.83658983
H       8.58633138     24.89849718      4.98160510
C       4.11304239     12.09647528     -7.39452095
H      -3.84366871     19.49729190     -4.35149192
H       4.89800552     12.82855300     -6.89729013
H       1.88199685     11.12201861     -8.23572539
H       7.11956648     12.18006490    -27.61292548
   48
energy=      0.00000000
C      -7.79052905      1.92303859     -0.26618492
C      -6.89233723      2.91605782     -0.95667827
H       7.19251704      9.57665390     -8.34532956
H       7.48068694    -10.49092986     -0.87712143
C       0.30161395     -5.31027058    -12.55596821
C       0.42693814     -6.84035519    -12.59879242
H      -1.30934361     -4.50070038    -14.25414020
C       2.37773082     -3.75023078     -8.84298839
C       8.09248018      0.12432894     -3.27602686
H      13.68545401      9.94114560      4.86681129
H      13.18160922      9.53215024      4.43464759
C       7.06454117     -0.95601626     -3.47814979
C      20.61022418     -0.05552383     -5.82524195
H      -1.76323596      7.66737057    -20.92450459
C       6.84622117     11.23739790     -9.72510946
C       6.28956724     10.33966655     -8.60878271
H       2.89858117     19.93810912    -16.75147551
H      12.10962698      1.79561597    -16.65920876
C      10.55985744      1.47776486     -3.08685535
H      11.35024560      0.60586270     -3.31184922
C      -4.49455873     18.71209067     -3.79114699
H      11.13689186      2.52831512     -3.12642903
H      -5.14544875     17.92688945     -3.23080205
H     -13.44119247     -3.09089256    -15.32082243
H      21.15050348      0.94839799     -6.05297253
H      15.59584980     14.49683442    -13.76427070
C       0.78545630     -4.78043087    -11.17987831
C       1.49305516     -4.24303173     -9.94871323
H      15.36602012     13.76200453    -13.88918375
C       8.19670425      2.15585519     -1.75309550
H      20.39704812     -1.18082977     -5.62558108
H      12.79364360      1.50013285    -16.88988384
H       7.61529585      2.76702188     -0.95257816
H       0.46851742     -3.62609301    -14.36087623
C       3.18273939      9.51146145    -10.54135090
C      -0.20745385     -4.43318567    -13.78715696
C       3.80678737      9.73083644     -9.14145469
H      -6.20400828      3.67705782     -1.48583762
H      -5.94890436     -8.23419838      3.62522520
C       4.74128592     10.87372023     -8.46787451
C       9.00931106      1.26728674     -2.75138269
C       3.41715041      8.65644574     -8.11441491
H       8.58633138     24.89849718      4.98160510
C       4.69883359     12.27839475     -7.68180751
H      -3.84366871     19.49729190     -4.35149192
H       4.59072118     13.35474007     -7.20910855
H       3.67407339     11.40554716     -8.57037261
H       7.11956648     12.18006490    -27.61292548
