   48
energy=      0.00000000
C       0.52414308      1.92790411     -4.23506154
C       2.02369839      1.98908254     -4.67094702
H      -0.61001766      1.89425961     -3.97629157
H      -1.46469365     10.11738427     -7.41784792
C      -0.19567100     -1.02985037    -15.04179696
C       0.07391856     -2.34464409    -14.32940038
H      -0.91503345     -1.45320185    -16.52416042
C      11.38628666     -1.69810886      6.76641265
C      11.87539695     -2.96653108      7.39733703
H      10.23809616      7.82159052      2.24401158
H       9.73409544      7.41231692      1.81171724
C      12.36450096     -4.23494907      8.02827479
C      13.95921609     -0.66970021     -6.47758644
H      10.27640246     -6.51511033    -15.36452135
C      -2.67087668     12.08915274    -11.54019230
C      -3.14078664     11.48863385    -10.10262600
H      -1.60590323     12.55460032    -11.84991724
H      -3.31082252     12.18344913    -12.55557999
C      20.96073597      7.59418997     -4.71608918
H      -3.78119166     10.47410568    -10.29143143
C      -2.91229394     12.01395259     -8.54188782
H      22.03377687      7.23854168     -4.77162553
H      -3.93868599     12.02769454     -7.85806170
H     -12.20666481     -3.07960105    -15.54233651
H      14.18991396      0.47147761     -6.52918519
H      13.91402210     12.00390572    -13.64739801
C       4.04052488     -0.24395115     -4.16351335
C       3.02430335      0.85468356     -4.31600605
H      13.68419242     11.26907583    -13.77231106
C      13.64845785     -2.20730334     -6.40804593
H      14.46902565     -2.99013255     -6.03097170
H      21.49933979      0.30763831    -17.48028780
H      12.58216056     -2.64045280     -6.73011859
H      -0.48908460      0.31444677    -17.41327122
C      10.14048950     -6.18077316    -16.46387706
C      -0.46959139     -0.37844842    -16.43521335
C      10.43994124     -5.73915857    -17.89827479
H      10.94635721     -5.40919287    -18.88498370
H       2.43163253      2.89518376     -5.32410280
C       0.29573998     15.52446653      2.30058234
C       0.78894757     14.63909929      1.15273788
C      -0.55833879     11.92991554     -6.91005134
H       7.87290151     24.05421652      4.85116132
C      -1.71899650     11.26158590     -7.68574836
H      -2.80625755     13.24000446     -8.49521171
H       1.16172851     13.97059115      0.28455538
H      -0.07708170     16.19440503      3.16764406
H       3.54504596      9.73491571    -19.64603150
   48
energy=      0.00000000
C       0.74936955      0.45968785     -2.58939635
C       2.24497514      0.54211338     -3.03523082
H      -0.37011836      0.40844737     -2.27580357
H       1.02226322      6.19299847    -10.86944948
C      -0.26567405     -2.79751807    -16.00789170
C       0.07105781     -3.70873200    -14.85738542
H      -1.45228682     -3.06520444    -18.00563409
C      11.38628743     -1.69810937      6.76641102
C      11.87539542     -2.96653005      7.39734029
H      10.31503270      7.88604676      2.29929827
H       9.81103198      7.47677316      1.86700393
C      12.36450173     -4.23494959      8.02827316
C      13.95922611     -0.66974074     -6.47758152
H       3.75434071      3.57748481    -12.68995140
C      -1.26849894     11.16992006    -11.88297316
C      -0.75277053      9.64323259    -11.49200545
H      -0.86446834     12.29693612    -11.73489616
H      -2.30371759     11.63683106    -12.30569234
C      20.96073597      7.59418997     -4.71608918
H      -1.86270549      9.32999948    -11.12210550
C       0.50688754      8.53232712    -11.15468578
H      22.03377687      7.23854168     -4.77162553
H      -0.11214749      8.10821996    -10.18509647
H     -12.50295077     -3.11062556    -15.51986444
H      14.18987968      0.47144323     -6.52919086
H      13.91402211     12.00390572    -13.64739801
C       4.22636728     -1.71000436     -2.44794104
C       3.23598796     -0.60603135     -2.69837819
H      13.68419243     11.26907583    -13.77231106
C      13.64846279     -2.20733888     -6.40804107
H      14.46908375     -2.99010931     -6.03095314
H      21.49933979      0.30763831    -17.48028780
H      12.58212178     -2.64036560     -6.73014126
H      -0.50733337     -1.24169931    -17.88257054
C       3.08681788      4.52347190    -12.42942555
C      -0.76917158     -2.30023443    -17.39711402
C       2.45441516      5.99485695    -12.26573152
H       3.24823530      6.14955346    -13.14468259
H       2.65738438      1.47341120     -3.64916421
C       0.29573085     15.52471808      2.30038265
C       0.78893849     14.63935081      1.15253821
C       2.93240799      7.68630012    -10.85075954
H       7.87290899     24.05422568      4.85116451
C       1.55979284      7.14999737    -11.41277997
H       1.25220905      9.48158992    -10.93040062
H       1.16173397     13.97033484      0.28475321
H      -0.07707645     16.19414912      3.16784242
H       4.54700551     10.67078109    -22.75190888
