   48
energy=      0.00000000
C      -3.93624710      2.09026866      0.86656231
C      -2.42619691      2.34399946      0.87326585
H      -5.07761887      1.89828475      0.86183888
H      -1.28476228      2.53559108      0.87867645
C     -11.22203038     -8.20794708     -0.15645413
C      -9.84843795     -7.59076257     -0.11236420
H      -8.79578846     -7.11777763     -0.07857578
C      10.47019954      3.80188239      2.37044385
C      10.98078912      2.48211242      3.02423078
H      10.94152661      4.84970217      2.69269295
H       9.60666875      3.76653479      1.54764989
C      11.46893281      1.20948869      3.66214842
C      12.79989965     -6.19031406     -5.38529747
H      13.14254312     -6.78154677     -4.43267685
C      -1.64964881     10.46524856    -11.99998763
C      -2.17705182     10.43228580    -10.45912878
H      -0.73870949     11.04834835    -12.52085062
H      -2.10731822      9.90136596    -12.96271790
C       9.20671854      5.97060881     -8.98611502
H      -3.07381954      9.61859243    -10.47717654
C      -1.94939750     11.19499992     -9.00117833
H      10.27978492      5.61495610     -9.04164050
H      -2.54521499     10.49240525     -8.19577455
H      -3.37306219     -0.17671330    -14.88444509
H      15.18042120     16.61312841     -9.35364896
H      15.42433119     16.31351840     -8.68721897
C      13.93365312     -5.61630527     -9.25864346
C      13.11694007     -5.50274873     -7.96605083
H      14.60522534     -5.73823597    -10.19236813
C      12.26148965     -5.34640559     -6.63441925
H      12.27087355     -4.15919579     -6.34331807
H      17.86141545      0.94769594    -17.27080722
H      11.12331997     -5.70759902     -6.89597751
H       7.99573253      5.15738319    -25.27193795
C       9.27204343      6.08670647    -23.36275455
C       8.42183091      6.09618047    -24.67821220
C      10.75675155      5.71297839    -23.46211205
H      11.61367746      5.39744626    -24.18243618
H       8.40377250      6.93419560    -25.52217950
C       2.16520826     13.45295795      1.92643483
C       2.65062219     12.59418229      0.75604530
C      -0.42294651     11.93431697     -6.43144000
H       7.47570512     23.45972930      4.64026370
C      -0.94043383     11.51054941     -7.79744646
H      -2.11832459     12.38534690     -9.24508027
H       3.01542617     12.11928217     -0.23413160
H       1.79234699     14.31957628      2.59643861
H       6.70216011     15.09506216    -17.24965586
   48
energy=      0.00000000
C       2.92928832      3.31681511    -13.02263485
C       3.83363166      3.64192776    -14.33541506
H       2.34547606      3.11724487    -12.00398069
H       4.45602414      2.89871301    -13.60622461
C     -11.22203004     -8.20794783     -0.15645414
C      -9.84843873     -7.59076084     -0.11236416
H      -8.79578801     -7.11777862     -0.07857580
C      10.35453782      3.53070137      3.31539512
C      10.86408438      2.21117227      3.97048120
H      10.82637259      4.57855643      3.63678722
H       9.49166069      3.49501807      2.49193094
C      11.35416285      0.93794218      4.60569993
C      12.80721482     -6.25045910     -5.39545843
H      13.18889840     -6.86197648     -4.47130280
C      -2.20541422     11.10987712    -11.51726182
C      -2.80932510     11.00441543    -10.01023478
H      -1.24637992     11.70941741    -11.92038413
H      -2.61990011     10.61171660    -12.53347552
C      12.65937257      6.47131637     -7.59189392
H      -3.62540697     10.10811562    -10.03214582
C      -2.65611337     11.83923445     -8.58550549
H      13.73243895      6.11566366     -7.64741939
H      -3.34792792     11.28483029     -7.73968746
H      -6.18082367     -1.79741153    -15.00117075
H      15.65105399     18.05620417     -9.53339163
H      15.89496397     17.75659415     -8.86696164
C      13.96652444     -5.70972845     -9.22126740
C      13.13826579     -5.58050690     -7.93776835
H      14.59617515     -5.79884908    -10.18730973
C      12.25130577     -5.39772097     -6.63043461
H      12.23494489     -4.20903415     -6.34556353
H      17.86972878      0.93820686    -17.28794952
H      11.10737508     -5.73849689     -6.89443181
H       4.09995906      3.72689159    -16.82139039
C       5.82452923      3.83019654    -16.89814994
C       4.67565935      3.69892360    -15.78750801
C       6.56396437      4.00923471    -18.26497845
H       7.06916904      4.15477631    -19.31202968
H       3.08352962      4.59036736    -14.52832116
C       2.20752211     13.52708250      1.98832704
C       2.70018027     12.64354947      0.83896592
C      -0.79920031     12.47764381     -6.22312329
H       7.50028839     23.51008991      4.65641467
C      -1.49095113     12.08309393     -7.51619181
H      -2.89004159     13.02069949     -8.82291419
H       3.06921203     12.06197509     -0.09114078
H       1.83359604     14.28040206      2.78343561
H       6.80963089     15.62342162    -17.39255267
