   48
energy=      0.00000000
C      -6.18913544      1.99937768     -0.56441404
C      -5.28729828      2.98947496     -1.25435094
H       3.95623687      4.39452223     -1.54133566
H       7.10633052     -6.69101533     -1.49225555
C       0.19602004     -5.27451684    -12.45171153
C       0.54343395     -6.77100196    -12.46438441
H      -1.03045617     -4.71413558    -14.52634012
C       2.66017147     -3.94905286     -9.30416904
C       5.11710502      4.37212591     -5.16390577
H      12.03656798      8.69058124      3.01754088
H      11.53272319      8.28158588      2.58537716
C       5.05138253      4.29911768     -6.72603901
C      20.32338442     -0.03957857     -5.93769425
H      -0.85565904      7.93520899    -19.55829066
C       3.93997729     10.37511295    -10.58217692
C       4.45568987      9.05978644     -9.90039823
H       3.62022518     11.28381018    -11.24223028
H      12.15461631      1.79419429    -16.52714740
C      22.36422602     11.70451952     -4.01822955
H       4.50158284      3.42911487     -7.31553030
C      -4.46867838     18.68858393     -3.80723511
H      23.43726691     11.34887123     -4.07376589
H      -5.11956839     17.90338270     -3.24689018
H     -13.44119247     -3.09089256    -15.32082243
H      20.24127040      1.10989121     -6.09944018
H      14.83160586     14.18560679    -13.52415689
C       0.40404945     -4.71781630    -11.01776023
C       1.31352225     -4.20232203     -9.91523886
H      14.60177618     13.45077690    -13.64906994
C       4.97314479      4.56860163     -3.61480721
H      20.40549954     -1.18904821     -5.77594796
H      12.83863292      1.49871116    -16.75782247
H       5.67865057      3.61346143     -3.62057456
H       0.41081620     -3.42889804    -14.09455006
C       5.24460439      5.58899248     -7.58081453
C      -0.16102428     -4.42651221    -13.75433481
C       5.15915832      7.12647012     -7.83893909
H      -4.60296300      3.75365318     -1.78410882
H      -5.95012592     -8.08342989      3.56170026
C       4.26290881      8.26277271     -8.52510305
C       4.28574568      5.23484882     -2.31085101
C       6.31030406      7.63879575     -6.96389449
H       8.58633138     24.89849718      4.98160510
C       5.36588669      8.45107694    -10.97465899
H      -3.81778836     19.47378515     -4.36758004
H       3.88845498      6.10303119     -1.57321954
H       3.32987738      8.63853273     -7.87367133
H       7.04770985     12.14270472    -27.54789268
   48
energy=      0.00000000
C      -7.79096923      1.92339200     -0.26625240
C      -6.89132056      2.91524558     -0.95652437
H       4.12185156      2.46669679      0.57253210
H       7.63298645     -9.06270252     -1.14289730
C       0.20780214     -5.27882422    -12.46749958
C       0.51299670     -6.78428509    -12.48505754
H      -1.06461199     -4.69865454    -14.51209144
C       2.64008855     -3.91273406     -9.22995866
C       5.28470547      2.70583848     -3.10813076
H      13.27540360      9.51997521      4.09908593
H      12.77155882      9.11097985      3.66692222
C       5.18433953      2.26013627     -4.57206984
C      20.32338470     -0.03957853     -5.93769416
H      -1.76323596      7.66737057    -20.92450459
C       3.80881659     12.09522970    -12.53774426
C       4.34000387     10.76796182    -11.90154837
H       3.45030746     13.04017411    -13.11770142
H      12.15461631      1.79419429    -16.52714740
C      22.36422602     11.70451952     -4.01822955
H       4.85845851      1.59590077     -5.46332873
C      -4.46867838     18.68858393     -3.80723511
H      23.43726691     11.34887123     -4.07376589
H      -5.11956839     17.90338270     -3.24689018
H     -13.44119247     -3.09089256    -15.32082243
H      20.24127026      1.10989119     -6.09944022
H      15.59584980     14.49683442    -13.76427070
C       0.46031557     -4.72679538    -11.03893812
C       1.33695716     -4.21101612     -9.91055035
H      15.36602012     13.76200453    -13.88918375
C       5.35110148      2.58064496     -1.54954792
H      20.40549940     -1.18904823     -5.77594801
H      12.83863292      1.49871116    -16.75782247
H       6.16749272      1.71889905     -1.41497987
H       0.41239100     -3.44327386    -14.12118824
C       5.01415221      7.46658722     -9.69548557
C      -0.16940750     -4.42867597    -13.76320724
C       5.04553067      9.00011565     -9.75775934
H      -6.20458477      3.67751665     -1.48592404
H      -5.94890436     -8.23419838      3.62522520
C       4.10239362     10.05684478    -10.48982228
C       4.57107371      3.18383960     -0.27671973
C       6.24381430      9.41686446     -8.89804481
H       8.58633138     24.89849718      4.98160510
C       5.25206750     10.13982181    -12.96596963
H      -3.81778836     19.47378515     -4.36758004
H       4.32530950      4.28813311      0.12685735
H       3.12867936     10.35453118     -9.85735670
H       7.11956648     12.18006490    -27.61292548
