   48
energy=      0.00000000
C      -3.82673296      0.96714242     -3.85998229
C      -3.54593900     -0.16636718     -2.82370664
H      -4.99158973      0.90550842     -3.63963345
H       5.93845338     -3.53678277     -9.28258630
C      -1.46705787     -4.35801869    -17.73090928
C      -1.00127796     -4.94983562    -16.42799038
H      -2.66850559     -4.39349735    -19.79665582
C       8.06474125     -3.98721049      3.91239750
C       6.27818159      5.58644895     -4.44536249
H      11.96370766      8.67135178      2.92240545
H      11.45986287      8.26235642      2.49024174
C       5.55490500      6.33515051     -5.53010574
C      17.73283331     -1.78643250     -6.38336678
H      -0.85318486      7.89591344    -19.56204003
C       2.37703833      9.16420545    -10.84279109
C       2.90041874      9.00821957     -9.30989675
H       2.78446786      9.88077702    -11.71379747
H       1.64144172      8.63300751    -11.62911457
C      21.47884035      8.44733797     -4.54046556
H      -3.15873454      1.64421018     -4.59448181
C      -4.46868362     18.68857746     -3.80725024
H      22.55188125      8.09168968     -4.59600190
H      -5.11956577     17.90338592     -3.24688260
H     -13.29127527     -3.10282016    -15.36554490
H      17.96347866     -0.64524702     -6.43497867
H      14.06178378     12.05123971    -13.72595613
C       6.28153523     -4.11138778      1.50625678
C       7.17297774     -4.04893508      2.70942730
H      13.83195410     11.31640981    -13.85086918
C      17.42206894     -3.32403039     -6.31382652
H      18.24268744     -4.10680368     -5.93673895
H      21.49933979      0.30763831    -17.48028780
H      16.35572593     -3.75705125     -6.63592791
H      -1.61665497     -2.65885507    -19.40829613
C       4.75165177      7.18555717     -6.50791072
C      -1.95499952     -3.75611879    -19.08352240
C       4.00401516      8.11312583     -7.52049959
H       3.35479104     10.58546062     -7.50395833
H      -3.10056228     -0.97103705     -2.11773498
C       3.07976386      9.41274633     -7.73421901
C       0.25647300     10.21137037      3.02103715
C       5.51704280      8.25603725     -9.80467068
H       8.58633138     24.89849718      4.98160510
C       4.18498510      8.15385847     -9.05949763
H      -3.81778574     19.47378837     -4.36757247
H      -0.64551431      9.58028071      3.28122791
H       2.44636973      9.60121248     -6.70566706
H       7.04131561     12.13928590    -27.54142929
   48
energy=      0.00000000
C      -0.57098805      2.74668492     -4.16164590
C      -1.12718314      1.42602707     -3.46140654
H      -1.67195482      3.00778193     -4.52005742
H       6.17628126     -4.59026082     -9.51671695
C      -1.48004820     -4.35947404    -17.74716747
C      -1.01220590     -4.94709965    -16.44309129
H      -2.68109414     -4.39195318    -19.81387742
C       8.06470961     -3.98713865      3.91241730
C       0.54936778      3.80801315     -4.65237139
H      11.96370767      8.67135178      2.92240545
H      11.45986288      8.26235642      2.49024174
C       1.41460768      4.82392886     -5.58702038
C      17.78269250     -1.78651576     -6.36998270
H      -0.85325044      7.89669763    -19.56198482
C       2.46477443      9.03762328    -10.59260989
C       2.89793788      8.55376383     -9.10670971
H       2.86877522      9.90764916    -11.32047542
H       1.61193876      8.53201310    -11.26514046
C      21.48643802      8.46615928     -4.53744620
H       1.14661168      4.12998056     -6.49214512
C      -4.46867881     18.68858339     -3.80723637
H      22.55947891      8.11051098     -4.59298254
H      -5.11956818     17.90338297     -3.24688954
H     -13.29859973     -3.10223629    -15.36355665
H      18.01333784     -0.64533028     -6.42159459
H      14.06178378     12.05123971    -13.72595613
C       6.28150353     -4.11131594      1.50627651
C       7.17304108     -4.04907875      2.70938777
H      13.83195410     11.31640981    -13.85086918
C      17.47192813     -3.32411366     -6.30044244
H      18.29254662     -4.10688695     -5.92335487
H      21.49933979      0.30763831    -17.48028780
H      16.40558512     -3.75713451     -6.62254383
H      -1.62807047     -2.65875101    -19.42227302
C       2.25268852      6.03396485     -6.29911950
C      -1.96743838     -3.75625210    -19.09939038
C       2.90470660      7.20252950     -7.23690727
H       3.38881541      9.87152403     -7.31875323
H      -1.80027816      0.55240274     -3.02882684
C       2.78357444      8.81193436     -7.51359292
C       0.08478959     10.54570844      3.95377552
C       5.22222523      7.43114005     -9.15336737
H       8.58633138     24.89849718      4.98160510
C       3.80939454      7.41459223     -8.52795677
H      -3.81778814     19.47378542     -4.36757941
H      -0.81719771      9.91461878      4.21396629
H       2.01516919      9.34705255     -6.73271597
H       7.04144548     12.13935570    -27.54156056
