   48
energy=      0.00000000
C      -4.57390076      0.43188920     -1.56768768
C      -3.22225023      0.85144122     -2.15218764
H      -5.61349377      0.15295260     -1.14220805
H       5.73200841     -1.43134299     -9.02193730
C      -1.29003713     -3.70963666    -17.57764934
C      -0.83744133     -4.33057242    -16.28365753
H      -2.49330163     -3.76604899    -19.63719589
C       8.05443097     -3.97683900      3.80638965
C      15.09170565     -3.52800861     11.07972004
H      10.73595772      8.68209086      2.41007253
H      10.23195700      8.27281726      1.97777819
C      15.57451781     -4.78530873     11.70289325
C      17.55749625     -1.77076674     -6.42468951
H       2.50446443      6.95759669    -10.01383218
C      -0.06627565      9.91920335    -14.14609414
C       0.27957258      9.26425862    -12.68163808
H       0.41053169     10.80665090    -14.80201269
H      -0.83110612      9.63569890    -15.03760796
C      21.45687468      8.39413007     -4.54912459
H      -0.03838920      8.11447612    -12.86209309
C      -4.09663136     17.95036943     -3.58636880
H      22.52991557      8.03848177     -4.60466094
H      -4.74597568     17.16707078     -3.02158731
H     -13.19852271     -3.10845451    -15.39005504
H      17.78814176     -0.62958129     -6.47630133
H      13.91402211     12.00390572    -13.64739801
C       6.27112975     -4.10133291      1.40034166
C       7.16166287     -4.03677178      2.60407417
H      13.68419243     11.26907583    -13.77231106
C      17.24673191     -3.30836463     -6.35514924
H      18.06735047     -4.09113785     -5.97806165
H      21.49933979      0.30763831    -17.48028780
H      16.18038893     -3.74138559     -6.67725061
H      -1.44959753     -2.02170306    -19.27114678
C       2.00168307      7.97973664     -9.72783397
C      -1.78119833     -3.11708346    -18.93322167
C       1.37187512      9.43006774     -9.63605512
H       1.54543216     11.90033235     -6.15232983
H      -2.22018138      1.20653253     -2.60974671
C       1.42746594     10.81083053     -6.64471665
C       1.49404183      9.93370764     -8.04755296
C       2.44946759      9.55048693    -12.00694577
H       8.58633138     24.89849718      4.98160510
C       1.08889372      9.53310227    -11.26868577
H      -3.44420909     18.73745702     -4.14226561
H       2.00724744      9.07153845     -7.40489048
H       1.35290150     10.60138041     -5.45263070
H       5.85777975     11.29228224    -25.81333570
   48
energy=      0.00000000
C      -4.85285775      0.14317508     -1.35864208
C      -3.50123496      0.56281715     -1.94318136
H      -5.88075945     -0.16112730     -0.92226404
H       5.84403538     -3.18846498     -9.18733952
C      -1.44569619     -4.32858168    -17.70711708
C      -0.98307479     -4.92707747    -16.40612407
H      -2.64768241     -4.36884840    -19.77138478
C       8.06462530     -3.98726264      3.91075517
C       5.94787578      5.33952384     -2.93631058
H      10.77705580      8.68326269      2.46100861
H      10.27321097      8.27426731      2.02884485
C       5.28955664      5.98051445     -4.14633043
C      17.68454779     -1.78354275     -6.39518918
H      -0.28582674      7.91560719    -18.63527486
C       1.82420986      8.91136796    -10.49468991
C       2.30172100      8.01913138     -9.20150223
H       2.04135116      9.87673462    -11.17011014
H       0.97075118      8.86707743    -11.33891595
C      21.47246163      8.43172528     -4.54299008
H       1.45433729      7.17502764     -9.17403012
C      -4.09564706     17.95158111     -3.58352754
H      22.54550252      8.07607698     -4.59852643
H      -4.74647454     17.16645685     -3.02300216
H     -13.28040815     -3.10368334    -15.36847148
H      17.91519316     -0.64235727     -6.44680106
H      13.91402211     12.00390572    -13.64739801
C       6.28141951     -4.11143991      1.50461477
C       7.17268337     -4.04858225      2.70789654
H      13.68419243     11.26907583    -13.77231106
C      17.37378343     -3.32114064     -6.32564892
H      18.19440193     -4.10391392     -5.94856135
H      21.49933979      0.30763831    -17.48028780
H      16.30744043     -3.75416152     -6.64775031
H      -1.59769637     -2.63193966    -19.38816539
C       4.62209393      6.65345030     -5.38191842
C      -1.93445145     -3.72880375    -19.06037899
C       3.75044248      7.50383252     -6.43187161
H       2.78973120     11.02307519     -5.98204319
H      -2.48601380      0.89285839     -2.39040214
C       2.53050371     10.04049509     -5.34131445
C       2.75621192      8.46069592     -5.60786789
C       4.61829645      8.57963679     -8.59926516
H       8.58633138     24.89849718      4.98160510
C       3.41859826      7.82688100     -8.00889454
H      -3.44469453     18.73685927     -4.14369201
H       1.81290255      7.78240351     -5.30657117
H       1.85360087     10.50851661     -4.46991866
H       6.86308736     12.04011928    -27.34626946
