! PBE0 def2-SVP tightscf OPT FREQ
* xyz 0 1
XXX
*
