! PBE0 def2-SVP tightscf ENGRAD
* xyz 0 1
XXX
*
