    4
Starting structure. Energy in au =    -7.10452959
C      -0.08536281     -0.00304049      0.00000000
O      -1.21267567      0.00212009     -0.00000000
H       5.50076267     -0.03121984     -0.00000000
H       5.49727584     -0.80785977     -0.00000000
    4
Product of reaction   1 Energy in au =    -7.10453522
C      -2.98845040      0.19484801     -0.00000000
O      -4.11576012      0.20000803      0.00000000
H       8.40384845     -0.22907896      0.00000000
H       8.40036342     -1.00577751     -0.00000000
    4
Product of reaction   2 Energy in au =    -7.10453522
C      -2.98854083      0.19485506     -0.00000000
O      -4.11585013      0.20001356      0.00000000
H       8.40393949     -0.22909253      0.00000000
H       8.40045678     -1.00577754     -0.00000000
    4
Product of reaction   3 Energy in au =    -7.09618242
C       2.45864004      0.58727752      0.00000000
O       1.67482027     -0.40876727     -0.00000000
H       3.54134893      0.31337023     -0.00000000
H       2.02519610     -1.33188192     -0.00000000
    4
Product of reaction   4 Energy in au =    -7.09618243
C       2.46083973      0.58719283      0.00000000
O       1.67413462     -0.40657168     -0.00000000
H       3.54284585      0.30995623      0.00000000
H       2.02218514     -1.33057882     -0.00000000
    4
Product of reaction   5 Energy in au =    -7.09618243
C       2.46314566      0.58708573     -0.00000000
O       1.67356905     -0.40439881      0.00000000
H       3.54434484      0.30672060     -0.00000000
H       2.01894582     -1.32940898      0.00000000
    4
Product of reaction   6 Energy in au =    -7.17564809
C       2.42419225     -0.20972422      0.00000000
O       1.30295743      0.19509301      0.00000000
H       3.30124059      0.45937679     -0.00000000
H       2.67161511     -1.28474704      0.00000000
