    4

C      -2.98845040      0.19484801     -0.00000000
O      -4.11576012      0.20000803      0.00000000
H       8.40384845     -0.22907896      0.00000000
H       8.40036342     -1.00577751     -0.00000000
    4

C      -2.98846046      0.19484880      0.00000000
O      -4.11577013      0.20000864      0.00000000
H       8.40385858     -0.22908015      0.00000000
H       8.40037380     -1.00577784      0.00000000
    4

C      -2.98847051      0.19484958      0.00000000
O      -4.11578015      0.20000926      0.00000000
H       8.40386871     -0.22908133      0.00000000
H       8.40038419     -1.00577816      0.00000000
    4

C      -2.98848057      0.19485037      0.00000000
O      -4.11579016      0.20000987      0.00000000
H       8.40387884     -0.22908252      0.00000000
H       8.40039457     -1.00577849      0.00000000
    4

C      -2.98849063      0.19485115      0.00000000
O      -4.11580018      0.20001049      0.00000000
H       8.40388897     -0.22908370      0.00000000
H       8.40040496     -1.00577882      0.00000000
    4

C      -2.98850068      0.19485194      0.00000000
O      -4.11581020      0.20001110      0.00000000
H       8.40389910     -0.22908489      0.00000000
H       8.40041534     -1.00577915      0.00000000
    4

C      -2.98851074      0.19485272      0.00000000
O      -4.11582021      0.20001172      0.00000000
H       8.40390923     -0.22908607      0.00000000
H       8.40042573     -1.00577948      0.00000000
    4

C      -2.98852080      0.19485350      0.00000000
O      -4.11583023      0.20001233      0.00000000
H       8.40391935     -0.22908726      0.00000000
H       8.40043611     -1.00577981      0.00000000
    4

C      -2.98853086      0.19485429      0.00000000
O      -4.11584024      0.20001295      0.00000000
H       8.40392948     -0.22908844      0.00000000
H       8.40044650     -1.00578013      0.00000000
    4

C      -2.98854083      0.19485506     -0.00000000
O      -4.11585013      0.20001356      0.00000000
H       8.40393949     -0.22909253      0.00000000
H       8.40045678     -1.00577754     -0.00000000
